*SPEF "ieee 1481-1999"
*DESIGN "top"
*DATE "01:12:42 Friday May 22, 2026"
*VENDOR "The OpenROAD Project"
*PROGRAM "OpenROAD"
*VERSION "edf00dff99f6c40d67a30c0e22a8191c5d2ed9d6"
*DESIGN_FLOW "NAME_SCOPE LOCAL" "PIN_CAP NONE"
*DIVIDER /
*DELIMITER :
*BUS_DELIMITER []
*T_UNIT 1 NS
*C_UNIT 1 PF
*R_UNIT 1 OHM
*L_UNIT 1 HENRY

*NAME_MAP
*3 addr[0]
*4 addr[1]
*5 addr[2]
*6 addr[3]
*7 addr[4]
*8 addr[5]
*9 addr[6]
*10 addr[7]
*11 clk
*12 rdata[0]
*13 rdata[10]
*14 rdata[11]
*15 rdata[12]
*16 rdata[13]
*17 rdata[14]
*18 rdata[15]
*19 rdata[16]
*20 rdata[17]
*21 rdata[18]
*22 rdata[19]
*23 rdata[1]
*24 rdata[20]
*25 rdata[21]
*26 rdata[22]
*27 rdata[23]
*28 rdata[24]
*29 rdata[25]
*30 rdata[26]
*31 rdata[27]
*32 rdata[28]
*33 rdata[29]
*34 rdata[2]
*35 rdata[30]
*36 rdata[31]
*37 rdata[3]
*38 rdata[4]
*39 rdata[5]
*40 rdata[6]
*41 rdata[7]
*42 rdata[8]
*43 rdata[9]
*44 net117
*45 rst
*46 valid
*47 wdata[0]
*48 wdata[10]
*49 wdata[11]
*50 wdata[12]
*51 wdata[13]
*52 wdata[14]
*53 wdata[15]
*54 wdata[16]
*55 wdata[17]
*56 wdata[18]
*57 wdata[19]
*58 wdata[1]
*59 wdata[20]
*60 wdata[21]
*61 wdata[22]
*62 wdata[23]
*63 wdata[24]
*64 wdata[25]
*65 wdata[26]
*66 wdata[27]
*67 wdata[28]
*68 wdata[29]
*69 wdata[2]
*70 wdata[30]
*71 wdata[31]
*72 wdata[3]
*73 wdata[4]
*74 wdata[5]
*75 wdata[6]
*76 wdata[7]
*77 wdata[8]
*78 wdata[9]
*79 write
*80 _0000_
*81 _0001_
*82 _0002_
*83 _0003_
*84 _0004_
*85 _0005_
*86 _0006_
*87 _0007_
*88 _0008_
*89 _0009_
*90 _0010_
*91 _0011_
*92 _0012_
*93 _0013_
*94 _0014_
*95 _0015_
*96 _0016_
*97 _0017_
*98 _0018_
*99 _0019_
*100 _0020_
*101 _0021_
*102 _0022_
*103 _0023_
*104 _0024_
*105 _0025_
*106 _0026_
*107 _0027_
*108 _0028_
*109 _0029_
*110 _0030_
*111 _0031_
*112 _0032_
*113 _0033_
*114 _0034_
*115 _0035_
*116 _0036_
*117 _0037_
*118 _0038_
*119 _0039_
*120 _0040_
*121 _0041_
*122 _0042_
*123 _0043_
*124 _0044_
*125 _0045_
*126 _0046_
*127 _0047_
*128 _0048_
*129 _0049_
*130 _0050_
*131 _0051_
*132 _0052_
*133 _0053_
*134 _0054_
*135 _0055_
*136 _0056_
*137 _0057_
*138 _0058_
*139 _0059_
*140 _0060_
*141 _0061_
*142 _0062_
*143 _0063_
*144 _0064_
*145 _0065_
*146 _0066_
*147 _0067_
*148 _0068_
*149 _0069_
*150 _0070_
*151 _0071_
*152 _0072_
*153 _0073_
*154 _0074_
*155 _0075_
*156 _0076_
*157 _0077_
*158 _0078_
*159 _0079_
*160 _0080_
*161 _0081_
*162 _0082_
*163 _0083_
*164 _0084_
*165 _0085_
*166 _0086_
*167 _0087_
*168 _0088_
*169 _0089_
*170 _0090_
*171 _0091_
*172 _0092_
*173 _0093_
*174 _0094_
*175 _0095_
*176 _0096_
*177 _0097_
*178 _0098_
*179 _0099_
*180 _0100_
*181 _0101_
*182 _0102_
*183 _0103_
*184 _0104_
*185 _0105_
*186 _0106_
*187 _0107_
*188 _0108_
*189 _0109_
*190 _0110_
*191 _0111_
*192 _0112_
*193 _0113_
*194 _0114_
*195 _0115_
*196 _0116_
*197 _0117_
*198 _0118_
*199 _0119_
*200 _0120_
*201 _0121_
*202 _0122_
*203 _0123_
*204 _0124_
*205 _0125_
*206 _0126_
*207 _0127_
*208 _0128_
*209 _0129_
*210 _0130_
*211 _0131_
*212 _0132_
*213 _0133_
*214 _0134_
*215 _0135_
*216 _0136_
*217 _0137_
*218 _0138_
*219 _0139_
*220 _0140_
*221 _0141_
*222 _0142_
*223 _0143_
*224 _0144_
*225 _0145_
*226 _0146_
*227 _0147_
*228 _0148_
*229 _0149_
*230 _0150_
*231 _0151_
*232 _0152_
*233 _0153_
*234 _0154_
*235 _0155_
*236 _0156_
*237 _0157_
*238 _0158_
*239 _0159_
*240 _0160_
*241 _0161_
*242 _0162_
*243 _0163_
*244 _0164_
*245 _0165_
*246 _0166_
*247 _0167_
*248 _0168_
*249 _0169_
*250 _0170_
*251 _0171_
*252 _0172_
*253 _0173_
*254 _0174_
*255 _0175_
*256 _0176_
*257 _0177_
*258 _0178_
*259 _0179_
*260 _0180_
*261 _0181_
*262 _0182_
*263 _0183_
*264 _0184_
*265 _0185_
*266 _0186_
*267 _0187_
*268 _0188_
*269 _0189_
*270 _0190_
*271 _0191_
*272 _0192_
*273 _0193_
*274 _0194_
*275 _0195_
*276 _0196_
*277 _0197_
*278 _0198_
*279 _0199_
*280 _0200_
*281 _0201_
*282 _0202_
*283 _0203_
*284 _0204_
*285 _0205_
*286 _0206_
*287 _0207_
*288 _0208_
*289 _0209_
*290 _0210_
*291 _0211_
*292 _0212_
*293 _0213_
*294 _0214_
*295 _0215_
*296 _0216_
*297 _0217_
*298 _0218_
*299 _0219_
*300 _0220_
*301 _0221_
*302 _0222_
*303 _0223_
*304 _0224_
*305 _0225_
*306 _0226_
*307 _0227_
*308 _0228_
*309 _0229_
*310 _0230_
*311 _0231_
*312 _0232_
*313 _0233_
*314 _0234_
*315 _0235_
*316 _0236_
*317 _0237_
*318 _0238_
*319 _0239_
*320 _0240_
*321 _0241_
*322 _0242_
*323 _0243_
*324 _0244_
*325 _0245_
*326 _0246_
*327 _0247_
*328 _0248_
*329 _0249_
*330 _0250_
*331 _0251_
*332 _0252_
*333 _0253_
*334 _0254_
*335 _0255_
*336 _0256_
*337 _0257_
*338 _0258_
*339 _0259_
*340 _0260_
*341 _0261_
*342 _0262_
*343 _0263_
*344 _0264_
*345 _0265_
*346 _0266_
*347 _0267_
*348 _0268_
*349 _0269_
*350 _0270_
*351 _0271_
*352 _0272_
*353 _0273_
*354 _0274_
*355 _0275_
*356 _0276_
*357 _0277_
*358 _0278_
*359 _0279_
*360 _0280_
*361 _0281_
*362 _0282_
*363 _0283_
*364 _0284_
*365 _0285_
*366 _0286_
*367 _0287_
*368 _0288_
*369 _0289_
*370 _0290_
*371 _0291_
*372 _0292_
*373 _0293_
*374 _0294_
*375 _0295_
*376 _0296_
*377 _0297_
*378 _0298_
*379 _0299_
*380 _0300_
*381 _0301_
*382 _0302_
*383 _0303_
*384 _0304_
*385 _0305_
*386 _0306_
*387 _0307_
*388 _0308_
*389 _0309_
*390 _0310_
*391 _0311_
*392 _0312_
*393 _0313_
*394 _0314_
*395 _0315_
*396 _0316_
*397 _0317_
*398 _0318_
*399 _0319_
*400 _0320_
*401 _0321_
*402 _0322_
*403 _0323_
*404 _0324_
*405 _0325_
*406 _0326_
*407 _0327_
*408 _0328_
*409 _0329_
*410 _0330_
*411 _0331_
*412 _0332_
*413 _0333_
*414 _0334_
*415 _0335_
*416 _0336_
*417 _0337_
*418 _0338_
*419 _0339_
*420 _0340_
*421 _0341_
*422 _0342_
*423 _0343_
*424 _0344_
*425 _0345_
*426 _0346_
*427 _0347_
*428 _0348_
*429 _0349_
*430 _0350_
*431 _0351_
*432 _0352_
*433 _0353_
*434 _0354_
*435 _0355_
*436 _0356_
*437 _0357_
*438 _0358_
*439 _0359_
*440 _0360_
*441 _0361_
*442 _0362_
*443 _0363_
*444 _0364_
*445 _0365_
*446 _0366_
*447 _0367_
*448 _0368_
*449 _0369_
*450 _0370_
*451 _0371_
*452 _0372_
*453 _0373_
*454 _0374_
*455 _0375_
*456 _0376_
*457 _0377_
*458 _0378_
*459 _0379_
*460 _0380_
*461 _0381_
*462 _0382_
*463 _0383_
*464 _0384_
*465 _0385_
*466 _0386_
*467 _0387_
*468 _0388_
*469 _0389_
*470 _0390_
*471 _0391_
*472 _0392_
*473 _0393_
*474 _0394_
*475 _0395_
*476 _0396_
*477 _0397_
*478 _0398_
*479 _0399_
*480 _0400_
*481 _0401_
*482 _0402_
*483 _0403_
*484 _0404_
*485 _0405_
*486 _0406_
*487 _0407_
*488 _0408_
*489 _0409_
*490 _0410_
*491 _0411_
*492 _0412_
*493 _0413_
*494 _0414_
*495 _0415_
*496 _0416_
*497 _0417_
*498 _0418_
*499 _0419_
*500 _0420_
*501 _0421_
*502 _0422_
*503 _0423_
*504 _0424_
*505 _0425_
*506 _0426_
*507 _0427_
*508 _0428_
*509 _0429_
*510 _0430_
*511 _0431_
*512 _0432_
*513 _0433_
*514 _0434_
*515 _0435_
*516 _0436_
*517 _0437_
*518 _0438_
*519 _0439_
*520 _0440_
*521 _0441_
*522 _0442_
*523 _0443_
*524 _0444_
*525 _0445_
*526 _0446_
*527 _0447_
*528 _0448_
*529 _0449_
*530 _0450_
*531 _0451_
*532 _0452_
*533 _0453_
*534 _0454_
*535 _0455_
*536 _0456_
*537 _0457_
*538 _0458_
*539 _0459_
*540 _0460_
*541 _0461_
*542 _0462_
*543 _0463_
*544 _0464_
*545 _0465_
*546 _0466_
*547 _0467_
*548 _0468_
*549 _0469_
*550 _0470_
*551 _0471_
*552 _0472_
*553 _0473_
*554 _0474_
*555 _0475_
*556 _0476_
*557 _0477_
*558 _0478_
*559 _0479_
*560 _0480_
*561 _0481_
*562 _0482_
*563 _0483_
*564 _0484_
*565 _0485_
*566 _0486_
*567 _0487_
*568 _0488_
*569 _0489_
*570 _0490_
*571 _0491_
*572 _0492_
*573 _0493_
*574 _0494_
*575 _0495_
*576 _0496_
*577 _0497_
*578 _0498_
*579 _0499_
*580 _0500_
*581 _0501_
*582 _0502_
*583 _0503_
*584 _0504_
*585 _0505_
*586 _0506_
*587 _0507_
*588 _0508_
*589 _0509_
*590 _0510_
*591 _0511_
*592 _0512_
*593 _0513_
*594 _0514_
*595 _0515_
*596 _0516_
*597 _0517_
*598 _0518_
*599 _0519_
*600 _0520_
*601 _0521_
*602 _0522_
*603 _0523_
*604 _0524_
*605 _0525_
*606 _0526_
*607 _0527_
*608 _0528_
*609 _0529_
*610 _0530_
*611 _0531_
*612 _0532_
*613 _0533_
*614 _0534_
*615 _0535_
*616 _0536_
*617 _0537_
*618 _0538_
*619 _0539_
*620 _0540_
*621 _0541_
*622 _0542_
*623 _0543_
*624 _0544_
*625 _0545_
*626 _0546_
*627 _0547_
*628 _0548_
*629 _0549_
*630 _0550_
*631 _0551_
*632 _0552_
*633 _0553_
*634 _0554_
*635 _0555_
*636 _0556_
*637 _0557_
*638 _0558_
*639 _0559_
*640 _0560_
*641 _0561_
*642 _0562_
*643 _0563_
*644 _0564_
*645 _0565_
*646 _0566_
*647 _0567_
*648 _0568_
*649 _0569_
*650 _0570_
*651 _0571_
*652 _0572_
*653 _0573_
*654 _0574_
*655 _0575_
*656 _0576_
*657 _0577_
*658 _0578_
*659 _0579_
*660 _0580_
*661 _0581_
*662 _0582_
*663 _0583_
*664 _0584_
*665 _0585_
*666 _0586_
*667 _0587_
*668 _0588_
*669 _0589_
*670 _0590_
*671 _0591_
*672 _0592_
*673 _0593_
*674 _0594_
*675 _0595_
*676 _0596_
*677 _0597_
*678 _0598_
*679 _0599_
*680 _0600_
*681 _0601_
*682 _0602_
*683 _0603_
*684 _0604_
*685 _0605_
*686 _0606_
*687 _0607_
*688 _0608_
*689 _0609_
*690 _0610_
*691 _0611_
*692 _0612_
*693 _0613_
*694 _0614_
*695 _0615_
*696 _0616_
*697 _0617_
*698 _0618_
*699 _0619_
*700 _0620_
*701 _0621_
*702 _0622_
*703 _0623_
*704 _0624_
*705 _0625_
*706 _0626_
*707 _0627_
*708 _0628_
*709 _0629_
*710 _0630_
*711 _0631_
*712 _0632_
*713 _0633_
*714 _0634_
*715 _0635_
*716 _0636_
*717 _0637_
*718 _0638_
*719 _0639_
*720 _0640_
*721 _0641_
*722 _0642_
*723 _0643_
*724 _0644_
*725 _0645_
*726 _0646_
*727 _0647_
*728 _0648_
*729 _0649_
*730 _0650_
*731 _0651_
*732 _0652_
*733 _0653_
*734 _0654_
*735 _0655_
*736 _0656_
*737 _0657_
*738 _0658_
*739 _0659_
*740 _0660_
*741 _0661_
*742 _0662_
*743 _0663_
*744 _0664_
*745 _0665_
*746 _0666_
*747 _0667_
*748 _0668_
*749 _0669_
*750 _0670_
*751 _0671_
*752 _0672_
*753 _0673_
*754 _0674_
*755 _0675_
*756 _0676_
*757 _0677_
*758 _0678_
*759 _0679_
*760 _0680_
*761 _0681_
*762 _0682_
*763 _0683_
*764 _0684_
*765 _0685_
*766 _0686_
*767 _0687_
*768 _0688_
*769 _0689_
*770 _0690_
*771 _0691_
*772 clknet_0_clk
*773 clknet_3_0__leaf_clk
*774 clknet_3_1__leaf_clk
*775 clknet_3_2__leaf_clk
*776 clknet_3_3__leaf_clk
*777 clknet_3_4__leaf_clk
*778 clknet_3_5__leaf_clk
*779 clknet_3_6__leaf_clk
*780 clknet_3_7__leaf_clk
*781 core_a\[0\]
*782 core_a\[1\]
*783 core_a\[2\]
*784 core_a\[3\]
*785 core_a\[4\]
*786 core_a\[5\]
*787 core_a\[6\]
*788 core_a\[7\]
*789 core_b\[0\]
*790 core_b\[1\]
*791 core_b\[2\]
*792 core_b\[3\]
*793 core_b\[4\]
*794 core_b\[5\]
*795 core_b\[6\]
*796 core_b\[7\]
*797 core_out\[0\]
*798 core_out\[10\]
*799 core_out\[11\]
*800 core_out\[12\]
*801 core_out\[13\]
*802 core_out\[14\]
*803 core_out\[15\]
*804 core_out\[16\]
*805 core_out\[17\]
*806 core_out\[18\]
*807 core_out\[19\]
*808 core_out\[1\]
*809 core_out\[20\]
*810 core_out\[21\]
*811 core_out\[22\]
*812 core_out\[23\]
*813 core_out\[24\]
*814 core_out\[25\]
*815 core_out\[26\]
*816 core_out\[27\]
*817 core_out\[28\]
*818 core_out\[29\]
*819 core_out\[2\]
*820 core_out\[30\]
*821 core_out\[31\]
*822 core_out\[3\]
*823 core_out\[4\]
*824 core_out\[5\]
*825 core_out\[6\]
*826 core_out\[7\]
*827 core_out\[8\]
*828 core_out\[9\]
*829 core_valid
*830 net1
*831 net10
*832 net100
*833 net101
*834 net102
*835 net103
*836 net104
*837 net105
*838 net106
*839 net107
*840 net108
*841 net109
*842 net11
*843 net110
*844 net111
*845 net112
*846 net113
*847 net114
*848 net115
*849 net116
*850 net118
*851 net119
*852 net12
*853 net120
*854 net121
*855 net122
*856 net123
*857 net124
*858 net125
*859 net126
*860 net127
*861 net128
*862 net129
*863 net13
*864 net130
*865 net131
*866 net132
*867 net134
*868 net135
*869 net136
*870 net137
*871 net138
*872 net139
*873 net14
*874 net140
*875 net141
*876 net142
*877 net143
*878 net144
*879 net145
*880 net146
*881 net147
*882 net148
*883 net149
*884 net15
*885 net150
*886 net151
*887 net152
*888 net153
*889 net154
*890 net155
*891 net156
*892 net157
*893 net158
*894 net159
*895 net16
*896 net160
*897 net161
*898 net162
*899 net163
*900 net164
*901 net165
*902 net166
*903 net167
*904 net168
*905 net169
*906 net17
*907 net170
*908 net171
*909 net172
*910 net173
*911 net174
*912 net175
*913 net176
*914 net177
*915 net178
*916 net179
*917 net18
*918 net180
*919 net181
*920 net182
*921 net183
*922 net184
*923 net185
*924 net19
*925 net2
*926 net20
*927 net21
*928 net22
*929 net23
*930 net24
*931 net25
*932 net26
*933 net27
*934 net28
*935 net29
*936 net3
*937 net30
*938 net31
*939 net32
*940 net33
*941 net34
*942 net35
*943 net36
*944 net37
*945 net38
*946 net39
*947 net4
*948 net40
*949 net41
*950 net42
*951 net43
*952 net44
*953 net45
*954 net46
*955 net47
*956 net48
*957 net49
*958 net5
*959 net50
*960 net51
*961 net52
*962 net53
*963 net54
*964 net55
*965 net56
*966 net57
*967 net58
*968 net59
*969 net6
*970 net60
*971 net61
*972 net62
*973 net63
*974 net64
*975 net65
*976 net66
*977 net67
*978 net68
*979 net69
*980 net7
*981 net70
*982 net71
*983 net72
*984 net73
*985 net74
*986 net75
*987 net76
*988 net77
*989 net78
*990 net79
*991 net8
*992 net80
*993 net81
*994 net82
*995 net83
*996 net84
*997 net85
*998 net86
*999 net87
*1000 net88
*1001 net89
*1002 net9
*1003 net90
*1004 net91
*1005 net92
*1006 net93
*1007 net94
*1008 net95
*1009 net96
*1010 net97
*1011 net98
*1012 net99
*1013 ANTENNA_1
*1014 FILLER_0_104
*1015 FILLER_0_113
*1016 FILLER_0_125
*1017 FILLER_0_137
*1018 FILLER_0_141
*1019 FILLER_0_15
*1020 FILLER_0_153
*1021 FILLER_0_165
*1022 FILLER_0_169
*1023 FILLER_0_181
*1024 FILLER_0_193
*1025 FILLER_0_197
*1026 FILLER_0_209
*1027 FILLER_0_221
*1028 FILLER_0_225
*1029 FILLER_0_237
*1030 FILLER_0_249
*1031 FILLER_0_253
*1032 FILLER_0_265
*1033 FILLER_0_27
*1034 FILLER_0_277
*1035 FILLER_0_281
*1036 FILLER_0_29
*1037 FILLER_0_293
*1038 FILLER_0_3
*1039 FILLER_0_305
*1040 FILLER_0_309
*1041 FILLER_0_321
*1042 FILLER_0_333
*1043 FILLER_0_337
*1044 FILLER_0_349
*1045 FILLER_0_361
*1046 FILLER_0_365
*1047 FILLER_0_377
*1048 FILLER_0_389
*1049 FILLER_0_393
*1050 FILLER_0_405
*1051 FILLER_0_41
*1052 FILLER_0_53
*1053 FILLER_0_57
*1054 FILLER_0_69
*1055 FILLER_0_81
*1056 FILLER_0_85
*1057 FILLER_0_90
*1058 FILLER_0_98
*1059 FILLER_10_109
*1060 FILLER_10_121
*1061 FILLER_10_133
*1062 FILLER_10_139
*1063 FILLER_10_141
*1064 FILLER_10_15
*1065 FILLER_10_153
*1066 FILLER_10_164
*1067 FILLER_10_176
*1068 FILLER_10_188
*1069 FILLER_10_197
*1070 FILLER_10_209
*1071 FILLER_10_221
*1072 FILLER_10_233
*1073 FILLER_10_245
*1074 FILLER_10_251
*1075 FILLER_10_253
*1076 FILLER_10_265
*1077 FILLER_10_27
*1078 FILLER_10_277
*1079 FILLER_10_289
*1080 FILLER_10_29
*1081 FILLER_10_3
*1082 FILLER_10_301
*1083 FILLER_10_307
*1084 FILLER_10_309
*1085 FILLER_10_321
*1086 FILLER_10_33
*1087 FILLER_10_333
*1088 FILLER_10_345
*1089 FILLER_10_357
*1090 FILLER_10_363
*1091 FILLER_10_365
*1092 FILLER_10_377
*1093 FILLER_10_389
*1094 FILLER_10_401
*1095 FILLER_10_43
*1096 FILLER_10_55
*1097 FILLER_10_67
*1098 FILLER_10_79
*1099 FILLER_10_83
*1100 FILLER_10_85
*1101 FILLER_10_97
*1102 FILLER_11_106
*1103 FILLER_11_113
*1104 FILLER_11_119
*1105 FILLER_11_126
*1106 FILLER_11_138
*1107 FILLER_11_149
*1108 FILLER_11_163
*1109 FILLER_11_169
*1110 FILLER_11_18
*1111 FILLER_11_185
*1112 FILLER_11_197
*1113 FILLER_11_214
*1114 FILLER_11_222
*1115 FILLER_11_225
*1116 FILLER_11_237
*1117 FILLER_11_24
*1118 FILLER_11_241
*1119 FILLER_11_251
*1120 FILLER_11_263
*1121 FILLER_11_275
*1122 FILLER_11_279
*1123 FILLER_11_281
*1124 FILLER_11_293
*1125 FILLER_11_305
*1126 FILLER_11_317
*1127 FILLER_11_329
*1128 FILLER_11_335
*1129 FILLER_11_337
*1130 FILLER_11_349
*1131 FILLER_11_361
*1132 FILLER_11_373
*1133 FILLER_11_385
*1134 FILLER_11_391
*1135 FILLER_11_393
*1136 FILLER_11_405
*1137 FILLER_11_47
*1138 FILLER_11_55
*1139 FILLER_11_57
*1140 FILLER_11_6
*1141 FILLER_11_69
*1142 FILLER_11_75
*1143 FILLER_11_91
*1144 FILLER_12_111
*1145 FILLER_12_133
*1146 FILLER_12_141
*1147 FILLER_12_149
*1148 FILLER_12_15
*1149 FILLER_12_161
*1150 FILLER_12_173
*1151 FILLER_12_177
*1152 FILLER_12_192
*1153 FILLER_12_197
*1154 FILLER_12_212
*1155 FILLER_12_229
*1156 FILLER_12_240
*1157 FILLER_12_248
*1158 FILLER_12_253
*1159 FILLER_12_27
*1160 FILLER_12_273
*1161 FILLER_12_285
*1162 FILLER_12_29
*1163 FILLER_12_297
*1164 FILLER_12_3
*1165 FILLER_12_305
*1166 FILLER_12_309
*1167 FILLER_12_321
*1168 FILLER_12_333
*1169 FILLER_12_345
*1170 FILLER_12_357
*1171 FILLER_12_363
*1172 FILLER_12_365
*1173 FILLER_12_377
*1174 FILLER_12_389
*1175 FILLER_12_401
*1176 FILLER_12_42
*1177 FILLER_12_54
*1178 FILLER_12_66
*1179 FILLER_12_85
*1180 FILLER_12_89
*1181 FILLER_13_103
*1182 FILLER_13_111
*1183 FILLER_13_113
*1184 FILLER_13_121
*1185 FILLER_13_128
*1186 FILLER_13_140
*1187 FILLER_13_15
*1188 FILLER_13_152
*1189 FILLER_13_162
*1190 FILLER_13_169
*1191 FILLER_13_181
*1192 FILLER_13_193
*1193 FILLER_13_205
*1194 FILLER_13_217
*1195 FILLER_13_223
*1196 FILLER_13_232
*1197 FILLER_13_243
*1198 FILLER_13_255
*1199 FILLER_13_267
*1200 FILLER_13_27
*1201 FILLER_13_279
*1202 FILLER_13_281
*1203 FILLER_13_293
*1204 FILLER_13_3
*1205 FILLER_13_305
*1206 FILLER_13_317
*1207 FILLER_13_329
*1208 FILLER_13_335
*1209 FILLER_13_337
*1210 FILLER_13_349
*1211 FILLER_13_361
*1212 FILLER_13_373
*1213 FILLER_13_385
*1214 FILLER_13_39
*1215 FILLER_13_391
*1216 FILLER_13_393
*1217 FILLER_13_405
*1218 FILLER_13_51
*1219 FILLER_13_55
*1220 FILLER_13_66
*1221 FILLER_13_78
*1222 FILLER_13_90
*1223 FILLER_13_96
*1224 FILLER_14_109
*1225 FILLER_14_121
*1226 FILLER_14_133
*1227 FILLER_14_139
*1228 FILLER_14_141
*1229 FILLER_14_15
*1230 FILLER_14_153
*1231 FILLER_14_164
*1232 FILLER_14_169
*1233 FILLER_14_181
*1234 FILLER_14_193
*1235 FILLER_14_197
*1236 FILLER_14_209
*1237 FILLER_14_221
*1238 FILLER_14_233
*1239 FILLER_14_245
*1240 FILLER_14_251
*1241 FILLER_14_253
*1242 FILLER_14_265
*1243 FILLER_14_27
*1244 FILLER_14_277
*1245 FILLER_14_289
*1246 FILLER_14_29
*1247 FILLER_14_3
*1248 FILLER_14_301
*1249 FILLER_14_307
*1250 FILLER_14_309
*1251 FILLER_14_321
*1252 FILLER_14_333
*1253 FILLER_14_345
*1254 FILLER_14_357
*1255 FILLER_14_363
*1256 FILLER_14_365
*1257 FILLER_14_377
*1258 FILLER_14_389
*1259 FILLER_14_401
*1260 FILLER_14_41
*1261 FILLER_14_47
*1262 FILLER_14_69
*1263 FILLER_14_81
*1264 FILLER_14_85
*1265 FILLER_14_97
*1266 FILLER_15_108
*1267 FILLER_15_113
*1268 FILLER_15_125
*1269 FILLER_15_131
*1270 FILLER_15_142
*1271 FILLER_15_154
*1272 FILLER_15_166
*1273 FILLER_15_18
*1274 FILLER_15_184
*1275 FILLER_15_196
*1276 FILLER_15_215
*1277 FILLER_15_223
*1278 FILLER_15_225
*1279 FILLER_15_237
*1280 FILLER_15_254
*1281 FILLER_15_266
*1282 FILLER_15_278
*1283 FILLER_15_281
*1284 FILLER_15_293
*1285 FILLER_15_305
*1286 FILLER_15_317
*1287 FILLER_15_329
*1288 FILLER_15_335
*1289 FILLER_15_337
*1290 FILLER_15_349
*1291 FILLER_15_361
*1292 FILLER_15_373
*1293 FILLER_15_385
*1294 FILLER_15_391
*1295 FILLER_15_393
*1296 FILLER_15_405
*1297 FILLER_15_49
*1298 FILLER_15_55
*1299 FILLER_15_57
*1300 FILLER_15_6
*1301 FILLER_15_63
*1302 FILLER_15_71
*1303 FILLER_15_95
*1304 FILLER_16_102
*1305 FILLER_16_128
*1306 FILLER_16_141
*1307 FILLER_16_15
*1308 FILLER_16_153
*1309 FILLER_16_163
*1310 FILLER_16_175
*1311 FILLER_16_179
*1312 FILLER_16_183
*1313 FILLER_16_191
*1314 FILLER_16_195
*1315 FILLER_16_197
*1316 FILLER_16_209
*1317 FILLER_16_221
*1318 FILLER_16_232
*1319 FILLER_16_236
*1320 FILLER_16_242
*1321 FILLER_16_246
*1322 FILLER_16_251
*1323 FILLER_16_267
*1324 FILLER_16_27
*1325 FILLER_16_288
*1326 FILLER_16_29
*1327 FILLER_16_3
*1328 FILLER_16_300
*1329 FILLER_16_309
*1330 FILLER_16_321
*1331 FILLER_16_333
*1332 FILLER_16_345
*1333 FILLER_16_357
*1334 FILLER_16_363
*1335 FILLER_16_365
*1336 FILLER_16_377
*1337 FILLER_16_389
*1338 FILLER_16_401
*1339 FILLER_16_41
*1340 FILLER_16_53
*1341 FILLER_16_65
*1342 FILLER_16_77
*1343 FILLER_16_94
*1344 FILLER_17_100
*1345 FILLER_17_113
*1346 FILLER_17_125
*1347 FILLER_17_147
*1348 FILLER_17_163
*1349 FILLER_17_167
*1350 FILLER_17_169
*1351 FILLER_17_18
*1352 FILLER_17_181
*1353 FILLER_17_193
*1354 FILLER_17_201
*1355 FILLER_17_212
*1356 FILLER_17_225
*1357 FILLER_17_231
*1358 FILLER_17_239
*1359 FILLER_17_251
*1360 FILLER_17_263
*1361 FILLER_17_275
*1362 FILLER_17_279
*1363 FILLER_17_281
*1364 FILLER_17_293
*1365 FILLER_17_30
*1366 FILLER_17_305
*1367 FILLER_17_317
*1368 FILLER_17_329
*1369 FILLER_17_335
*1370 FILLER_17_337
*1371 FILLER_17_349
*1372 FILLER_17_361
*1373 FILLER_17_373
*1374 FILLER_17_385
*1375 FILLER_17_391
*1376 FILLER_17_393
*1377 FILLER_17_405
*1378 FILLER_17_42
*1379 FILLER_17_6
*1380 FILLER_17_66
*1381 FILLER_17_72
*1382 FILLER_17_82
*1383 FILLER_17_88
*1384 FILLER_18_110
*1385 FILLER_18_122
*1386 FILLER_18_134
*1387 FILLER_18_15
*1388 FILLER_18_154
*1389 FILLER_18_166
*1390 FILLER_18_178
*1391 FILLER_18_190
*1392 FILLER_18_197
*1393 FILLER_18_203
*1394 FILLER_18_211
*1395 FILLER_18_223
*1396 FILLER_18_235
*1397 FILLER_18_247
*1398 FILLER_18_251
*1399 FILLER_18_253
*1400 FILLER_18_26
*1401 FILLER_18_265
*1402 FILLER_18_277
*1403 FILLER_18_289
*1404 FILLER_18_3
*1405 FILLER_18_301
*1406 FILLER_18_307
*1407 FILLER_18_309
*1408 FILLER_18_321
*1409 FILLER_18_333
*1410 FILLER_18_345
*1411 FILLER_18_357
*1412 FILLER_18_363
*1413 FILLER_18_365
*1414 FILLER_18_377
*1415 FILLER_18_389
*1416 FILLER_18_401
*1417 FILLER_18_45
*1418 FILLER_18_66
*1419 FILLER_18_73
*1420 FILLER_18_77
*1421 FILLER_18_82
*1422 FILLER_18_89
*1423 FILLER_18_98
*1424 FILLER_19_110
*1425 FILLER_19_113
*1426 FILLER_19_125
*1427 FILLER_19_137
*1428 FILLER_19_159
*1429 FILLER_19_167
*1430 FILLER_19_169
*1431 FILLER_19_18
*1432 FILLER_19_182
*1433 FILLER_19_194
*1434 FILLER_19_206
*1435 FILLER_19_218
*1436 FILLER_19_225
*1437 FILLER_19_237
*1438 FILLER_19_245
*1439 FILLER_19_251
*1440 FILLER_19_263
*1441 FILLER_19_275
*1442 FILLER_19_279
*1443 FILLER_19_287
*1444 FILLER_19_299
*1445 FILLER_19_311
*1446 FILLER_19_32
*1447 FILLER_19_323
*1448 FILLER_19_335
*1449 FILLER_19_337
*1450 FILLER_19_349
*1451 FILLER_19_361
*1452 FILLER_19_373
*1453 FILLER_19_385
*1454 FILLER_19_391
*1455 FILLER_19_393
*1456 FILLER_19_405
*1457 FILLER_19_45
*1458 FILLER_19_53
*1459 FILLER_19_57
*1460 FILLER_19_6
*1461 FILLER_19_65
*1462 FILLER_19_83
*1463 FILLER_1_105
*1464 FILLER_1_111
*1465 FILLER_1_113
*1466 FILLER_1_125
*1467 FILLER_1_137
*1468 FILLER_1_149
*1469 FILLER_1_15
*1470 FILLER_1_161
*1471 FILLER_1_167
*1472 FILLER_1_169
*1473 FILLER_1_181
*1474 FILLER_1_193
*1475 FILLER_1_205
*1476 FILLER_1_217
*1477 FILLER_1_223
*1478 FILLER_1_225
*1479 FILLER_1_237
*1480 FILLER_1_249
*1481 FILLER_1_261
*1482 FILLER_1_27
*1483 FILLER_1_273
*1484 FILLER_1_279
*1485 FILLER_1_281
*1486 FILLER_1_293
*1487 FILLER_1_3
*1488 FILLER_1_305
*1489 FILLER_1_317
*1490 FILLER_1_329
*1491 FILLER_1_335
*1492 FILLER_1_337
*1493 FILLER_1_349
*1494 FILLER_1_361
*1495 FILLER_1_373
*1496 FILLER_1_385
*1497 FILLER_1_39
*1498 FILLER_1_391
*1499 FILLER_1_393
*1500 FILLER_1_405
*1501 FILLER_1_51
*1502 FILLER_1_55
*1503 FILLER_1_57
*1504 FILLER_1_69
*1505 FILLER_1_81
*1506 FILLER_1_93
*1507 FILLER_20_132
*1508 FILLER_20_141
*1509 FILLER_20_15
*1510 FILLER_20_153
*1511 FILLER_20_165
*1512 FILLER_20_173
*1513 FILLER_20_189
*1514 FILLER_20_195
*1515 FILLER_20_197
*1516 FILLER_20_204
*1517 FILLER_20_216
*1518 FILLER_20_234
*1519 FILLER_20_242
*1520 FILLER_20_250
*1521 FILLER_20_253
*1522 FILLER_20_267
*1523 FILLER_20_27
*1524 FILLER_20_271
*1525 FILLER_20_279
*1526 FILLER_20_287
*1527 FILLER_20_29
*1528 FILLER_20_299
*1529 FILLER_20_3
*1530 FILLER_20_307
*1531 FILLER_20_309
*1532 FILLER_20_321
*1533 FILLER_20_333
*1534 FILLER_20_345
*1535 FILLER_20_357
*1536 FILLER_20_36
*1537 FILLER_20_363
*1538 FILLER_20_365
*1539 FILLER_20_377
*1540 FILLER_20_389
*1541 FILLER_20_401
*1542 FILLER_20_48
*1543 FILLER_20_60
*1544 FILLER_20_72
*1545 FILLER_21_102
*1546 FILLER_21_111
*1547 FILLER_21_113
*1548 FILLER_21_125
*1549 FILLER_21_136
*1550 FILLER_21_14
*1551 FILLER_21_148
*1552 FILLER_21_156
*1553 FILLER_21_163
*1554 FILLER_21_167
*1555 FILLER_21_169
*1556 FILLER_21_181
*1557 FILLER_21_193
*1558 FILLER_21_197
*1559 FILLER_21_217
*1560 FILLER_21_223
*1561 FILLER_21_232
*1562 FILLER_21_244
*1563 FILLER_21_256
*1564 FILLER_21_26
*1565 FILLER_21_268
*1566 FILLER_21_281
*1567 FILLER_21_293
*1568 FILLER_21_3
*1569 FILLER_21_305
*1570 FILLER_21_317
*1571 FILLER_21_329
*1572 FILLER_21_335
*1573 FILLER_21_337
*1574 FILLER_21_34
*1575 FILLER_21_349
*1576 FILLER_21_361
*1577 FILLER_21_373
*1578 FILLER_21_385
*1579 FILLER_21_391
*1580 FILLER_21_393
*1581 FILLER_21_405
*1582 FILLER_21_45
*1583 FILLER_21_53
*1584 FILLER_21_57
*1585 FILLER_21_67
*1586 FILLER_21_79
*1587 FILLER_21_91
*1588 FILLER_22_100
*1589 FILLER_22_112
*1590 FILLER_22_124
*1591 FILLER_22_139
*1592 FILLER_22_147
*1593 FILLER_22_155
*1594 FILLER_22_176
*1595 FILLER_22_188
*1596 FILLER_22_197
*1597 FILLER_22_213
*1598 FILLER_22_232
*1599 FILLER_22_244
*1600 FILLER_22_253
*1601 FILLER_22_26
*1602 FILLER_22_265
*1603 FILLER_22_277
*1604 FILLER_22_29
*1605 FILLER_22_292
*1606 FILLER_22_304
*1607 FILLER_22_309
*1608 FILLER_22_321
*1609 FILLER_22_333
*1610 FILLER_22_345
*1611 FILLER_22_357
*1612 FILLER_22_363
*1613 FILLER_22_365
*1614 FILLER_22_377
*1615 FILLER_22_389
*1616 FILLER_22_401
*1617 FILLER_22_76
*1618 FILLER_23_103
*1619 FILLER_23_125
*1620 FILLER_23_133
*1621 FILLER_23_15
*1622 FILLER_23_152
*1623 FILLER_23_164
*1624 FILLER_23_169
*1625 FILLER_23_185
*1626 FILLER_23_197
*1627 FILLER_23_209
*1628 FILLER_23_221
*1629 FILLER_23_225
*1630 FILLER_23_237
*1631 FILLER_23_262
*1632 FILLER_23_269
*1633 FILLER_23_27
*1634 FILLER_23_277
*1635 FILLER_23_281
*1636 FILLER_23_291
*1637 FILLER_23_295
*1638 FILLER_23_3
*1639 FILLER_23_318
*1640 FILLER_23_325
*1641 FILLER_23_333
*1642 FILLER_23_337
*1643 FILLER_23_349
*1644 FILLER_23_361
*1645 FILLER_23_373
*1646 FILLER_23_385
*1647 FILLER_23_391
*1648 FILLER_23_393
*1649 FILLER_23_405
*1650 FILLER_23_45
*1651 FILLER_23_53
*1652 FILLER_23_57
*1653 FILLER_23_67
*1654 FILLER_23_71
*1655 FILLER_23_99
*1656 FILLER_24_107
*1657 FILLER_24_11
*1658 FILLER_24_121
*1659 FILLER_24_133
*1660 FILLER_24_139
*1661 FILLER_24_149
*1662 FILLER_24_15
*1663 FILLER_24_161
*1664 FILLER_24_173
*1665 FILLER_24_189
*1666 FILLER_24_195
*1667 FILLER_24_197
*1668 FILLER_24_218
*1669 FILLER_24_230
*1670 FILLER_24_242
*1671 FILLER_24_25
*1672 FILLER_24_250
*1673 FILLER_24_253
*1674 FILLER_24_265
*1675 FILLER_24_269
*1676 FILLER_24_288
*1677 FILLER_24_29
*1678 FILLER_24_309
*1679 FILLER_24_360
*1680 FILLER_24_365
*1681 FILLER_24_377
*1682 FILLER_24_389
*1683 FILLER_24_401
*1684 FILLER_24_41
*1685 FILLER_24_63
*1686 FILLER_24_71
*1687 FILLER_24_83
*1688 FILLER_24_89
*1689 FILLER_24_95
*1690 FILLER_25_100
*1691 FILLER_25_113
*1692 FILLER_25_125
*1693 FILLER_25_133
*1694 FILLER_25_14
*1695 FILLER_25_154
*1696 FILLER_25_158
*1697 FILLER_25_167
*1698 FILLER_25_177
*1699 FILLER_25_192
*1700 FILLER_25_204
*1701 FILLER_25_217
*1702 FILLER_25_223
*1703 FILLER_25_251
*1704 FILLER_25_263
*1705 FILLER_25_275
*1706 FILLER_25_279
*1707 FILLER_25_281
*1708 FILLER_25_302
*1709 FILLER_25_314
*1710 FILLER_25_326
*1711 FILLER_25_334
*1712 FILLER_25_337
*1713 FILLER_25_349
*1714 FILLER_25_361
*1715 FILLER_25_373
*1716 FILLER_25_393
*1717 FILLER_25_401
*1718 FILLER_25_45
*1719 FILLER_25_53
*1720 FILLER_25_57
*1721 FILLER_25_71
*1722 FILLER_25_79
*1723 FILLER_25_90
*1724 FILLER_26_105
*1725 FILLER_26_118
*1726 FILLER_26_130
*1727 FILLER_26_138
*1728 FILLER_26_141
*1729 FILLER_26_153
*1730 FILLER_26_165
*1731 FILLER_26_169
*1732 FILLER_26_175
*1733 FILLER_26_187
*1734 FILLER_26_19
*1735 FILLER_26_195
*1736 FILLER_26_197
*1737 FILLER_26_209
*1738 FILLER_26_221
*1739 FILLER_26_233
*1740 FILLER_26_237
*1741 FILLER_26_245
*1742 FILLER_26_251
*1743 FILLER_26_253
*1744 FILLER_26_265
*1745 FILLER_26_27
*1746 FILLER_26_277
*1747 FILLER_26_289
*1748 FILLER_26_301
*1749 FILLER_26_307
*1750 FILLER_26_315
*1751 FILLER_26_327
*1752 FILLER_26_339
*1753 FILLER_26_351
*1754 FILLER_26_363
*1755 FILLER_26_370
*1756 FILLER_26_380
*1757 FILLER_26_50
*1758 FILLER_26_7
*1759 FILLER_26_73
*1760 FILLER_26_81
*1761 FILLER_26_85
*1762 FILLER_26_93
*1763 FILLER_27_104
*1764 FILLER_27_123
*1765 FILLER_27_135
*1766 FILLER_27_152
*1767 FILLER_27_164
*1768 FILLER_27_169
*1769 FILLER_27_177
*1770 FILLER_27_187
*1771 FILLER_27_199
*1772 FILLER_27_207
*1773 FILLER_27_217
*1774 FILLER_27_223
*1775 FILLER_27_225
*1776 FILLER_27_237
*1777 FILLER_27_249
*1778 FILLER_27_261
*1779 FILLER_27_273
*1780 FILLER_27_279
*1781 FILLER_27_281
*1782 FILLER_27_29
*1783 FILLER_27_293
*1784 FILLER_27_301
*1785 FILLER_27_318
*1786 FILLER_27_327
*1787 FILLER_27_335
*1788 FILLER_27_337
*1789 FILLER_27_364
*1790 FILLER_27_37
*1791 FILLER_27_375
*1792 FILLER_27_388
*1793 FILLER_27_402
*1794 FILLER_27_44
*1795 FILLER_27_48
*1796 FILLER_27_7
*1797 FILLER_27_77
*1798 FILLER_27_85
*1799 FILLER_28_109
*1800 FILLER_28_117
*1801 FILLER_28_126
*1802 FILLER_28_138
*1803 FILLER_28_141
*1804 FILLER_28_153
*1805 FILLER_28_161
*1806 FILLER_28_167
*1807 FILLER_28_179
*1808 FILLER_28_187
*1809 FILLER_28_195
*1810 FILLER_28_197
*1811 FILLER_28_209
*1812 FILLER_28_227
*1813 FILLER_28_236
*1814 FILLER_28_248
*1815 FILLER_28_25
*1816 FILLER_28_253
*1817 FILLER_28_265
*1818 FILLER_28_269
*1819 FILLER_28_282
*1820 FILLER_28_29
*1821 FILLER_28_294
*1822 FILLER_28_3
*1823 FILLER_28_306
*1824 FILLER_28_309
*1825 FILLER_28_317
*1826 FILLER_28_338
*1827 FILLER_28_342
*1828 FILLER_28_354
*1829 FILLER_28_362
*1830 FILLER_28_365
*1831 FILLER_28_377
*1832 FILLER_28_389
*1833 FILLER_28_397
*1834 FILLER_28_41
*1835 FILLER_28_53
*1836 FILLER_28_61
*1837 FILLER_28_69
*1838 FILLER_28_81
*1839 FILLER_28_85
*1840 FILLER_28_97
*1841 FILLER_29_102
*1842 FILLER_29_110
*1843 FILLER_29_113
*1844 FILLER_29_117
*1845 FILLER_29_129
*1846 FILLER_29_141
*1847 FILLER_29_15
*1848 FILLER_29_153
*1849 FILLER_29_180
*1850 FILLER_29_188
*1851 FILLER_29_201
*1852 FILLER_29_205
*1853 FILLER_29_215
*1854 FILLER_29_223
*1855 FILLER_29_225
*1856 FILLER_29_238
*1857 FILLER_29_24
*1858 FILLER_29_255
*1859 FILLER_29_273
*1860 FILLER_29_279
*1861 FILLER_29_281
*1862 FILLER_29_285
*1863 FILLER_29_293
*1864 FILLER_29_3
*1865 FILLER_29_300
*1866 FILLER_29_312
*1867 FILLER_29_323
*1868 FILLER_29_335
*1869 FILLER_29_337
*1870 FILLER_29_349
*1871 FILLER_29_380
*1872 FILLER_29_393
*1873 FILLER_29_46
*1874 FILLER_29_50
*1875 FILLER_29_54
*1876 FILLER_29_57
*1877 FILLER_29_77
*1878 FILLER_29_89
*1879 FILLER_2_109
*1880 FILLER_2_121
*1881 FILLER_2_133
*1882 FILLER_2_139
*1883 FILLER_2_141
*1884 FILLER_2_15
*1885 FILLER_2_153
*1886 FILLER_2_165
*1887 FILLER_2_177
*1888 FILLER_2_189
*1889 FILLER_2_195
*1890 FILLER_2_197
*1891 FILLER_2_209
*1892 FILLER_2_221
*1893 FILLER_2_233
*1894 FILLER_2_245
*1895 FILLER_2_251
*1896 FILLER_2_253
*1897 FILLER_2_265
*1898 FILLER_2_27
*1899 FILLER_2_277
*1900 FILLER_2_289
*1901 FILLER_2_29
*1902 FILLER_2_3
*1903 FILLER_2_301
*1904 FILLER_2_307
*1905 FILLER_2_309
*1906 FILLER_2_321
*1907 FILLER_2_333
*1908 FILLER_2_345
*1909 FILLER_2_357
*1910 FILLER_2_363
*1911 FILLER_2_365
*1912 FILLER_2_377
*1913 FILLER_2_389
*1914 FILLER_2_401
*1915 FILLER_2_41
*1916 FILLER_2_53
*1917 FILLER_2_65
*1918 FILLER_2_77
*1919 FILLER_2_83
*1920 FILLER_2_85
*1921 FILLER_2_97
*1922 FILLER_30_106
*1923 FILLER_30_112
*1924 FILLER_30_118
*1925 FILLER_30_126
*1926 FILLER_30_139
*1927 FILLER_30_149
*1928 FILLER_30_155
*1929 FILLER_30_163
*1930 FILLER_30_174
*1931 FILLER_30_186
*1932 FILLER_30_19
*1933 FILLER_30_194
*1934 FILLER_30_197
*1935 FILLER_30_209
*1936 FILLER_30_221
*1937 FILLER_30_233
*1938 FILLER_30_245
*1939 FILLER_30_251
*1940 FILLER_30_253
*1941 FILLER_30_258
*1942 FILLER_30_27
*1943 FILLER_30_270
*1944 FILLER_30_282
*1945 FILLER_30_29
*1946 FILLER_30_294
*1947 FILLER_30_306
*1948 FILLER_30_309
*1949 FILLER_30_317
*1950 FILLER_30_332
*1951 FILLER_30_344
*1952 FILLER_30_350
*1953 FILLER_30_362
*1954 FILLER_30_365
*1955 FILLER_30_369
*1956 FILLER_30_37
*1957 FILLER_30_378
*1958 FILLER_30_386
*1959 FILLER_30_404
*1960 FILLER_30_55
*1961 FILLER_30_63
*1962 FILLER_30_7
*1963 FILLER_30_75
*1964 FILLER_30_83
*1965 FILLER_30_85
*1966 FILLER_30_93
*1967 FILLER_31_126
*1968 FILLER_31_138
*1969 FILLER_31_150
*1970 FILLER_31_162
*1971 FILLER_31_169
*1972 FILLER_31_181
*1973 FILLER_31_193
*1974 FILLER_31_205
*1975 FILLER_31_214
*1976 FILLER_31_222
*1977 FILLER_31_225
*1978 FILLER_31_238
*1979 FILLER_31_250
*1980 FILLER_31_262
*1981 FILLER_31_274
*1982 FILLER_31_281
*1983 FILLER_31_289
*1984 FILLER_31_298
*1985 FILLER_31_317
*1986 FILLER_31_329
*1987 FILLER_31_335
*1988 FILLER_31_337
*1989 FILLER_31_34
*1990 FILLER_31_345
*1991 FILLER_31_355
*1992 FILLER_31_367
*1993 FILLER_31_378
*1994 FILLER_31_391
*1995 FILLER_31_393
*1996 FILLER_31_404
*1997 FILLER_31_46
*1998 FILLER_31_54
*1999 FILLER_31_57
*2000 FILLER_31_69
*2001 FILLER_31_77
*2002 FILLER_31_97
*2003 FILLER_32_105
*2004 FILLER_32_11
*2005 FILLER_32_112
*2006 FILLER_32_124
*2007 FILLER_32_136
*2008 FILLER_32_141
*2009 FILLER_32_155
*2010 FILLER_32_167
*2011 FILLER_32_185
*2012 FILLER_32_193
*2013 FILLER_32_197
*2014 FILLER_32_205
*2015 FILLER_32_21
*2016 FILLER_32_213
*2017 FILLER_32_223
*2018 FILLER_32_231
*2019 FILLER_32_242
*2020 FILLER_32_250
*2021 FILLER_32_253
*2022 FILLER_32_266
*2023 FILLER_32_27
*2024 FILLER_32_274
*2025 FILLER_32_280
*2026 FILLER_32_29
*2027 FILLER_32_3
*2028 FILLER_32_304
*2029 FILLER_32_317
*2030 FILLER_32_321
*2031 FILLER_32_328
*2032 FILLER_32_345
*2033 FILLER_32_373
*2034 FILLER_32_385
*2035 FILLER_32_389
*2036 FILLER_32_406
*2037 FILLER_32_41
*2038 FILLER_32_53
*2039 FILLER_32_62
*2040 FILLER_32_74
*2041 FILLER_32_82
*2042 FILLER_32_85
*2043 FILLER_32_97
*2044 FILLER_33_104
*2045 FILLER_33_113
*2046 FILLER_33_117
*2047 FILLER_33_128
*2048 FILLER_33_145
*2049 FILLER_33_15
*2050 FILLER_33_153
*2051 FILLER_33_157
*2052 FILLER_33_169
*2053 FILLER_33_181
*2054 FILLER_33_185
*2055 FILLER_33_196
*2056 FILLER_33_208
*2057 FILLER_33_221
*2058 FILLER_33_225
*2059 FILLER_33_237
*2060 FILLER_33_247
*2061 FILLER_33_253
*2062 FILLER_33_267
*2063 FILLER_33_277
*2064 FILLER_33_281
*2065 FILLER_33_293
*2066 FILLER_33_3
*2067 FILLER_33_305
*2068 FILLER_33_317
*2069 FILLER_33_32
*2070 FILLER_33_334
*2071 FILLER_33_337
*2072 FILLER_33_349
*2073 FILLER_33_361
*2074 FILLER_33_378
*2075 FILLER_33_391
*2076 FILLER_33_393
*2077 FILLER_33_405
*2078 FILLER_33_45
*2079 FILLER_33_73
*2080 FILLER_33_92
*2081 FILLER_34_104
*2082 FILLER_34_116
*2083 FILLER_34_128
*2084 FILLER_34_141
*2085 FILLER_34_153
*2086 FILLER_34_165
*2087 FILLER_34_173
*2088 FILLER_34_184
*2089 FILLER_34_197
*2090 FILLER_34_209
*2091 FILLER_34_221
*2092 FILLER_34_233
*2093 FILLER_34_250
*2094 FILLER_34_253
*2095 FILLER_34_265
*2096 FILLER_34_27
*2097 FILLER_34_277
*2098 FILLER_34_289
*2099 FILLER_34_3
*2100 FILLER_34_301
*2101 FILLER_34_307
*2102 FILLER_34_309
*2103 FILLER_34_317
*2104 FILLER_34_322
*2105 FILLER_34_338
*2106 FILLER_34_351
*2107 FILLER_34_363
*2108 FILLER_34_365
*2109 FILLER_34_377
*2110 FILLER_34_385
*2111 FILLER_34_403
*2112 FILLER_34_41
*2113 FILLER_34_53
*2114 FILLER_34_65
*2115 FILLER_34_77
*2116 FILLER_34_83
*2117 FILLER_34_92
*2118 FILLER_35_111
*2119 FILLER_35_113
*2120 FILLER_35_123
*2121 FILLER_35_135
*2122 FILLER_35_147
*2123 FILLER_35_15
*2124 FILLER_35_159
*2125 FILLER_35_167
*2126 FILLER_35_169
*2127 FILLER_35_181
*2128 FILLER_35_193
*2129 FILLER_35_205
*2130 FILLER_35_211
*2131 FILLER_35_225
*2132 FILLER_35_237
*2133 FILLER_35_249
*2134 FILLER_35_261
*2135 FILLER_35_27
*2136 FILLER_35_273
*2137 FILLER_35_279
*2138 FILLER_35_281
*2139 FILLER_35_3
*2140 FILLER_35_344
*2141 FILLER_35_354
*2142 FILLER_35_372
*2143 FILLER_35_378
*2144 FILLER_35_389
*2145 FILLER_35_39
*2146 FILLER_35_393
*2147 FILLER_35_402
*2148 FILLER_35_406
*2149 FILLER_35_51
*2150 FILLER_35_55
*2151 FILLER_35_57
*2152 FILLER_35_69
*2153 FILLER_35_80
*2154 FILLER_35_92
*2155 FILLER_36_108
*2156 FILLER_36_116
*2157 FILLER_36_120
*2158 FILLER_36_131
*2159 FILLER_36_139
*2160 FILLER_36_141
*2161 FILLER_36_149
*2162 FILLER_36_154
*2163 FILLER_36_166
*2164 FILLER_36_174
*2165 FILLER_36_187
*2166 FILLER_36_19
*2167 FILLER_36_195
*2168 FILLER_36_197
*2169 FILLER_36_240
*2170 FILLER_36_253
*2171 FILLER_36_265
*2172 FILLER_36_27
*2173 FILLER_36_280
*2174 FILLER_36_287
*2175 FILLER_36_29
*2176 FILLER_36_299
*2177 FILLER_36_307
*2178 FILLER_36_309
*2179 FILLER_36_321
*2180 FILLER_36_333
*2181 FILLER_36_345
*2182 FILLER_36_357
*2183 FILLER_36_363
*2184 FILLER_36_373
*2185 FILLER_36_385
*2186 FILLER_36_397
*2187 FILLER_36_41
*2188 FILLER_36_54
*2189 FILLER_36_66
*2190 FILLER_36_85
*2191 FILLER_36_96
*2192 FILLER_37_116
*2193 FILLER_37_128
*2194 FILLER_37_136
*2195 FILLER_37_159
*2196 FILLER_37_177
*2197 FILLER_37_18
*2198 FILLER_37_189
*2199 FILLER_37_197
*2200 FILLER_37_207
*2201 FILLER_37_219
*2202 FILLER_37_225
*2203 FILLER_37_250
*2204 FILLER_37_262
*2205 FILLER_37_270
*2206 FILLER_37_278
*2207 FILLER_37_281
*2208 FILLER_37_293
*2209 FILLER_37_3
*2210 FILLER_37_305
*2211 FILLER_37_317
*2212 FILLER_37_329
*2213 FILLER_37_33
*2214 FILLER_37_335
*2215 FILLER_37_357
*2216 FILLER_37_369
*2217 FILLER_37_381
*2218 FILLER_37_389
*2219 FILLER_37_405
*2220 FILLER_37_41
*2221 FILLER_37_50
*2222 FILLER_37_57
*2223 FILLER_37_63
*2224 FILLER_37_75
*2225 FILLER_37_79
*2226 FILLER_37_83
*2227 FILLER_37_9
*2228 FILLER_38_109
*2229 FILLER_38_121
*2230 FILLER_38_133
*2231 FILLER_38_139
*2232 FILLER_38_141
*2233 FILLER_38_153
*2234 FILLER_38_16
*2235 FILLER_38_165
*2236 FILLER_38_177
*2237 FILLER_38_189
*2238 FILLER_38_195
*2239 FILLER_38_197
*2240 FILLER_38_211
*2241 FILLER_38_219
*2242 FILLER_38_231
*2243 FILLER_38_243
*2244 FILLER_38_251
*2245 FILLER_38_253
*2246 FILLER_38_261
*2247 FILLER_38_269
*2248 FILLER_38_281
*2249 FILLER_38_29
*2250 FILLER_38_293
*2251 FILLER_38_3
*2252 FILLER_38_305
*2253 FILLER_38_309
*2254 FILLER_38_332
*2255 FILLER_38_336
*2256 FILLER_38_361
*2257 FILLER_38_365
*2258 FILLER_38_371
*2259 FILLER_38_379
*2260 FILLER_38_41
*2261 FILLER_38_50
*2262 FILLER_38_67
*2263 FILLER_38_7
*2264 FILLER_38_79
*2265 FILLER_38_83
*2266 FILLER_38_85
*2267 FILLER_38_97
*2268 FILLER_39_118
*2269 FILLER_39_136
*2270 FILLER_39_144
*2271 FILLER_39_153
*2272 FILLER_39_165
*2273 FILLER_39_169
*2274 FILLER_39_192
*2275 FILLER_39_204
*2276 FILLER_39_21
*2277 FILLER_39_216
*2278 FILLER_39_225
*2279 FILLER_39_237
*2280 FILLER_39_241
*2281 FILLER_39_247
*2282 FILLER_39_259
*2283 FILLER_39_265
*2284 FILLER_39_273
*2285 FILLER_39_279
*2286 FILLER_39_302
*2287 FILLER_39_33
*2288 FILLER_39_335
*2289 FILLER_39_345
*2290 FILLER_39_357
*2291 FILLER_39_386
*2292 FILLER_39_393
*2293 FILLER_39_405
*2294 FILLER_39_45
*2295 FILLER_39_53
*2296 FILLER_39_57
*2297 FILLER_39_69
*2298 FILLER_39_7
*2299 FILLER_39_75
*2300 FILLER_39_91
*2301 FILLER_39_99
*2302 FILLER_3_105
*2303 FILLER_3_111
*2304 FILLER_3_113
*2305 FILLER_3_125
*2306 FILLER_3_137
*2307 FILLER_3_149
*2308 FILLER_3_15
*2309 FILLER_3_161
*2310 FILLER_3_167
*2311 FILLER_3_169
*2312 FILLER_3_181
*2313 FILLER_3_193
*2314 FILLER_3_205
*2315 FILLER_3_217
*2316 FILLER_3_223
*2317 FILLER_3_225
*2318 FILLER_3_237
*2319 FILLER_3_249
*2320 FILLER_3_261
*2321 FILLER_3_27
*2322 FILLER_3_273
*2323 FILLER_3_279
*2324 FILLER_3_281
*2325 FILLER_3_293
*2326 FILLER_3_3
*2327 FILLER_3_305
*2328 FILLER_3_317
*2329 FILLER_3_329
*2330 FILLER_3_335
*2331 FILLER_3_337
*2332 FILLER_3_349
*2333 FILLER_3_361
*2334 FILLER_3_373
*2335 FILLER_3_385
*2336 FILLER_3_39
*2337 FILLER_3_391
*2338 FILLER_3_393
*2339 FILLER_3_405
*2340 FILLER_3_51
*2341 FILLER_3_55
*2342 FILLER_3_57
*2343 FILLER_3_69
*2344 FILLER_3_81
*2345 FILLER_3_93
*2346 FILLER_40_101
*2347 FILLER_40_113
*2348 FILLER_40_125
*2349 FILLER_40_137
*2350 FILLER_40_141
*2351 FILLER_40_161
*2352 FILLER_40_173
*2353 FILLER_40_185
*2354 FILLER_40_193
*2355 FILLER_40_197
*2356 FILLER_40_205
*2357 FILLER_40_218
*2358 FILLER_40_226
*2359 FILLER_40_234
*2360 FILLER_40_24
*2361 FILLER_40_250
*2362 FILLER_40_253
*2363 FILLER_40_287
*2364 FILLER_40_29
*2365 FILLER_40_299
*2366 FILLER_40_3
*2367 FILLER_40_307
*2368 FILLER_40_309
*2369 FILLER_40_324
*2370 FILLER_40_328
*2371 FILLER_40_340
*2372 FILLER_40_352
*2373 FILLER_40_365
*2374 FILLER_40_373
*2375 FILLER_40_38
*2376 FILLER_40_384
*2377 FILLER_40_404
*2378 FILLER_40_50
*2379 FILLER_40_62
*2380 FILLER_40_74
*2381 FILLER_40_89
*2382 FILLER_41_105
*2383 FILLER_41_11
*2384 FILLER_41_119
*2385 FILLER_41_131
*2386 FILLER_41_143
*2387 FILLER_41_151
*2388 FILLER_41_163
*2389 FILLER_41_167
*2390 FILLER_41_169
*2391 FILLER_41_177
*2392 FILLER_41_189
*2393 FILLER_41_20
*2394 FILLER_41_201
*2395 FILLER_41_213
*2396 FILLER_41_221
*2397 FILLER_41_225
*2398 FILLER_41_237
*2399 FILLER_41_241
*2400 FILLER_41_247
*2401 FILLER_41_259
*2402 FILLER_41_271
*2403 FILLER_41_279
*2404 FILLER_41_28
*2405 FILLER_41_289
*2406 FILLER_41_293
*2407 FILLER_41_3
*2408 FILLER_41_304
*2409 FILLER_41_316
*2410 FILLER_41_330
*2411 FILLER_41_337
*2412 FILLER_41_360
*2413 FILLER_41_372
*2414 FILLER_41_380
*2415 FILLER_41_393
*2416 FILLER_41_46
*2417 FILLER_41_54
*2418 FILLER_41_69
*2419 FILLER_41_81
*2420 FILLER_41_93
*2421 FILLER_42_102
*2422 FILLER_42_114
*2423 FILLER_42_122
*2424 FILLER_42_138
*2425 FILLER_42_141
*2426 FILLER_42_153
*2427 FILLER_42_165
*2428 FILLER_42_173
*2429 FILLER_42_18
*2430 FILLER_42_183
*2431 FILLER_42_195
*2432 FILLER_42_197
*2433 FILLER_42_209
*2434 FILLER_42_221
*2435 FILLER_42_233
*2436 FILLER_42_241
*2437 FILLER_42_249
*2438 FILLER_42_253
*2439 FILLER_42_26
*2440 FILLER_42_265
*2441 FILLER_42_277
*2442 FILLER_42_285
*2443 FILLER_42_29
*2444 FILLER_42_3
*2445 FILLER_42_317
*2446 FILLER_42_390
*2447 FILLER_42_402
*2448 FILLER_42_41
*2449 FILLER_42_53
*2450 FILLER_42_57
*2451 FILLER_42_65
*2452 FILLER_42_69
*2453 FILLER_42_77
*2454 FILLER_42_83
*2455 FILLER_42_9
*2456 FILLER_42_90
*2457 FILLER_43_105
*2458 FILLER_43_113
*2459 FILLER_43_124
*2460 FILLER_43_133
*2461 FILLER_43_145
*2462 FILLER_43_162
*2463 FILLER_43_169
*2464 FILLER_43_185
*2465 FILLER_43_197
*2466 FILLER_43_201
*2467 FILLER_43_21
*2468 FILLER_43_210
*2469 FILLER_43_222
*2470 FILLER_43_225
*2471 FILLER_43_237
*2472 FILLER_43_249
*2473 FILLER_43_261
*2474 FILLER_43_273
*2475 FILLER_43_279
*2476 FILLER_43_289
*2477 FILLER_43_29
*2478 FILLER_43_3
*2479 FILLER_43_301
*2480 FILLER_43_313
*2481 FILLER_43_325
*2482 FILLER_43_337
*2483 FILLER_43_361
*2484 FILLER_43_373
*2485 FILLER_43_385
*2486 FILLER_43_391
*2487 FILLER_43_393
*2488 FILLER_43_405
*2489 FILLER_43_49
*2490 FILLER_43_55
*2491 FILLER_43_57
*2492 FILLER_43_69
*2493 FILLER_43_97
*2494 FILLER_44_119
*2495 FILLER_44_131
*2496 FILLER_44_139
*2497 FILLER_44_141
*2498 FILLER_44_159
*2499 FILLER_44_17
*2500 FILLER_44_171
*2501 FILLER_44_184
*2502 FILLER_44_197
*2503 FILLER_44_217
*2504 FILLER_44_239
*2505 FILLER_44_25
*2506 FILLER_44_250
*2507 FILLER_44_262
*2508 FILLER_44_284
*2509 FILLER_44_29
*2510 FILLER_44_296
*2511 FILLER_44_309
*2512 FILLER_44_321
*2513 FILLER_44_333
*2514 FILLER_44_341
*2515 FILLER_44_352
*2516 FILLER_44_370
*2517 FILLER_44_45
*2518 FILLER_44_57
*2519 FILLER_44_61
*2520 FILLER_44_7
*2521 FILLER_44_73
*2522 FILLER_44_83
*2523 FILLER_44_93
*2524 FILLER_45_111
*2525 FILLER_45_119
*2526 FILLER_45_131
*2527 FILLER_45_143
*2528 FILLER_45_148
*2529 FILLER_45_152
*2530 FILLER_45_164
*2531 FILLER_45_169
*2532 FILLER_45_177
*2533 FILLER_45_18
*2534 FILLER_45_191
*2535 FILLER_45_203
*2536 FILLER_45_215
*2537 FILLER_45_223
*2538 FILLER_45_233
*2539 FILLER_45_245
*2540 FILLER_45_26
*2541 FILLER_45_262
*2542 FILLER_45_274
*2543 FILLER_45_281
*2544 FILLER_45_293
*2545 FILLER_45_305
*2546 FILLER_45_316
*2547 FILLER_45_328
*2548 FILLER_45_337
*2549 FILLER_45_362
*2550 FILLER_45_374
*2551 FILLER_45_386
*2552 FILLER_45_393
*2553 FILLER_45_401
*2554 FILLER_45_44
*2555 FILLER_45_52
*2556 FILLER_45_6
*2557 FILLER_45_70
*2558 FILLER_45_78
*2559 FILLER_45_83
*2560 FILLER_46_112
*2561 FILLER_46_124
*2562 FILLER_46_136
*2563 FILLER_46_141
*2564 FILLER_46_145
*2565 FILLER_46_149
*2566 FILLER_46_16
*2567 FILLER_46_161
*2568 FILLER_46_173
*2569 FILLER_46_186
*2570 FILLER_46_194
*2571 FILLER_46_197
*2572 FILLER_46_209
*2573 FILLER_46_217
*2574 FILLER_46_229
*2575 FILLER_46_241
*2576 FILLER_46_249
*2577 FILLER_46_253
*2578 FILLER_46_259
*2579 FILLER_46_271
*2580 FILLER_46_283
*2581 FILLER_46_29
*2582 FILLER_46_302
*2583 FILLER_46_316
*2584 FILLER_46_329
*2585 FILLER_46_360
*2586 FILLER_46_365
*2587 FILLER_46_370
*2588 FILLER_46_396
*2589 FILLER_46_402
*2590 FILLER_46_48
*2591 FILLER_46_54
*2592 FILLER_46_62
*2593 FILLER_46_7
*2594 FILLER_46_74
*2595 FILLER_46_85
*2596 FILLER_46_97
*2597 FILLER_47_108
*2598 FILLER_47_113
*2599 FILLER_47_125
*2600 FILLER_47_143
*2601 FILLER_47_155
*2602 FILLER_47_167
*2603 FILLER_47_169
*2604 FILLER_47_181
*2605 FILLER_47_193
*2606 FILLER_47_221
*2607 FILLER_47_225
*2608 FILLER_47_237
*2609 FILLER_47_249
*2610 FILLER_47_25
*2611 FILLER_47_261
*2612 FILLER_47_278
*2613 FILLER_47_289
*2614 FILLER_47_301
*2615 FILLER_47_309
*2616 FILLER_47_313
*2617 FILLER_47_325
*2618 FILLER_47_333
*2619 FILLER_47_337
*2620 FILLER_47_349
*2621 FILLER_47_361
*2622 FILLER_47_37
*2623 FILLER_47_373
*2624 FILLER_47_385
*2625 FILLER_47_391
*2626 FILLER_47_405
*2627 FILLER_47_49
*2628 FILLER_47_55
*2629 FILLER_47_57
*2630 FILLER_47_69
*2631 FILLER_47_81
*2632 FILLER_47_89
*2633 FILLER_47_96
*2634 FILLER_48_101
*2635 FILLER_48_113
*2636 FILLER_48_119
*2637 FILLER_48_131
*2638 FILLER_48_138
*2639 FILLER_48_141
*2640 FILLER_48_153
*2641 FILLER_48_18
*2642 FILLER_48_181
*2643 FILLER_48_193
*2644 FILLER_48_197
*2645 FILLER_48_201
*2646 FILLER_48_218
*2647 FILLER_48_240
*2648 FILLER_48_251
*2649 FILLER_48_253
*2650 FILLER_48_26
*2651 FILLER_48_265
*2652 FILLER_48_277
*2653 FILLER_48_289
*2654 FILLER_48_29
*2655 FILLER_48_301
*2656 FILLER_48_307
*2657 FILLER_48_309
*2658 FILLER_48_318
*2659 FILLER_48_330
*2660 FILLER_48_342
*2661 FILLER_48_354
*2662 FILLER_48_360
*2663 FILLER_48_365
*2664 FILLER_48_37
*2665 FILLER_48_371
*2666 FILLER_48_377
*2667 FILLER_48_381
*2668 FILLER_48_49
*2669 FILLER_48_6
*2670 FILLER_48_61
*2671 FILLER_48_73
*2672 FILLER_48_85
*2673 FILLER_49_108
*2674 FILLER_49_120
*2675 FILLER_49_132
*2676 FILLER_49_144
*2677 FILLER_49_152
*2678 FILLER_49_164
*2679 FILLER_49_169
*2680 FILLER_49_18
*2681 FILLER_49_181
*2682 FILLER_49_193
*2683 FILLER_49_201
*2684 FILLER_49_216
*2685 FILLER_49_225
*2686 FILLER_49_236
*2687 FILLER_49_24
*2688 FILLER_49_245
*2689 FILLER_49_258
*2690 FILLER_49_270
*2691 FILLER_49_293
*2692 FILLER_49_304
*2693 FILLER_49_312
*2694 FILLER_49_32
*2695 FILLER_49_337
*2696 FILLER_49_382
*2697 FILLER_49_390
*2698 FILLER_49_393
*2699 FILLER_49_401
*2700 FILLER_49_55
*2701 FILLER_49_6
*2702 FILLER_49_72
*2703 FILLER_49_84
*2704 FILLER_49_96
*2705 FILLER_4_109
*2706 FILLER_4_121
*2707 FILLER_4_133
*2708 FILLER_4_139
*2709 FILLER_4_141
*2710 FILLER_4_15
*2711 FILLER_4_153
*2712 FILLER_4_165
*2713 FILLER_4_177
*2714 FILLER_4_189
*2715 FILLER_4_195
*2716 FILLER_4_197
*2717 FILLER_4_209
*2718 FILLER_4_221
*2719 FILLER_4_233
*2720 FILLER_4_245
*2721 FILLER_4_251
*2722 FILLER_4_253
*2723 FILLER_4_265
*2724 FILLER_4_27
*2725 FILLER_4_277
*2726 FILLER_4_289
*2727 FILLER_4_29
*2728 FILLER_4_3
*2729 FILLER_4_301
*2730 FILLER_4_307
*2731 FILLER_4_309
*2732 FILLER_4_321
*2733 FILLER_4_333
*2734 FILLER_4_345
*2735 FILLER_4_357
*2736 FILLER_4_363
*2737 FILLER_4_365
*2738 FILLER_4_377
*2739 FILLER_4_389
*2740 FILLER_4_401
*2741 FILLER_4_41
*2742 FILLER_4_53
*2743 FILLER_4_65
*2744 FILLER_4_77
*2745 FILLER_4_83
*2746 FILLER_4_85
*2747 FILLER_4_97
*2748 FILLER_50_109
*2749 FILLER_50_126
*2750 FILLER_50_138
*2751 FILLER_50_141
*2752 FILLER_50_149
*2753 FILLER_50_162
*2754 FILLER_50_174
*2755 FILLER_50_182
*2756 FILLER_50_190
*2757 FILLER_50_197
*2758 FILLER_50_209
*2759 FILLER_50_221
*2760 FILLER_50_233
*2761 FILLER_50_24
*2762 FILLER_50_245
*2763 FILLER_50_251
*2764 FILLER_50_253
*2765 FILLER_50_264
*2766 FILLER_50_276
*2767 FILLER_50_29
*2768 FILLER_50_292
*2769 FILLER_50_304
*2770 FILLER_50_309
*2771 FILLER_50_321
*2772 FILLER_50_331
*2773 FILLER_50_351
*2774 FILLER_50_363
*2775 FILLER_50_365
*2776 FILLER_50_371
*2777 FILLER_50_380
*2778 FILLER_50_388
*2779 FILLER_50_49
*2780 FILLER_50_55
*2781 FILLER_50_6
*2782 FILLER_50_69
*2783 FILLER_50_81
*2784 FILLER_50_85
*2785 FILLER_50_89
*2786 FILLER_50_97
*2787 FILLER_51_101
*2788 FILLER_51_109
*2789 FILLER_51_113
*2790 FILLER_51_119
*2791 FILLER_51_14
*2792 FILLER_51_144
*2793 FILLER_51_177
*2794 FILLER_51_198
*2795 FILLER_51_207
*2796 FILLER_51_219
*2797 FILLER_51_223
*2798 FILLER_51_225
*2799 FILLER_51_237
*2800 FILLER_51_260
*2801 FILLER_51_272
*2802 FILLER_51_277
*2803 FILLER_51_281
*2804 FILLER_51_289
*2805 FILLER_51_298
*2806 FILLER_51_306
*2807 FILLER_51_316
*2808 FILLER_51_328
*2809 FILLER_51_33
*2810 FILLER_51_337
*2811 FILLER_51_349
*2812 FILLER_51_361
*2813 FILLER_51_373
*2814 FILLER_51_385
*2815 FILLER_51_391
*2816 FILLER_51_402
*2817 FILLER_51_41
*2818 FILLER_51_51
*2819 FILLER_51_55
*2820 FILLER_51_57
*2821 FILLER_51_6
*2822 FILLER_51_65
*2823 FILLER_51_77
*2824 FILLER_51_89
*2825 FILLER_52_101
*2826 FILLER_52_111
*2827 FILLER_52_123
*2828 FILLER_52_135
*2829 FILLER_52_139
*2830 FILLER_52_141
*2831 FILLER_52_153
*2832 FILLER_52_165
*2833 FILLER_52_177
*2834 FILLER_52_185
*2835 FILLER_52_19
*2836 FILLER_52_205
*2837 FILLER_52_226
*2838 FILLER_52_231
*2839 FILLER_52_246
*2840 FILLER_52_253
*2841 FILLER_52_259
*2842 FILLER_52_263
*2843 FILLER_52_27
*2844 FILLER_52_287
*2845 FILLER_52_29
*2846 FILLER_52_309
*2847 FILLER_52_321
*2848 FILLER_52_328
*2849 FILLER_52_338
*2850 FILLER_52_350
*2851 FILLER_52_362
*2852 FILLER_52_365
*2853 FILLER_52_37
*2854 FILLER_52_373
*2855 FILLER_52_380
*2856 FILLER_52_392
*2857 FILLER_52_398
*2858 FILLER_52_59
*2859 FILLER_52_7
*2860 FILLER_52_85
*2861 FILLER_53_109
*2862 FILLER_53_113
*2863 FILLER_53_12
*2864 FILLER_53_125
*2865 FILLER_53_137
*2866 FILLER_53_149
*2867 FILLER_53_161
*2868 FILLER_53_167
*2869 FILLER_53_169
*2870 FILLER_53_181
*2871 FILLER_53_193
*2872 FILLER_53_205
*2873 FILLER_53_217
*2874 FILLER_53_223
*2875 FILLER_53_228
*2876 FILLER_53_24
*2877 FILLER_53_240
*2878 FILLER_53_246
*2879 FILLER_53_272
*2880 FILLER_53_281
*2881 FILLER_53_3
*2882 FILLER_53_306
*2883 FILLER_53_318
*2884 FILLER_53_337
*2885 FILLER_53_349
*2886 FILLER_53_36
*2887 FILLER_53_374
*2888 FILLER_53_386
*2889 FILLER_53_393
*2890 FILLER_53_57
*2891 FILLER_53_69
*2892 FILLER_53_81
*2893 FILLER_54_109
*2894 FILLER_54_121
*2895 FILLER_54_133
*2896 FILLER_54_139
*2897 FILLER_54_141
*2898 FILLER_54_154
*2899 FILLER_54_162
*2900 FILLER_54_167
*2901 FILLER_54_179
*2902 FILLER_54_18
*2903 FILLER_54_183
*2904 FILLER_54_195
*2905 FILLER_54_202
*2906 FILLER_54_214
*2907 FILLER_54_224
*2908 FILLER_54_236
*2909 FILLER_54_248
*2910 FILLER_54_253
*2911 FILLER_54_26
*2912 FILLER_54_265
*2913 FILLER_54_277
*2914 FILLER_54_289
*2915 FILLER_54_29
*2916 FILLER_54_301
*2917 FILLER_54_307
*2918 FILLER_54_309
*2919 FILLER_54_321
*2920 FILLER_54_333
*2921 FILLER_54_345
*2922 FILLER_54_357
*2923 FILLER_54_363
*2924 FILLER_54_365
*2925 FILLER_54_376
*2926 FILLER_54_405
*2927 FILLER_54_41
*2928 FILLER_54_53
*2929 FILLER_54_6
*2930 FILLER_54_65
*2931 FILLER_54_77
*2932 FILLER_54_83
*2933 FILLER_54_85
*2934 FILLER_54_97
*2935 FILLER_55_105
*2936 FILLER_55_111
*2937 FILLER_55_113
*2938 FILLER_55_125
*2939 FILLER_55_137
*2940 FILLER_55_160
*2941 FILLER_55_18
*2942 FILLER_55_184
*2943 FILLER_55_195
*2944 FILLER_55_200
*2945 FILLER_55_206
*2946 FILLER_55_220
*2947 FILLER_55_225
*2948 FILLER_55_237
*2949 FILLER_55_245
*2950 FILLER_55_249
*2951 FILLER_55_261
*2952 FILLER_55_271
*2953 FILLER_55_279
*2954 FILLER_55_281
*2955 FILLER_55_289
*2956 FILLER_55_299
*2957 FILLER_55_30
*2958 FILLER_55_311
*2959 FILLER_55_328
*2960 FILLER_55_337
*2961 FILLER_55_349
*2962 FILLER_55_361
*2963 FILLER_55_373
*2964 FILLER_55_385
*2965 FILLER_55_391
*2966 FILLER_55_393
*2967 FILLER_55_405
*2968 FILLER_55_42
*2969 FILLER_55_54
*2970 FILLER_55_57
*2971 FILLER_55_6
*2972 FILLER_55_69
*2973 FILLER_55_81
*2974 FILLER_55_93
*2975 FILLER_56_109
*2976 FILLER_56_121
*2977 FILLER_56_133
*2978 FILLER_56_139
*2979 FILLER_56_141
*2980 FILLER_56_153
*2981 FILLER_56_165
*2982 FILLER_56_177
*2983 FILLER_56_18
*2984 FILLER_56_185
*2985 FILLER_56_194
*2986 FILLER_56_197
*2987 FILLER_56_209
*2988 FILLER_56_217
*2989 FILLER_56_227
*2990 FILLER_56_239
*2991 FILLER_56_243
*2992 FILLER_56_253
*2993 FILLER_56_26
*2994 FILLER_56_265
*2995 FILLER_56_277
*2996 FILLER_56_289
*2997 FILLER_56_29
*2998 FILLER_56_301
*2999 FILLER_56_307
*3000 FILLER_56_309
*3001 FILLER_56_313
*3002 FILLER_56_327
*3003 FILLER_56_333
*3004 FILLER_56_361
*3005 FILLER_56_365
*3006 FILLER_56_377
*3007 FILLER_56_389
*3008 FILLER_56_401
*3009 FILLER_56_41
*3010 FILLER_56_53
*3011 FILLER_56_6
*3012 FILLER_56_65
*3013 FILLER_56_77
*3014 FILLER_56_83
*3015 FILLER_56_85
*3016 FILLER_56_97
*3017 FILLER_57_105
*3018 FILLER_57_111
*3019 FILLER_57_113
*3020 FILLER_57_125
*3021 FILLER_57_137
*3022 FILLER_57_149
*3023 FILLER_57_161
*3024 FILLER_57_167
*3025 FILLER_57_169
*3026 FILLER_57_18
*3027 FILLER_57_181
*3028 FILLER_57_193
*3029 FILLER_57_199
*3030 FILLER_57_208
*3031 FILLER_57_220
*3032 FILLER_57_225
*3033 FILLER_57_235
*3034 FILLER_57_241
*3035 FILLER_57_266
*3036 FILLER_57_275
*3037 FILLER_57_279
*3038 FILLER_57_281
*3039 FILLER_57_293
*3040 FILLER_57_30
*3041 FILLER_57_304
*3042 FILLER_57_313
*3043 FILLER_57_325
*3044 FILLER_57_333
*3045 FILLER_57_337
*3046 FILLER_57_349
*3047 FILLER_57_361
*3048 FILLER_57_373
*3049 FILLER_57_385
*3050 FILLER_57_391
*3051 FILLER_57_393
*3052 FILLER_57_405
*3053 FILLER_57_42
*3054 FILLER_57_54
*3055 FILLER_57_57
*3056 FILLER_57_6
*3057 FILLER_57_69
*3058 FILLER_57_81
*3059 FILLER_57_93
*3060 FILLER_58_108
*3061 FILLER_58_120
*3062 FILLER_58_132
*3063 FILLER_58_141
*3064 FILLER_58_15
*3065 FILLER_58_166
*3066 FILLER_58_185
*3067 FILLER_58_193
*3068 FILLER_58_221
*3069 FILLER_58_233
*3070 FILLER_58_245
*3071 FILLER_58_251
*3072 FILLER_58_253
*3073 FILLER_58_27
*3074 FILLER_58_281
*3075 FILLER_58_29
*3076 FILLER_58_3
*3077 FILLER_58_304
*3078 FILLER_58_309
*3079 FILLER_58_321
*3080 FILLER_58_333
*3081 FILLER_58_345
*3082 FILLER_58_357
*3083 FILLER_58_363
*3084 FILLER_58_365
*3085 FILLER_58_377
*3086 FILLER_58_389
*3087 FILLER_58_401
*3088 FILLER_58_41
*3089 FILLER_58_53
*3090 FILLER_58_65
*3091 FILLER_58_77
*3092 FILLER_58_83
*3093 FILLER_58_85
*3094 FILLER_58_97
*3095 FILLER_59_121
*3096 FILLER_59_133
*3097 FILLER_59_145
*3098 FILLER_59_15
*3099 FILLER_59_167
*3100 FILLER_59_169
*3101 FILLER_59_192
*3102 FILLER_59_204
*3103 FILLER_59_208
*3104 FILLER_59_214
*3105 FILLER_59_222
*3106 FILLER_59_234
*3107 FILLER_59_242
*3108 FILLER_59_250
*3109 FILLER_59_263
*3110 FILLER_59_27
*3111 FILLER_59_272
*3112 FILLER_59_281
*3113 FILLER_59_289
*3114 FILLER_59_298
*3115 FILLER_59_3
*3116 FILLER_59_310
*3117 FILLER_59_322
*3118 FILLER_59_334
*3119 FILLER_59_337
*3120 FILLER_59_349
*3121 FILLER_59_361
*3122 FILLER_59_373
*3123 FILLER_59_385
*3124 FILLER_59_39
*3125 FILLER_59_391
*3126 FILLER_59_393
*3127 FILLER_59_405
*3128 FILLER_59_51
*3129 FILLER_59_55
*3130 FILLER_59_57
*3131 FILLER_59_69
*3132 FILLER_59_81
*3133 FILLER_59_93
*3134 FILLER_5_105
*3135 FILLER_5_111
*3136 FILLER_5_113
*3137 FILLER_5_125
*3138 FILLER_5_137
*3139 FILLER_5_149
*3140 FILLER_5_15
*3141 FILLER_5_161
*3142 FILLER_5_167
*3143 FILLER_5_169
*3144 FILLER_5_181
*3145 FILLER_5_193
*3146 FILLER_5_205
*3147 FILLER_5_217
*3148 FILLER_5_223
*3149 FILLER_5_225
*3150 FILLER_5_237
*3151 FILLER_5_249
*3152 FILLER_5_261
*3153 FILLER_5_27
*3154 FILLER_5_273
*3155 FILLER_5_279
*3156 FILLER_5_281
*3157 FILLER_5_293
*3158 FILLER_5_3
*3159 FILLER_5_305
*3160 FILLER_5_317
*3161 FILLER_5_329
*3162 FILLER_5_335
*3163 FILLER_5_337
*3164 FILLER_5_349
*3165 FILLER_5_361
*3166 FILLER_5_373
*3167 FILLER_5_385
*3168 FILLER_5_39
*3169 FILLER_5_391
*3170 FILLER_5_393
*3171 FILLER_5_405
*3172 FILLER_5_51
*3173 FILLER_5_55
*3174 FILLER_5_57
*3175 FILLER_5_69
*3176 FILLER_5_81
*3177 FILLER_5_93
*3178 FILLER_60_101
*3179 FILLER_60_108
*3180 FILLER_60_120
*3181 FILLER_60_132
*3182 FILLER_60_141
*3183 FILLER_60_15
*3184 FILLER_60_153
*3185 FILLER_60_165
*3186 FILLER_60_185
*3187 FILLER_60_193
*3188 FILLER_60_197
*3189 FILLER_60_209
*3190 FILLER_60_217
*3191 FILLER_60_24
*3192 FILLER_60_244
*3193 FILLER_60_253
*3194 FILLER_60_265
*3195 FILLER_60_277
*3196 FILLER_60_289
*3197 FILLER_60_29
*3198 FILLER_60_297
*3199 FILLER_60_3
*3200 FILLER_60_305
*3201 FILLER_60_309
*3202 FILLER_60_321
*3203 FILLER_60_333
*3204 FILLER_60_345
*3205 FILLER_60_357
*3206 FILLER_60_363
*3207 FILLER_60_365
*3208 FILLER_60_377
*3209 FILLER_60_389
*3210 FILLER_60_401
*3211 FILLER_60_41
*3212 FILLER_60_53
*3213 FILLER_60_65
*3214 FILLER_60_77
*3215 FILLER_60_83
*3216 FILLER_60_85
*3217 FILLER_60_97
*3218 FILLER_61_105
*3219 FILLER_61_111
*3220 FILLER_61_113
*3221 FILLER_61_125
*3222 FILLER_61_137
*3223 FILLER_61_149
*3224 FILLER_61_15
*3225 FILLER_61_161
*3226 FILLER_61_167
*3227 FILLER_61_169
*3228 FILLER_61_177
*3229 FILLER_61_188
*3230 FILLER_61_200
*3231 FILLER_61_225
*3232 FILLER_61_237
*3233 FILLER_61_243
*3234 FILLER_61_261
*3235 FILLER_61_265
*3236 FILLER_61_27
*3237 FILLER_61_275
*3238 FILLER_61_279
*3239 FILLER_61_281
*3240 FILLER_61_293
*3241 FILLER_61_3
*3242 FILLER_61_315
*3243 FILLER_61_327
*3244 FILLER_61_335
*3245 FILLER_61_337
*3246 FILLER_61_349
*3247 FILLER_61_361
*3248 FILLER_61_373
*3249 FILLER_61_385
*3250 FILLER_61_39
*3251 FILLER_61_391
*3252 FILLER_61_393
*3253 FILLER_61_405
*3254 FILLER_61_51
*3255 FILLER_61_55
*3256 FILLER_61_57
*3257 FILLER_61_69
*3258 FILLER_61_81
*3259 FILLER_61_93
*3260 FILLER_62_109
*3261 FILLER_62_121
*3262 FILLER_62_133
*3263 FILLER_62_139
*3264 FILLER_62_141
*3265 FILLER_62_15
*3266 FILLER_62_153
*3267 FILLER_62_165
*3268 FILLER_62_173
*3269 FILLER_62_213
*3270 FILLER_62_226
*3271 FILLER_62_234
*3272 FILLER_62_262
*3273 FILLER_62_268
*3274 FILLER_62_27
*3275 FILLER_62_29
*3276 FILLER_62_293
*3277 FILLER_62_3
*3278 FILLER_62_325
*3279 FILLER_62_337
*3280 FILLER_62_349
*3281 FILLER_62_361
*3282 FILLER_62_365
*3283 FILLER_62_377
*3284 FILLER_62_389
*3285 FILLER_62_401
*3286 FILLER_62_41
*3287 FILLER_62_53
*3288 FILLER_62_65
*3289 FILLER_62_77
*3290 FILLER_62_83
*3291 FILLER_62_85
*3292 FILLER_62_97
*3293 FILLER_63_105
*3294 FILLER_63_111
*3295 FILLER_63_113
*3296 FILLER_63_125
*3297 FILLER_63_137
*3298 FILLER_63_149
*3299 FILLER_63_15
*3300 FILLER_63_161
*3301 FILLER_63_167
*3302 FILLER_63_169
*3303 FILLER_63_189
*3304 FILLER_63_201
*3305 FILLER_63_218
*3306 FILLER_63_249
*3307 FILLER_63_253
*3308 FILLER_63_27
*3309 FILLER_63_278
*3310 FILLER_63_281
*3311 FILLER_63_293
*3312 FILLER_63_3
*3313 FILLER_63_305
*3314 FILLER_63_317
*3315 FILLER_63_329
*3316 FILLER_63_335
*3317 FILLER_63_337
*3318 FILLER_63_349
*3319 FILLER_63_361
*3320 FILLER_63_373
*3321 FILLER_63_385
*3322 FILLER_63_39
*3323 FILLER_63_391
*3324 FILLER_63_393
*3325 FILLER_63_405
*3326 FILLER_63_51
*3327 FILLER_63_55
*3328 FILLER_63_57
*3329 FILLER_63_69
*3330 FILLER_63_81
*3331 FILLER_63_93
*3332 FILLER_64_105
*3333 FILLER_64_113
*3334 FILLER_64_125
*3335 FILLER_64_137
*3336 FILLER_64_141
*3337 FILLER_64_15
*3338 FILLER_64_153
*3339 FILLER_64_161
*3340 FILLER_64_167
*3341 FILLER_64_169
*3342 FILLER_64_181
*3343 FILLER_64_189
*3344 FILLER_64_195
*3345 FILLER_64_197
*3346 FILLER_64_209
*3347 FILLER_64_217
*3348 FILLER_64_223
*3349 FILLER_64_225
*3350 FILLER_64_231
*3351 FILLER_64_238
*3352 FILLER_64_250
*3353 FILLER_64_253
*3354 FILLER_64_268
*3355 FILLER_64_27
*3356 FILLER_64_281
*3357 FILLER_64_29
*3358 FILLER_64_293
*3359 FILLER_64_3
*3360 FILLER_64_303
*3361 FILLER_64_307
*3362 FILLER_64_309
*3363 FILLER_64_315
*3364 FILLER_64_327
*3365 FILLER_64_335
*3366 FILLER_64_337
*3367 FILLER_64_349
*3368 FILLER_64_361
*3369 FILLER_64_365
*3370 FILLER_64_377
*3371 FILLER_64_389
*3372 FILLER_64_393
*3373 FILLER_64_405
*3374 FILLER_64_41
*3375 FILLER_64_53
*3376 FILLER_64_57
*3377 FILLER_64_69
*3378 FILLER_64_81
*3379 FILLER_64_85
*3380 FILLER_64_97
*3381 FILLER_6_109
*3382 FILLER_6_121
*3383 FILLER_6_133
*3384 FILLER_6_139
*3385 FILLER_6_141
*3386 FILLER_6_15
*3387 FILLER_6_153
*3388 FILLER_6_165
*3389 FILLER_6_177
*3390 FILLER_6_181
*3391 FILLER_6_189
*3392 FILLER_6_195
*3393 FILLER_6_213
*3394 FILLER_6_219
*3395 FILLER_6_245
*3396 FILLER_6_251
*3397 FILLER_6_253
*3398 FILLER_6_265
*3399 FILLER_6_27
*3400 FILLER_6_277
*3401 FILLER_6_289
*3402 FILLER_6_29
*3403 FILLER_6_3
*3404 FILLER_6_301
*3405 FILLER_6_307
*3406 FILLER_6_309
*3407 FILLER_6_321
*3408 FILLER_6_333
*3409 FILLER_6_345
*3410 FILLER_6_357
*3411 FILLER_6_363
*3412 FILLER_6_365
*3413 FILLER_6_377
*3414 FILLER_6_389
*3415 FILLER_6_401
*3416 FILLER_6_41
*3417 FILLER_6_53
*3418 FILLER_6_65
*3419 FILLER_6_77
*3420 FILLER_6_83
*3421 FILLER_6_85
*3422 FILLER_6_97
*3423 FILLER_7_103
*3424 FILLER_7_111
*3425 FILLER_7_113
*3426 FILLER_7_125
*3427 FILLER_7_137
*3428 FILLER_7_145
*3429 FILLER_7_149
*3430 FILLER_7_15
*3431 FILLER_7_157
*3432 FILLER_7_185
*3433 FILLER_7_193
*3434 FILLER_7_203
*3435 FILLER_7_215
*3436 FILLER_7_223
*3437 FILLER_7_225
*3438 FILLER_7_237
*3439 FILLER_7_247
*3440 FILLER_7_259
*3441 FILLER_7_27
*3442 FILLER_7_271
*3443 FILLER_7_279
*3444 FILLER_7_281
*3445 FILLER_7_293
*3446 FILLER_7_3
*3447 FILLER_7_305
*3448 FILLER_7_317
*3449 FILLER_7_329
*3450 FILLER_7_335
*3451 FILLER_7_337
*3452 FILLER_7_349
*3453 FILLER_7_361
*3454 FILLER_7_373
*3455 FILLER_7_385
*3456 FILLER_7_39
*3457 FILLER_7_391
*3458 FILLER_7_393
*3459 FILLER_7_405
*3460 FILLER_7_51
*3461 FILLER_7_55
*3462 FILLER_7_57
*3463 FILLER_7_69
*3464 FILLER_7_86
*3465 FILLER_8_113
*3466 FILLER_8_125
*3467 FILLER_8_131
*3468 FILLER_8_15
*3469 FILLER_8_158
*3470 FILLER_8_170
*3471 FILLER_8_186
*3472 FILLER_8_194
*3473 FILLER_8_197
*3474 FILLER_8_212
*3475 FILLER_8_216
*3476 FILLER_8_221
*3477 FILLER_8_233
*3478 FILLER_8_245
*3479 FILLER_8_251
*3480 FILLER_8_253
*3481 FILLER_8_265
*3482 FILLER_8_27
*3483 FILLER_8_277
*3484 FILLER_8_289
*3485 FILLER_8_29
*3486 FILLER_8_3
*3487 FILLER_8_301
*3488 FILLER_8_307
*3489 FILLER_8_309
*3490 FILLER_8_321
*3491 FILLER_8_333
*3492 FILLER_8_345
*3493 FILLER_8_357
*3494 FILLER_8_363
*3495 FILLER_8_365
*3496 FILLER_8_377
*3497 FILLER_8_389
*3498 FILLER_8_401
*3499 FILLER_8_41
*3500 FILLER_8_53
*3501 FILLER_8_65
*3502 FILLER_8_85
*3503 FILLER_9_103
*3504 FILLER_9_111
*3505 FILLER_9_113
*3506 FILLER_9_125
*3507 FILLER_9_137
*3508 FILLER_9_149
*3509 FILLER_9_15
*3510 FILLER_9_160
*3511 FILLER_9_169
*3512 FILLER_9_181
*3513 FILLER_9_193
*3514 FILLER_9_203
*3515 FILLER_9_211
*3516 FILLER_9_217
*3517 FILLER_9_223
*3518 FILLER_9_232
*3519 FILLER_9_245
*3520 FILLER_9_257
*3521 FILLER_9_269
*3522 FILLER_9_27
*3523 FILLER_9_277
*3524 FILLER_9_281
*3525 FILLER_9_293
*3526 FILLER_9_3
*3527 FILLER_9_305
*3528 FILLER_9_317
*3529 FILLER_9_329
*3530 FILLER_9_335
*3531 FILLER_9_337
*3532 FILLER_9_349
*3533 FILLER_9_361
*3534 FILLER_9_373
*3535 FILLER_9_385
*3536 FILLER_9_39
*3537 FILLER_9_391
*3538 FILLER_9_393
*3539 FILLER_9_405
*3540 FILLER_9_51
*3541 FILLER_9_55
*3542 FILLER_9_57
*3543 FILLER_9_69
*3544 FILLER_9_86
*3545 FILLER_9_98
*3546 PHY_EDGE_ROW_0_Left_65
*3547 PHY_EDGE_ROW_0_Right_0
*3548 PHY_EDGE_ROW_10_Left_75
*3549 PHY_EDGE_ROW_10_Right_10
*3550 PHY_EDGE_ROW_11_Left_76
*3551 PHY_EDGE_ROW_11_Right_11
*3552 PHY_EDGE_ROW_12_Left_77
*3553 PHY_EDGE_ROW_12_Right_12
*3554 PHY_EDGE_ROW_13_Left_78
*3555 PHY_EDGE_ROW_13_Right_13
*3556 PHY_EDGE_ROW_14_Left_79
*3557 PHY_EDGE_ROW_14_Right_14
*3558 PHY_EDGE_ROW_15_Left_80
*3559 PHY_EDGE_ROW_15_Right_15
*3560 PHY_EDGE_ROW_16_Left_81
*3561 PHY_EDGE_ROW_16_Right_16
*3562 PHY_EDGE_ROW_17_Left_82
*3563 PHY_EDGE_ROW_17_Right_17
*3564 PHY_EDGE_ROW_18_Left_83
*3565 PHY_EDGE_ROW_18_Right_18
*3566 PHY_EDGE_ROW_19_Left_84
*3567 PHY_EDGE_ROW_19_Right_19
*3568 PHY_EDGE_ROW_1_Left_66
*3569 PHY_EDGE_ROW_1_Right_1
*3570 PHY_EDGE_ROW_20_Left_85
*3571 PHY_EDGE_ROW_20_Right_20
*3572 PHY_EDGE_ROW_21_Left_86
*3573 PHY_EDGE_ROW_21_Right_21
*3574 PHY_EDGE_ROW_22_Left_87
*3575 PHY_EDGE_ROW_22_Right_22
*3576 PHY_EDGE_ROW_23_Left_88
*3577 PHY_EDGE_ROW_23_Right_23
*3578 PHY_EDGE_ROW_24_Left_89
*3579 PHY_EDGE_ROW_24_Right_24
*3580 PHY_EDGE_ROW_25_Left_90
*3581 PHY_EDGE_ROW_25_Right_25
*3582 PHY_EDGE_ROW_26_Left_91
*3583 PHY_EDGE_ROW_26_Right_26
*3584 PHY_EDGE_ROW_27_Left_92
*3585 PHY_EDGE_ROW_27_Right_27
*3586 PHY_EDGE_ROW_28_Left_93
*3587 PHY_EDGE_ROW_28_Right_28
*3588 PHY_EDGE_ROW_29_Left_94
*3589 PHY_EDGE_ROW_29_Right_29
*3590 PHY_EDGE_ROW_2_Left_67
*3591 PHY_EDGE_ROW_2_Right_2
*3592 PHY_EDGE_ROW_30_Left_95
*3593 PHY_EDGE_ROW_30_Right_30
*3594 PHY_EDGE_ROW_31_Left_96
*3595 PHY_EDGE_ROW_31_Right_31
*3596 PHY_EDGE_ROW_32_Left_97
*3597 PHY_EDGE_ROW_32_Right_32
*3598 PHY_EDGE_ROW_33_Left_98
*3599 PHY_EDGE_ROW_33_Right_33
*3600 PHY_EDGE_ROW_34_Left_99
*3601 PHY_EDGE_ROW_34_Right_34
*3602 PHY_EDGE_ROW_35_Left_100
*3603 PHY_EDGE_ROW_35_Right_35
*3604 PHY_EDGE_ROW_36_Left_101
*3605 PHY_EDGE_ROW_36_Right_36
*3606 PHY_EDGE_ROW_37_Left_102
*3607 PHY_EDGE_ROW_37_Right_37
*3608 PHY_EDGE_ROW_38_Left_103
*3609 PHY_EDGE_ROW_38_Right_38
*3610 PHY_EDGE_ROW_39_Left_104
*3611 PHY_EDGE_ROW_39_Right_39
*3612 PHY_EDGE_ROW_3_Left_68
*3613 PHY_EDGE_ROW_3_Right_3
*3614 PHY_EDGE_ROW_40_Left_105
*3615 PHY_EDGE_ROW_40_Right_40
*3616 PHY_EDGE_ROW_41_Left_106
*3617 PHY_EDGE_ROW_41_Right_41
*3618 PHY_EDGE_ROW_42_Left_107
*3619 PHY_EDGE_ROW_42_Right_42
*3620 PHY_EDGE_ROW_43_Left_108
*3621 PHY_EDGE_ROW_43_Right_43
*3622 PHY_EDGE_ROW_44_Left_109
*3623 PHY_EDGE_ROW_44_Right_44
*3624 PHY_EDGE_ROW_45_Left_110
*3625 PHY_EDGE_ROW_45_Right_45
*3626 PHY_EDGE_ROW_46_Left_111
*3627 PHY_EDGE_ROW_46_Right_46
*3628 PHY_EDGE_ROW_47_Left_112
*3629 PHY_EDGE_ROW_47_Right_47
*3630 PHY_EDGE_ROW_48_Left_113
*3631 PHY_EDGE_ROW_48_Right_48
*3632 PHY_EDGE_ROW_49_Left_114
*3633 PHY_EDGE_ROW_49_Right_49
*3634 PHY_EDGE_ROW_4_Left_69
*3635 PHY_EDGE_ROW_4_Right_4
*3636 PHY_EDGE_ROW_50_Left_115
*3637 PHY_EDGE_ROW_50_Right_50
*3638 PHY_EDGE_ROW_51_Left_116
*3639 PHY_EDGE_ROW_51_Right_51
*3640 PHY_EDGE_ROW_52_Left_117
*3641 PHY_EDGE_ROW_52_Right_52
*3642 PHY_EDGE_ROW_53_Left_118
*3643 PHY_EDGE_ROW_53_Right_53
*3644 PHY_EDGE_ROW_54_Left_119
*3645 PHY_EDGE_ROW_54_Right_54
*3646 PHY_EDGE_ROW_55_Left_120
*3647 PHY_EDGE_ROW_55_Right_55
*3648 PHY_EDGE_ROW_56_Left_121
*3649 PHY_EDGE_ROW_56_Right_56
*3650 PHY_EDGE_ROW_57_Left_122
*3651 PHY_EDGE_ROW_57_Right_57
*3652 PHY_EDGE_ROW_58_Left_123
*3653 PHY_EDGE_ROW_58_Right_58
*3654 PHY_EDGE_ROW_59_Left_124
*3655 PHY_EDGE_ROW_59_Right_59
*3656 PHY_EDGE_ROW_5_Left_70
*3657 PHY_EDGE_ROW_5_Right_5
*3658 PHY_EDGE_ROW_60_Left_125
*3659 PHY_EDGE_ROW_60_Right_60
*3660 PHY_EDGE_ROW_61_Left_126
*3661 PHY_EDGE_ROW_61_Right_61
*3662 PHY_EDGE_ROW_62_Left_127
*3663 PHY_EDGE_ROW_62_Right_62
*3664 PHY_EDGE_ROW_63_Left_128
*3665 PHY_EDGE_ROW_63_Right_63
*3666 PHY_EDGE_ROW_64_Left_129
*3667 PHY_EDGE_ROW_64_Right_64
*3668 PHY_EDGE_ROW_6_Left_71
*3669 PHY_EDGE_ROW_6_Right_6
*3670 PHY_EDGE_ROW_7_Left_72
*3671 PHY_EDGE_ROW_7_Right_7
*3672 PHY_EDGE_ROW_8_Left_73
*3673 PHY_EDGE_ROW_8_Right_8
*3674 PHY_EDGE_ROW_9_Left_74
*3675 PHY_EDGE_ROW_9_Right_9
*3676 TAP_TAPCELL_ROW_0_130
*3677 TAP_TAPCELL_ROW_0_131
*3678 TAP_TAPCELL_ROW_0_132
*3679 TAP_TAPCELL_ROW_0_133
*3680 TAP_TAPCELL_ROW_0_134
*3681 TAP_TAPCELL_ROW_0_135
*3682 TAP_TAPCELL_ROW_0_136
*3683 TAP_TAPCELL_ROW_0_137
*3684 TAP_TAPCELL_ROW_0_138
*3685 TAP_TAPCELL_ROW_0_139
*3686 TAP_TAPCELL_ROW_0_140
*3687 TAP_TAPCELL_ROW_0_141
*3688 TAP_TAPCELL_ROW_0_142
*3689 TAP_TAPCELL_ROW_0_143
*3690 TAP_TAPCELL_ROW_10_207
*3691 TAP_TAPCELL_ROW_10_208
*3692 TAP_TAPCELL_ROW_10_209
*3693 TAP_TAPCELL_ROW_10_210
*3694 TAP_TAPCELL_ROW_10_211
*3695 TAP_TAPCELL_ROW_10_212
*3696 TAP_TAPCELL_ROW_10_213
*3697 TAP_TAPCELL_ROW_11_214
*3698 TAP_TAPCELL_ROW_11_215
*3699 TAP_TAPCELL_ROW_11_216
*3700 TAP_TAPCELL_ROW_11_217
*3701 TAP_TAPCELL_ROW_11_218
*3702 TAP_TAPCELL_ROW_11_219
*3703 TAP_TAPCELL_ROW_11_220
*3704 TAP_TAPCELL_ROW_12_221
*3705 TAP_TAPCELL_ROW_12_222
*3706 TAP_TAPCELL_ROW_12_223
*3707 TAP_TAPCELL_ROW_12_224
*3708 TAP_TAPCELL_ROW_12_225
*3709 TAP_TAPCELL_ROW_12_226
*3710 TAP_TAPCELL_ROW_12_227
*3711 TAP_TAPCELL_ROW_13_228
*3712 TAP_TAPCELL_ROW_13_229
*3713 TAP_TAPCELL_ROW_13_230
*3714 TAP_TAPCELL_ROW_13_231
*3715 TAP_TAPCELL_ROW_13_232
*3716 TAP_TAPCELL_ROW_13_233
*3717 TAP_TAPCELL_ROW_13_234
*3718 TAP_TAPCELL_ROW_14_235
*3719 TAP_TAPCELL_ROW_14_236
*3720 TAP_TAPCELL_ROW_14_237
*3721 TAP_TAPCELL_ROW_14_238
*3722 TAP_TAPCELL_ROW_14_239
*3723 TAP_TAPCELL_ROW_14_240
*3724 TAP_TAPCELL_ROW_14_241
*3725 TAP_TAPCELL_ROW_15_242
*3726 TAP_TAPCELL_ROW_15_243
*3727 TAP_TAPCELL_ROW_15_244
*3728 TAP_TAPCELL_ROW_15_245
*3729 TAP_TAPCELL_ROW_15_246
*3730 TAP_TAPCELL_ROW_15_247
*3731 TAP_TAPCELL_ROW_15_248
*3732 TAP_TAPCELL_ROW_16_249
*3733 TAP_TAPCELL_ROW_16_250
*3734 TAP_TAPCELL_ROW_16_251
*3735 TAP_TAPCELL_ROW_16_252
*3736 TAP_TAPCELL_ROW_16_253
*3737 TAP_TAPCELL_ROW_16_254
*3738 TAP_TAPCELL_ROW_16_255
*3739 TAP_TAPCELL_ROW_17_256
*3740 TAP_TAPCELL_ROW_17_257
*3741 TAP_TAPCELL_ROW_17_258
*3742 TAP_TAPCELL_ROW_17_259
*3743 TAP_TAPCELL_ROW_17_260
*3744 TAP_TAPCELL_ROW_17_261
*3745 TAP_TAPCELL_ROW_17_262
*3746 TAP_TAPCELL_ROW_18_263
*3747 TAP_TAPCELL_ROW_18_264
*3748 TAP_TAPCELL_ROW_18_265
*3749 TAP_TAPCELL_ROW_18_266
*3750 TAP_TAPCELL_ROW_18_267
*3751 TAP_TAPCELL_ROW_18_268
*3752 TAP_TAPCELL_ROW_18_269
*3753 TAP_TAPCELL_ROW_19_270
*3754 TAP_TAPCELL_ROW_19_271
*3755 TAP_TAPCELL_ROW_19_272
*3756 TAP_TAPCELL_ROW_19_273
*3757 TAP_TAPCELL_ROW_19_274
*3758 TAP_TAPCELL_ROW_19_275
*3759 TAP_TAPCELL_ROW_19_276
*3760 TAP_TAPCELL_ROW_1_144
*3761 TAP_TAPCELL_ROW_1_145
*3762 TAP_TAPCELL_ROW_1_146
*3763 TAP_TAPCELL_ROW_1_147
*3764 TAP_TAPCELL_ROW_1_148
*3765 TAP_TAPCELL_ROW_1_149
*3766 TAP_TAPCELL_ROW_1_150
*3767 TAP_TAPCELL_ROW_20_277
*3768 TAP_TAPCELL_ROW_20_278
*3769 TAP_TAPCELL_ROW_20_279
*3770 TAP_TAPCELL_ROW_20_280
*3771 TAP_TAPCELL_ROW_20_281
*3772 TAP_TAPCELL_ROW_20_282
*3773 TAP_TAPCELL_ROW_20_283
*3774 TAP_TAPCELL_ROW_21_284
*3775 TAP_TAPCELL_ROW_21_285
*3776 TAP_TAPCELL_ROW_21_286
*3777 TAP_TAPCELL_ROW_21_287
*3778 TAP_TAPCELL_ROW_21_288
*3779 TAP_TAPCELL_ROW_21_289
*3780 TAP_TAPCELL_ROW_21_290
*3781 TAP_TAPCELL_ROW_22_291
*3782 TAP_TAPCELL_ROW_22_292
*3783 TAP_TAPCELL_ROW_22_293
*3784 TAP_TAPCELL_ROW_22_294
*3785 TAP_TAPCELL_ROW_22_295
*3786 TAP_TAPCELL_ROW_22_296
*3787 TAP_TAPCELL_ROW_22_297
*3788 TAP_TAPCELL_ROW_23_298
*3789 TAP_TAPCELL_ROW_23_299
*3790 TAP_TAPCELL_ROW_23_300
*3791 TAP_TAPCELL_ROW_23_301
*3792 TAP_TAPCELL_ROW_23_302
*3793 TAP_TAPCELL_ROW_23_303
*3794 TAP_TAPCELL_ROW_23_304
*3795 TAP_TAPCELL_ROW_24_305
*3796 TAP_TAPCELL_ROW_24_306
*3797 TAP_TAPCELL_ROW_24_307
*3798 TAP_TAPCELL_ROW_24_308
*3799 TAP_TAPCELL_ROW_24_309
*3800 TAP_TAPCELL_ROW_24_310
*3801 TAP_TAPCELL_ROW_24_311
*3802 TAP_TAPCELL_ROW_25_312
*3803 TAP_TAPCELL_ROW_25_313
*3804 TAP_TAPCELL_ROW_25_314
*3805 TAP_TAPCELL_ROW_25_315
*3806 TAP_TAPCELL_ROW_25_316
*3807 TAP_TAPCELL_ROW_25_317
*3808 TAP_TAPCELL_ROW_25_318
*3809 TAP_TAPCELL_ROW_26_319
*3810 TAP_TAPCELL_ROW_26_320
*3811 TAP_TAPCELL_ROW_26_321
*3812 TAP_TAPCELL_ROW_26_322
*3813 TAP_TAPCELL_ROW_26_323
*3814 TAP_TAPCELL_ROW_26_324
*3815 TAP_TAPCELL_ROW_26_325
*3816 TAP_TAPCELL_ROW_27_326
*3817 TAP_TAPCELL_ROW_27_327
*3818 TAP_TAPCELL_ROW_27_328
*3819 TAP_TAPCELL_ROW_27_329
*3820 TAP_TAPCELL_ROW_27_330
*3821 TAP_TAPCELL_ROW_27_331
*3822 TAP_TAPCELL_ROW_27_332
*3823 TAP_TAPCELL_ROW_28_333
*3824 TAP_TAPCELL_ROW_28_334
*3825 TAP_TAPCELL_ROW_28_335
*3826 TAP_TAPCELL_ROW_28_336
*3827 TAP_TAPCELL_ROW_28_337
*3828 TAP_TAPCELL_ROW_28_338
*3829 TAP_TAPCELL_ROW_28_339
*3830 TAP_TAPCELL_ROW_29_340
*3831 TAP_TAPCELL_ROW_29_341
*3832 TAP_TAPCELL_ROW_29_342
*3833 TAP_TAPCELL_ROW_29_343
*3834 TAP_TAPCELL_ROW_29_344
*3835 TAP_TAPCELL_ROW_29_345
*3836 TAP_TAPCELL_ROW_29_346
*3837 TAP_TAPCELL_ROW_2_151
*3838 TAP_TAPCELL_ROW_2_152
*3839 TAP_TAPCELL_ROW_2_153
*3840 TAP_TAPCELL_ROW_2_154
*3841 TAP_TAPCELL_ROW_2_155
*3842 TAP_TAPCELL_ROW_2_156
*3843 TAP_TAPCELL_ROW_2_157
*3844 TAP_TAPCELL_ROW_30_347
*3845 TAP_TAPCELL_ROW_30_348
*3846 TAP_TAPCELL_ROW_30_349
*3847 TAP_TAPCELL_ROW_30_350
*3848 TAP_TAPCELL_ROW_30_351
*3849 TAP_TAPCELL_ROW_30_352
*3850 TAP_TAPCELL_ROW_30_353
*3851 TAP_TAPCELL_ROW_31_354
*3852 TAP_TAPCELL_ROW_31_355
*3853 TAP_TAPCELL_ROW_31_356
*3854 TAP_TAPCELL_ROW_31_357
*3855 TAP_TAPCELL_ROW_31_358
*3856 TAP_TAPCELL_ROW_31_359
*3857 TAP_TAPCELL_ROW_31_360
*3858 TAP_TAPCELL_ROW_32_361
*3859 TAP_TAPCELL_ROW_32_362
*3860 TAP_TAPCELL_ROW_32_363
*3861 TAP_TAPCELL_ROW_32_364
*3862 TAP_TAPCELL_ROW_32_365
*3863 TAP_TAPCELL_ROW_32_366
*3864 TAP_TAPCELL_ROW_32_367
*3865 TAP_TAPCELL_ROW_33_368
*3866 TAP_TAPCELL_ROW_33_369
*3867 TAP_TAPCELL_ROW_33_370
*3868 TAP_TAPCELL_ROW_33_371
*3869 TAP_TAPCELL_ROW_33_372
*3870 TAP_TAPCELL_ROW_33_373
*3871 TAP_TAPCELL_ROW_33_374
*3872 TAP_TAPCELL_ROW_34_375
*3873 TAP_TAPCELL_ROW_34_376
*3874 TAP_TAPCELL_ROW_34_377
*3875 TAP_TAPCELL_ROW_34_378
*3876 TAP_TAPCELL_ROW_34_379
*3877 TAP_TAPCELL_ROW_34_380
*3878 TAP_TAPCELL_ROW_34_381
*3879 TAP_TAPCELL_ROW_35_382
*3880 TAP_TAPCELL_ROW_35_383
*3881 TAP_TAPCELL_ROW_35_384
*3882 TAP_TAPCELL_ROW_35_385
*3883 TAP_TAPCELL_ROW_35_386
*3884 TAP_TAPCELL_ROW_35_387
*3885 TAP_TAPCELL_ROW_35_388
*3886 TAP_TAPCELL_ROW_36_389
*3887 TAP_TAPCELL_ROW_36_390
*3888 TAP_TAPCELL_ROW_36_391
*3889 TAP_TAPCELL_ROW_36_392
*3890 TAP_TAPCELL_ROW_36_393
*3891 TAP_TAPCELL_ROW_36_394
*3892 TAP_TAPCELL_ROW_36_395
*3893 TAP_TAPCELL_ROW_37_396
*3894 TAP_TAPCELL_ROW_37_397
*3895 TAP_TAPCELL_ROW_37_398
*3896 TAP_TAPCELL_ROW_37_399
*3897 TAP_TAPCELL_ROW_37_400
*3898 TAP_TAPCELL_ROW_37_401
*3899 TAP_TAPCELL_ROW_37_402
*3900 TAP_TAPCELL_ROW_38_403
*3901 TAP_TAPCELL_ROW_38_404
*3902 TAP_TAPCELL_ROW_38_405
*3903 TAP_TAPCELL_ROW_38_406
*3904 TAP_TAPCELL_ROW_38_407
*3905 TAP_TAPCELL_ROW_38_408
*3906 TAP_TAPCELL_ROW_38_409
*3907 TAP_TAPCELL_ROW_39_410
*3908 TAP_TAPCELL_ROW_39_411
*3909 TAP_TAPCELL_ROW_39_412
*3910 TAP_TAPCELL_ROW_39_413
*3911 TAP_TAPCELL_ROW_39_414
*3912 TAP_TAPCELL_ROW_39_415
*3913 TAP_TAPCELL_ROW_39_416
*3914 TAP_TAPCELL_ROW_3_158
*3915 TAP_TAPCELL_ROW_3_159
*3916 TAP_TAPCELL_ROW_3_160
*3917 TAP_TAPCELL_ROW_3_161
*3918 TAP_TAPCELL_ROW_3_162
*3919 TAP_TAPCELL_ROW_3_163
*3920 TAP_TAPCELL_ROW_3_164
*3921 TAP_TAPCELL_ROW_40_417
*3922 TAP_TAPCELL_ROW_40_418
*3923 TAP_TAPCELL_ROW_40_419
*3924 TAP_TAPCELL_ROW_40_420
*3925 TAP_TAPCELL_ROW_40_421
*3926 TAP_TAPCELL_ROW_40_422
*3927 TAP_TAPCELL_ROW_40_423
*3928 TAP_TAPCELL_ROW_41_424
*3929 TAP_TAPCELL_ROW_41_425
*3930 TAP_TAPCELL_ROW_41_426
*3931 TAP_TAPCELL_ROW_41_427
*3932 TAP_TAPCELL_ROW_41_428
*3933 TAP_TAPCELL_ROW_41_429
*3934 TAP_TAPCELL_ROW_41_430
*3935 TAP_TAPCELL_ROW_42_431
*3936 TAP_TAPCELL_ROW_42_432
*3937 TAP_TAPCELL_ROW_42_433
*3938 TAP_TAPCELL_ROW_42_434
*3939 TAP_TAPCELL_ROW_42_435
*3940 TAP_TAPCELL_ROW_42_436
*3941 TAP_TAPCELL_ROW_42_437
*3942 TAP_TAPCELL_ROW_43_438
*3943 TAP_TAPCELL_ROW_43_439
*3944 TAP_TAPCELL_ROW_43_440
*3945 TAP_TAPCELL_ROW_43_441
*3946 TAP_TAPCELL_ROW_43_442
*3947 TAP_TAPCELL_ROW_43_443
*3948 TAP_TAPCELL_ROW_43_444
*3949 TAP_TAPCELL_ROW_44_445
*3950 TAP_TAPCELL_ROW_44_446
*3951 TAP_TAPCELL_ROW_44_447
*3952 TAP_TAPCELL_ROW_44_448
*3953 TAP_TAPCELL_ROW_44_449
*3954 TAP_TAPCELL_ROW_44_450
*3955 TAP_TAPCELL_ROW_44_451
*3956 TAP_TAPCELL_ROW_45_452
*3957 TAP_TAPCELL_ROW_45_453
*3958 TAP_TAPCELL_ROW_45_454
*3959 TAP_TAPCELL_ROW_45_455
*3960 TAP_TAPCELL_ROW_45_456
*3961 TAP_TAPCELL_ROW_45_457
*3962 TAP_TAPCELL_ROW_45_458
*3963 TAP_TAPCELL_ROW_46_459
*3964 TAP_TAPCELL_ROW_46_460
*3965 TAP_TAPCELL_ROW_46_461
*3966 TAP_TAPCELL_ROW_46_462
*3967 TAP_TAPCELL_ROW_46_463
*3968 TAP_TAPCELL_ROW_46_464
*3969 TAP_TAPCELL_ROW_46_465
*3970 TAP_TAPCELL_ROW_47_466
*3971 TAP_TAPCELL_ROW_47_467
*3972 TAP_TAPCELL_ROW_47_468
*3973 TAP_TAPCELL_ROW_47_469
*3974 TAP_TAPCELL_ROW_47_470
*3975 TAP_TAPCELL_ROW_47_471
*3976 TAP_TAPCELL_ROW_47_472
*3977 TAP_TAPCELL_ROW_48_473
*3978 TAP_TAPCELL_ROW_48_474
*3979 TAP_TAPCELL_ROW_48_475
*3980 TAP_TAPCELL_ROW_48_476
*3981 TAP_TAPCELL_ROW_48_477
*3982 TAP_TAPCELL_ROW_48_478
*3983 TAP_TAPCELL_ROW_48_479
*3984 TAP_TAPCELL_ROW_49_480
*3985 TAP_TAPCELL_ROW_49_481
*3986 TAP_TAPCELL_ROW_49_482
*3987 TAP_TAPCELL_ROW_49_483
*3988 TAP_TAPCELL_ROW_49_484
*3989 TAP_TAPCELL_ROW_49_485
*3990 TAP_TAPCELL_ROW_49_486
*3991 TAP_TAPCELL_ROW_4_165
*3992 TAP_TAPCELL_ROW_4_166
*3993 TAP_TAPCELL_ROW_4_167
*3994 TAP_TAPCELL_ROW_4_168
*3995 TAP_TAPCELL_ROW_4_169
*3996 TAP_TAPCELL_ROW_4_170
*3997 TAP_TAPCELL_ROW_4_171
*3998 TAP_TAPCELL_ROW_50_487
*3999 TAP_TAPCELL_ROW_50_488
*4000 TAP_TAPCELL_ROW_50_489
*4001 TAP_TAPCELL_ROW_50_490
*4002 TAP_TAPCELL_ROW_50_491
*4003 TAP_TAPCELL_ROW_50_492
*4004 TAP_TAPCELL_ROW_50_493
*4005 TAP_TAPCELL_ROW_51_494
*4006 TAP_TAPCELL_ROW_51_495
*4007 TAP_TAPCELL_ROW_51_496
*4008 TAP_TAPCELL_ROW_51_497
*4009 TAP_TAPCELL_ROW_51_498
*4010 TAP_TAPCELL_ROW_51_499
*4011 TAP_TAPCELL_ROW_51_500
*4012 TAP_TAPCELL_ROW_52_501
*4013 TAP_TAPCELL_ROW_52_502
*4014 TAP_TAPCELL_ROW_52_503
*4015 TAP_TAPCELL_ROW_52_504
*4016 TAP_TAPCELL_ROW_52_505
*4017 TAP_TAPCELL_ROW_52_506
*4018 TAP_TAPCELL_ROW_52_507
*4019 TAP_TAPCELL_ROW_53_508
*4020 TAP_TAPCELL_ROW_53_509
*4021 TAP_TAPCELL_ROW_53_510
*4022 TAP_TAPCELL_ROW_53_511
*4023 TAP_TAPCELL_ROW_53_512
*4024 TAP_TAPCELL_ROW_53_513
*4025 TAP_TAPCELL_ROW_53_514
*4026 TAP_TAPCELL_ROW_54_515
*4027 TAP_TAPCELL_ROW_54_516
*4028 TAP_TAPCELL_ROW_54_517
*4029 TAP_TAPCELL_ROW_54_518
*4030 TAP_TAPCELL_ROW_54_519
*4031 TAP_TAPCELL_ROW_54_520
*4032 TAP_TAPCELL_ROW_54_521
*4033 TAP_TAPCELL_ROW_55_522
*4034 TAP_TAPCELL_ROW_55_523
*4035 TAP_TAPCELL_ROW_55_524
*4036 TAP_TAPCELL_ROW_55_525
*4037 TAP_TAPCELL_ROW_55_526
*4038 TAP_TAPCELL_ROW_55_527
*4039 TAP_TAPCELL_ROW_55_528
*4040 TAP_TAPCELL_ROW_56_529
*4041 TAP_TAPCELL_ROW_56_530
*4042 TAP_TAPCELL_ROW_56_531
*4043 TAP_TAPCELL_ROW_56_532
*4044 TAP_TAPCELL_ROW_56_533
*4045 TAP_TAPCELL_ROW_56_534
*4046 TAP_TAPCELL_ROW_56_535
*4047 TAP_TAPCELL_ROW_57_536
*4048 TAP_TAPCELL_ROW_57_537
*4049 TAP_TAPCELL_ROW_57_538
*4050 TAP_TAPCELL_ROW_57_539
*4051 TAP_TAPCELL_ROW_57_540
*4052 TAP_TAPCELL_ROW_57_541
*4053 TAP_TAPCELL_ROW_57_542
*4054 TAP_TAPCELL_ROW_58_543
*4055 TAP_TAPCELL_ROW_58_544
*4056 TAP_TAPCELL_ROW_58_545
*4057 TAP_TAPCELL_ROW_58_546
*4058 TAP_TAPCELL_ROW_58_547
*4059 TAP_TAPCELL_ROW_58_548
*4060 TAP_TAPCELL_ROW_58_549
*4061 TAP_TAPCELL_ROW_59_550
*4062 TAP_TAPCELL_ROW_59_551
*4063 TAP_TAPCELL_ROW_59_552
*4064 TAP_TAPCELL_ROW_59_553
*4065 TAP_TAPCELL_ROW_59_554
*4066 TAP_TAPCELL_ROW_59_555
*4067 TAP_TAPCELL_ROW_59_556
*4068 TAP_TAPCELL_ROW_5_172
*4069 TAP_TAPCELL_ROW_5_173
*4070 TAP_TAPCELL_ROW_5_174
*4071 TAP_TAPCELL_ROW_5_175
*4072 TAP_TAPCELL_ROW_5_176
*4073 TAP_TAPCELL_ROW_5_177
*4074 TAP_TAPCELL_ROW_5_178
*4075 TAP_TAPCELL_ROW_60_557
*4076 TAP_TAPCELL_ROW_60_558
*4077 TAP_TAPCELL_ROW_60_559
*4078 TAP_TAPCELL_ROW_60_560
*4079 TAP_TAPCELL_ROW_60_561
*4080 TAP_TAPCELL_ROW_60_562
*4081 TAP_TAPCELL_ROW_60_563
*4082 TAP_TAPCELL_ROW_61_564
*4083 TAP_TAPCELL_ROW_61_565
*4084 TAP_TAPCELL_ROW_61_566
*4085 TAP_TAPCELL_ROW_61_567
*4086 TAP_TAPCELL_ROW_61_568
*4087 TAP_TAPCELL_ROW_61_569
*4088 TAP_TAPCELL_ROW_61_570
*4089 TAP_TAPCELL_ROW_62_571
*4090 TAP_TAPCELL_ROW_62_572
*4091 TAP_TAPCELL_ROW_62_573
*4092 TAP_TAPCELL_ROW_62_574
*4093 TAP_TAPCELL_ROW_62_575
*4094 TAP_TAPCELL_ROW_62_576
*4095 TAP_TAPCELL_ROW_62_577
*4096 TAP_TAPCELL_ROW_63_578
*4097 TAP_TAPCELL_ROW_63_579
*4098 TAP_TAPCELL_ROW_63_580
*4099 TAP_TAPCELL_ROW_63_581
*4100 TAP_TAPCELL_ROW_63_582
*4101 TAP_TAPCELL_ROW_63_583
*4102 TAP_TAPCELL_ROW_63_584
*4103 TAP_TAPCELL_ROW_64_585
*4104 TAP_TAPCELL_ROW_64_586
*4105 TAP_TAPCELL_ROW_64_587
*4106 TAP_TAPCELL_ROW_64_588
*4107 TAP_TAPCELL_ROW_64_589
*4108 TAP_TAPCELL_ROW_64_590
*4109 TAP_TAPCELL_ROW_64_591
*4110 TAP_TAPCELL_ROW_64_592
*4111 TAP_TAPCELL_ROW_64_593
*4112 TAP_TAPCELL_ROW_64_594
*4113 TAP_TAPCELL_ROW_64_595
*4114 TAP_TAPCELL_ROW_64_596
*4115 TAP_TAPCELL_ROW_64_597
*4116 TAP_TAPCELL_ROW_64_598
*4117 TAP_TAPCELL_ROW_6_179
*4118 TAP_TAPCELL_ROW_6_180
*4119 TAP_TAPCELL_ROW_6_181
*4120 TAP_TAPCELL_ROW_6_182
*4121 TAP_TAPCELL_ROW_6_183
*4122 TAP_TAPCELL_ROW_6_184
*4123 TAP_TAPCELL_ROW_6_185
*4124 TAP_TAPCELL_ROW_7_186
*4125 TAP_TAPCELL_ROW_7_187
*4126 TAP_TAPCELL_ROW_7_188
*4127 TAP_TAPCELL_ROW_7_189
*4128 TAP_TAPCELL_ROW_7_190
*4129 TAP_TAPCELL_ROW_7_191
*4130 TAP_TAPCELL_ROW_7_192
*4131 TAP_TAPCELL_ROW_8_193
*4132 TAP_TAPCELL_ROW_8_194
*4133 TAP_TAPCELL_ROW_8_195
*4134 TAP_TAPCELL_ROW_8_196
*4135 TAP_TAPCELL_ROW_8_197
*4136 TAP_TAPCELL_ROW_8_198
*4137 TAP_TAPCELL_ROW_8_199
*4138 TAP_TAPCELL_ROW_9_200
*4139 TAP_TAPCELL_ROW_9_201
*4140 TAP_TAPCELL_ROW_9_202
*4141 TAP_TAPCELL_ROW_9_203
*4142 TAP_TAPCELL_ROW_9_204
*4143 TAP_TAPCELL_ROW_9_205
*4144 TAP_TAPCELL_ROW_9_206
*4145 _0692_
*4146 _0693_
*4147 _0694_
*4148 _0695_
*4149 _0696_
*4150 _0697_
*4151 _0698_
*4152 _0699_
*4153 _0700_
*4154 _0701_
*4155 _0702_
*4156 _0703_
*4157 _0704_
*4158 _0705_
*4159 _0706_
*4160 _0707_
*4161 _0708_
*4162 _0709_
*4163 _0710_
*4164 _0711_
*4165 _0712_
*4166 _0713_
*4167 _0714_
*4168 _0715_
*4169 _0716_
*4170 _0717_
*4171 _0718_
*4172 _0719_
*4173 _0720_
*4174 _0721_
*4175 _0722_
*4176 _0723_
*4177 _0724_
*4178 _0725_
*4179 _0726_
*4180 _0727_
*4181 _0728_
*4182 _0729_
*4183 _0730_
*4184 _0731_
*4185 _0732_
*4186 _0733_
*4187 _0734_
*4188 _0735_
*4189 _0736_
*4190 _0737_
*4191 _0738_
*4192 _0739_
*4193 _0740_
*4194 _0741_
*4195 _0742_
*4196 _0743_
*4197 _0744_
*4198 _0745_
*4199 _0746_
*4200 _0747_
*4201 _0748_
*4202 _0749_
*4203 _0750_
*4204 _0751_
*4205 _0752_
*4206 _0753_
*4207 _0754_
*4208 _0755_
*4209 _0756_
*4210 _0757_
*4211 _0758_
*4212 _0759_
*4213 _0760_
*4214 _0761_
*4215 _0762_
*4216 _0763_
*4217 _0764_
*4218 _0765_
*4219 _0766_
*4220 _0767_
*4221 _0768_
*4222 _0769_
*4223 _0770_
*4224 _0771_
*4225 _0772_
*4226 _0773_
*4227 _0774_
*4228 _0775_
*4229 _0776_
*4230 _0777_
*4231 _0778_
*4232 _0779_
*4233 _0780_
*4234 _0781_
*4235 _0782_
*4236 _0783_
*4237 _0784_
*4238 _0785_
*4239 _0786_
*4240 _0787_
*4241 _0788_
*4242 _0789_
*4243 _0790_
*4244 _0791_
*4245 _0792_
*4246 _0793_
*4247 _0794_
*4248 _0795_
*4249 _0796_
*4250 _0797_
*4251 _0798_
*4252 _0799_
*4253 _0800_
*4254 _0801_
*4255 _0802_
*4256 _0803_
*4257 _0804_
*4258 _0805_
*4259 _0806_
*4260 _0807_
*4261 _0808_
*4262 _0809_
*4263 _0810_
*4264 _0811_
*4265 _0812_
*4266 _0813_
*4267 _0814_
*4268 _0815_
*4269 _0816_
*4270 _0817_
*4271 _0818_
*4272 _0819_
*4273 _0820_
*4274 _0821_
*4275 _0822_
*4276 _0823_
*4277 _0824_
*4278 _0825_
*4279 _0826_
*4280 _0827_
*4281 _0828_
*4282 _0829_
*4283 _0830_
*4284 _0831_
*4285 _0832_
*4286 _0833_
*4287 _0834_
*4288 _0835_
*4289 _0836_
*4290 _0837_
*4291 _0838_
*4292 _0839_
*4293 _0840_
*4294 _0841_
*4295 _0842_
*4296 _0843_
*4297 _0844_
*4298 _0845_
*4299 _0846_
*4300 _0847_
*4301 _0848_
*4302 _0849_
*4303 _0850_
*4304 _0851_
*4305 _0852_
*4306 _0853_
*4307 _0854_
*4308 _0855_
*4309 _0856_
*4310 _0857_
*4311 _0858_
*4312 _0859_
*4313 _0860_
*4314 _0861_
*4315 _0862_
*4316 _0863_
*4317 _0864_
*4318 _0865_
*4319 _0866_
*4320 _0867_
*4321 _0868_
*4322 _0869_
*4323 _0870_
*4324 _0871_
*4325 _0872_
*4326 _0873_
*4327 _0874_
*4328 _0875_
*4329 _0876_
*4330 _0877_
*4331 _0878_
*4332 _0879_
*4333 _0880_
*4334 _0881_
*4335 _0882_
*4336 _0883_
*4337 _0884_
*4338 _0885_
*4339 _0886_
*4340 _0887_
*4341 _0888_
*4342 _0889_
*4343 _0890_
*4344 _0891_
*4345 _0892_
*4346 _0893_
*4347 _0894_
*4348 _0895_
*4349 _0896_
*4350 _0897_
*4351 _0898_
*4352 _0899_
*4353 _0900_
*4354 _0901_
*4355 _0902_
*4356 _0903_
*4357 _0904_
*4358 _0905_
*4359 _0906_
*4360 _0907_
*4361 _0908_
*4362 _0909_
*4363 _0910_
*4364 _0911_
*4365 _0912_
*4366 _0913_
*4367 _0914_
*4368 _0915_
*4369 _0916_
*4370 _0917_
*4371 _0918_
*4372 _0919_
*4373 _0920_
*4374 _0921_
*4375 _0922_
*4376 _0923_
*4377 _0924_
*4378 _0925_
*4379 _0926_
*4380 _0927_
*4381 _0928_
*4382 _0929_
*4383 _0930_
*4384 _0931_
*4385 _0932_
*4386 _0933_
*4387 _0934_
*4388 _0935_
*4389 _0936_
*4390 _0937_
*4391 _0938_
*4392 _0939_
*4393 _0940_
*4394 _0941_
*4395 _0942_
*4396 _0943_
*4397 _0944_
*4398 _0945_
*4399 _0946_
*4400 _0947_
*4401 _0948_
*4402 _0949_
*4403 _0950_
*4404 _0951_
*4405 _0952_
*4406 _0953_
*4407 _0954_
*4408 _0955_
*4409 _0956_
*4410 _0957_
*4411 _0958_
*4412 _0959_
*4413 _0960_
*4414 _0961_
*4415 _0962_
*4416 _0963_
*4417 _0964_
*4418 _0965_
*4419 _0966_
*4420 _0967_
*4421 _0968_
*4422 _0969_
*4423 _0970_
*4424 _0971_
*4425 _0972_
*4426 _0973_
*4427 _0974_
*4428 _0975_
*4429 _0976_
*4430 _0977_
*4431 _0978_
*4432 _0979_
*4433 _0980_
*4434 _0981_
*4435 _0982_
*4436 _0983_
*4437 _0984_
*4438 _0985_
*4439 _0986_
*4440 _0987_
*4441 _0988_
*4442 _0989_
*4443 _0990_
*4444 _0991_
*4445 _0992_
*4446 _0993_
*4447 _0994_
*4448 _0995_
*4449 _0996_
*4450 _0997_
*4451 _0998_
*4452 _0999_
*4453 _1000_
*4454 _1001_
*4455 _1002_
*4456 _1003_
*4457 _1004_
*4458 _1005_
*4459 _1006_
*4460 _1007_
*4461 _1008_
*4462 _1009_
*4463 _1010_
*4464 _1011_
*4465 _1012_
*4466 _1013_
*4467 _1014_
*4468 _1015_
*4469 _1016_
*4470 _1017_
*4471 _1018_
*4472 _1019_
*4473 _1020_
*4474 _1021_
*4475 _1022_
*4476 _1023_
*4477 _1024_
*4478 _1025_
*4479 _1026_
*4480 _1027_
*4481 _1028_
*4482 _1029_
*4483 _1030_
*4484 _1031_
*4485 _1032_
*4486 _1033_
*4487 _1034_
*4488 _1035_
*4489 _1036_
*4490 _1037_
*4491 _1038_
*4492 _1039_
*4493 _1040_
*4494 _1041_
*4495 _1042_
*4496 _1043_
*4497 _1044_
*4498 _1045_
*4499 _1046_
*4500 _1047_
*4501 _1048_
*4502 _1049_
*4503 _1050_
*4504 _1051_
*4505 _1052_
*4506 _1053_
*4507 _1054_
*4508 _1055_
*4509 _1056_
*4510 _1057_
*4511 _1058_
*4512 _1059_
*4513 _1060_
*4514 _1061_
*4515 _1062_
*4516 _1063_
*4517 _1064_
*4518 _1065_
*4519 _1066_
*4520 _1067_
*4521 _1068_
*4522 _1069_
*4523 _1070_
*4524 _1071_
*4525 _1072_
*4526 _1073_
*4527 _1074_
*4528 _1075_
*4529 _1076_
*4530 _1077_
*4531 _1078_
*4532 _1079_
*4533 _1080_
*4534 _1081_
*4535 _1082_
*4536 _1083_
*4537 _1084_
*4538 _1085_
*4539 _1086_
*4540 _1087_
*4541 _1088_
*4542 _1089_
*4543 _1090_
*4544 _1091_
*4545 _1092_
*4546 _1093_
*4547 _1094_
*4548 _1095_
*4549 _1096_
*4550 _1097_
*4551 _1098_
*4552 _1099_
*4553 _1100_
*4554 _1101_
*4555 _1102_
*4556 _1103_
*4557 _1104_
*4558 _1105_
*4559 _1106_
*4560 _1107_
*4561 _1108_
*4562 _1109_
*4563 _1110_
*4564 _1111_
*4565 _1112_
*4566 _1113_
*4567 _1114_
*4568 _1115_
*4569 _1116_
*4570 _1117_
*4571 _1118_
*4572 _1119_
*4573 _1120_
*4574 _1121_
*4575 _1122_
*4576 _1123_
*4577 _1124_
*4578 _1125_
*4579 _1126_
*4580 _1127_
*4581 _1128_
*4582 _1129_
*4583 _1130_
*4584 _1131_
*4585 _1132_
*4586 _1133_
*4587 _1134_
*4588 _1135_
*4589 _1136_
*4590 _1137_
*4591 _1138_
*4592 _1139_
*4593 _1140_
*4594 _1141_
*4595 _1142_
*4596 _1143_
*4597 _1144_
*4598 _1145_
*4599 _1146_
*4600 _1147_
*4601 _1148_
*4602 _1149_
*4603 _1150_
*4604 _1151_
*4605 _1152_
*4606 _1153_
*4607 _1154_
*4608 _1155_
*4609 _1156_
*4610 _1157_
*4611 _1158_
*4612 _1159_
*4613 _1160_
*4614 _1161_
*4615 _1162_
*4616 _1163_
*4617 _1164_
*4618 _1165_
*4619 _1166_
*4620 _1167_
*4621 _1168_
*4622 _1169_
*4623 _1170_
*4624 _1171_
*4625 _1172_
*4626 _1173_
*4627 _1174_
*4628 _1175_
*4629 _1176_
*4630 _1177_
*4631 _1178_
*4632 _1179_
*4633 _1180_
*4634 _1181_
*4635 _1182_
*4636 _1183_
*4637 _1184_
*4638 _1185_
*4639 _1186_
*4640 _1187_
*4641 _1188_
*4642 _1189_
*4643 _1190_
*4644 _1191_
*4645 _1192_
*4646 _1193_
*4647 _1194_
*4648 _1195_
*4649 _1196_
*4650 _1197_
*4651 _1198_
*4652 _1199_
*4653 _1200_
*4654 _1201_
*4655 _1202_
*4656 _1203_
*4657 _1204_
*4658 _1205_
*4659 _1206_
*4660 _1207_
*4661 _1208_
*4662 _1209_
*4663 _1210_
*4664 _1211_
*4665 _1212_
*4666 _1213_
*4667 _1214_
*4668 _1215_
*4669 _1216_
*4670 _1217_
*4671 _1218_
*4672 _1219_
*4673 _1220_
*4674 _1221_
*4675 _1222_
*4676 _1223_
*4677 _1224_
*4678 _1225_
*4679 _1226_
*4680 _1227_
*4681 _1228_
*4682 _1229_
*4683 _1230_
*4684 _1231_
*4685 _1232_
*4686 _1233_
*4687 _1234_
*4688 _1235_
*4689 _1236_
*4690 _1237_
*4691 _1238_
*4692 _1239_
*4693 _1240_
*4694 _1241_
*4695 _1242_
*4696 _1243_
*4697 _1244_
*4698 _1245_
*4699 _1246_
*4700 _1247_
*4701 _1248_
*4702 _1249_
*4703 _1250_
*4704 _1251_
*4705 _1252_
*4706 _1253_
*4707 _1254_
*4708 _1255_
*4709 _1256_
*4710 _1257_
*4711 _1258_
*4712 _1259_
*4713 _1260_
*4714 _1261_
*4715 _1262_
*4716 _1263_
*4717 _1264_
*4718 _1265_
*4719 _1266_
*4720 _1267_
*4721 _1268_
*4722 _1269_
*4723 _1270_
*4724 _1271_
*4725 _1272_
*4726 _1273_
*4727 _1274_
*4728 _1275_
*4729 _1276_
*4730 _1277_
*4731 _1278_
*4732 _1279_
*4733 _1280_
*4734 _1281_
*4735 _1282_
*4736 _1283_
*4737 _1284_
*4738 _1285_
*4739 _1286_
*4740 _1287_
*4741 _1288_
*4742 _1289_
*4743 _1290_
*4744 _1291_
*4745 _1292_
*4746 _1293_
*4747 _1294_
*4748 _1295_
*4749 _1296_
*4750 _1297_
*4751 _1298_
*4752 _1299_
*4753 _1300_
*4754 _1301_
*4755 _1302_
*4756 _1303_
*4757 _1304_
*4758 _1305_
*4759 _1306_
*4760 _1307_
*4761 _1308_
*4762 _1309_
*4763 _1310_
*4764 _1311_
*4765 _1312_
*4766 _1313_
*4767 _1314_
*4768 _1315_
*4769 _1316_
*4770 _1317_
*4771 _1318_
*4772 _1319_
*4773 _1320_
*4774 _1321_
*4775 _1322_
*4776 _1323_
*4777 _1324_
*4778 _1325_
*4779 _1326_
*4780 _1327_
*4781 _1328_
*4782 _1329_
*4783 _1330_
*4784 _1331_
*4785 _1332_
*4786 _1333_
*4787 _1334_
*4788 _1335_
*4789 _1336_
*4790 _1337_
*4791 _1338_
*4792 _1339_
*4793 _1340_
*4794 _1341_
*4795 _1342_
*4796 _1343_
*4797 _1344_
*4798 _1345_
*4799 _1346_
*4800 _1347_
*4801 _1348_
*4802 _1349_
*4803 _1350_
*4804 _1351_
*4805 _1352_
*4806 _1353_
*4807 _1354_
*4808 _1355_
*4809 _1356_
*4810 _1357_
*4811 _1358_
*4812 _1359_
*4813 _1360_
*4814 _1361_
*4815 _1362_
*4816 _1363_
*4817 _1364_
*4818 _1365_
*4819 _1366_
*4820 _1367_
*4821 _1368_
*4822 _1369_
*4823 _1370_
*4824 _1371_
*4825 _1372_
*4826 _1373_
*4827 _1374_
*4828 _1375_
*4829 _1376_
*4830 _1377_
*4831 _1378_
*4832 _1379_
*4833 _1380_
*4834 _1381_
*4835 _1382_
*4836 _1383_
*4837 _1384_
*4838 _1385_
*4839 _1386_
*4840 _1387_
*4841 _1388_
*4842 _1389_
*4843 _1390_
*4844 _1391_
*4845 _1392_
*4846 _1393_
*4847 _1394_
*4848 _1395_
*4849 _1396_
*4850 _1397_
*4851 _1398_
*4852 _1399_
*4853 _1400_
*4854 _1401_
*4855 _1402_
*4856 _1403_
*4857 _1404_
*4858 _1405_
*4859 _1406_
*4860 _1407_
*4861 _1408_
*4862 _1409_
*4863 _1410_
*4864 _1411_
*4865 _1412_
*4866 _1413_
*4867 _1414_
*4868 _1415_
*4869 _1416_
*4870 _1417_
*4871 _1418_
*4872 _1419_
*4873 _1420_
*4874 _1421_
*4875 _1422_
*4876 _1423_
*4877 _1424_
*4878 _1425_
*4879 _1426_
*4880 _1427_
*4881 _1428_
*4882 _1429_
*4883 _1430_
*4884 _1431_
*4885 _1432_
*4886 _1433_
*4887 _1434_
*4888 _1435_
*4889 _1436_
*4890 _1437_
*4891 _1438_
*4892 _1439_
*4893 _1440_
*4894 _1441_
*4895 _1442_
*4896 _1443_
*4897 _1444_
*4898 _1445_
*4899 _1446_
*4900 _1447_
*4901 _1448_
*4902 _1449_
*4903 _1450_
*4904 _1451_
*4905 _1452_
*4906 _1453_
*4907 _1454_
*4908 _1455_
*4909 _1456_
*4910 _1457_
*4911 _1458_
*4912 _1459_
*4913 _1460_
*4914 _1461_
*4915 _1462_
*4916 _1463_
*4917 _1464_
*4918 clkbuf_0_clk
*4919 clkbuf_3_0__f_clk
*4920 clkbuf_3_1__f_clk
*4921 clkbuf_3_2__f_clk
*4922 clkbuf_3_3__f_clk
*4923 clkbuf_3_4__f_clk
*4924 clkbuf_3_5__f_clk
*4925 clkbuf_3_6__f_clk
*4926 clkbuf_3_7__f_clk
*4927 clkload0
*4928 clkload1
*4929 clkload2
*4930 clkload3
*4931 clkload4
*4932 clkload5
*4933 clone16
*4934 clone7
*4935 fanout100
*4936 fanout101
*4937 fanout102
*4938 fanout103
*4939 fanout104
*4940 fanout105
*4941 fanout106
*4942 fanout107
*4943 fanout108
*4944 fanout109
*4945 fanout110
*4946 fanout111
*4947 fanout112
*4948 fanout113
*4949 fanout114
*4950 fanout115
*4951 fanout116
*4952 fanout52
*4953 fanout53
*4954 fanout54
*4955 fanout55
*4956 fanout57
*4957 fanout58
*4958 fanout59
*4959 fanout60
*4960 fanout61
*4961 fanout62
*4962 fanout65
*4963 fanout66
*4964 fanout67
*4965 fanout68
*4966 fanout69
*4967 fanout70
*4968 fanout71
*4969 fanout72
*4970 fanout73
*4971 fanout74
*4972 fanout75
*4973 fanout76
*4974 fanout77
*4975 fanout78
*4976 fanout79
*4977 fanout80
*4978 fanout81
*4979 fanout82
*4980 fanout83
*4981 fanout84
*4982 fanout85
*4983 fanout86
*4984 fanout87
*4985 fanout88
*4986 fanout89
*4987 fanout90
*4988 fanout91
*4989 fanout92
*4990 fanout93
*4991 fanout94
*4992 fanout95
*4993 fanout96
*4994 fanout97
*4995 fanout98
*4996 fanout99
*4997 hold19
*4998 hold20
*4999 hold21
*5000 hold22
*5001 hold23
*5002 hold24
*5003 hold25
*5004 hold26
*5005 hold27
*5006 hold28
*5007 hold29
*5008 hold30
*5009 hold31
*5010 hold32
*5011 hold33
*5012 hold34
*5013 hold35
*5014 hold36
*5015 hold37
*5016 hold38
*5017 hold39
*5018 hold40
*5019 hold41
*5020 hold42
*5021 hold43
*5022 hold44
*5023 hold45
*5024 hold46
*5025 hold47
*5026 hold48
*5027 hold49
*5028 hold50
*5029 hold51
*5030 hold52
*5031 hold53
*5032 hold54
*5033 hold55
*5034 hold56
*5035 hold57
*5036 hold58
*5037 hold59
*5038 hold60
*5039 hold61
*5040 hold62
*5041 hold63
*5042 hold64
*5043 hold65
*5044 hold66
*5045 hold67
*5046 hold68
*5047 hold69
*5048 input1
*5049 input10
*5050 input11
*5051 input12
*5052 input13
*5053 input14
*5054 input15
*5055 input16
*5056 input17
*5057 input18
*5058 input19
*5059 input2
*5060 input3
*5061 input4
*5062 input5
*5063 input6
*5064 input7
*5065 input8
*5066 input9
*5067 max_cap63
*5068 max_cap64
*5069 output20
*5070 output21
*5071 output22
*5072 output23
*5073 output24
*5074 output25
*5075 output26
*5076 output27
*5077 output28
*5078 output29
*5079 output30
*5080 output31
*5081 output32
*5082 output33
*5083 output34
*5084 output35
*5085 output36
*5086 output37
*5087 output38
*5088 output39
*5089 output40
*5090 output41
*5091 output42
*5092 output43
*5093 output44
*5094 output45
*5095 output46
*5096 output47
*5097 output48
*5098 output49
*5099 output50
*5100 output51
*5101 rebuffer1
*5102 rebuffer10
*5103 rebuffer11
*5104 rebuffer12
*5105 rebuffer13
*5106 rebuffer14
*5107 rebuffer15
*5108 rebuffer18
*5109 rebuffer2
*5110 rebuffer3
*5111 rebuffer4
*5112 rebuffer5
*5113 rebuffer6
*5114 rebuffer8
*5115 rebuffer9
*5116 top_117

*PORTS
addr[0] I
addr[1] I
addr[2] I
addr[3] I
addr[4] I
addr[5] I
addr[6] I
addr[7] I
clk I
rdata[0] O
rdata[10] O
rdata[11] O
rdata[12] O
rdata[13] O
rdata[14] O
rdata[15] O
rdata[16] O
rdata[17] O
rdata[18] O
rdata[19] O
rdata[1] O
rdata[20] O
rdata[21] O
rdata[22] O
rdata[23] O
rdata[24] O
rdata[25] O
rdata[26] O
rdata[27] O
rdata[28] O
rdata[29] O
rdata[2] O
rdata[30] O
rdata[31] O
rdata[3] O
rdata[4] O
rdata[5] O
rdata[6] O
rdata[7] O
rdata[8] O
rdata[9] O
ready O
rst I
valid I
wdata[0] I
wdata[10] I
wdata[11] I
wdata[12] I
wdata[13] I
wdata[14] I
wdata[15] I
wdata[16] I
wdata[17] I
wdata[18] I
wdata[19] I
wdata[1] I
wdata[20] I
wdata[21] I
wdata[22] I
wdata[23] I
wdata[24] I
wdata[25] I
wdata[26] I
wdata[27] I
wdata[28] I
wdata[29] I
wdata[2] I
wdata[30] I
wdata[31] I
wdata[3] I
wdata[4] I
wdata[5] I
wdata[6] I
wdata[7] I
wdata[8] I
wdata[9] I
write I

*D_NET *3 0.000806766
*CONN
*P addr[0] I
*I *5048:A I *D sky130_fd_sc_hd__buf_1
*CAP
1 addr[0] 0.000346305
2 *5048:A 0.000346305
3 *5048:A *4:17 3.12475e-05
4 *5048:A *6:17 2.12457e-05
5 *5048:A *830:8 6.16635e-05
*RES
1 addr[0] *5048:A 49.5439 
*END

*D_NET *4 0.000811777
*CONN
*P addr[1] I
*I *5059:A I *D sky130_fd_sc_hd__clkbuf_1
*CAP
1 addr[1] 0.000377024
2 *5059:A 0
3 *4:17 0.000377024
4 *4:17 rdata[5] 2.0307e-05
5 *4:17 *830:8 0
6 *4:17 *925:12 6.17437e-06
7 *5048:A *4:17 3.12475e-05
*RES
1 addr[1] *4:17 28.9191 
2 *4:17 *5059:A 23 
*END

*D_NET *5 0.000718702
*CONN
*P addr[2] I
*I *5060:A I *D sky130_fd_sc_hd__clkbuf_1
*CAP
1 addr[2] 0.000326465
2 *5060:A 0
3 *5:17 0.000326465
4 *5:17 rdata[3] 2.12457e-05
5 *5:17 rdata[5] 3.23168e-05
6 *5:17 *39:10 1.221e-05
*RES
1 addr[2] *5:17 27.8627 
2 *5:17 *5060:A 23 
*END

*D_NET *6 0.000672747
*CONN
*P addr[3] I
*I *5061:A I *D sky130_fd_sc_hd__clkbuf_1
*CAP
1 addr[3] 0.000311306
2 *5061:A 0
3 *6:17 0.000311306
4 *6:17 *8:17 2.88889e-05
5 *5048:A *6:17 2.12457e-05
*RES
1 addr[3] *6:17 27.5105 
2 *6:17 *5061:A 23 
*END

*D_NET *7 0.000617629
*CONN
*P addr[4] I
*I *5062:A I *D sky130_fd_sc_hd__clkbuf_1
*CAP
1 addr[4] 0.00029437
2 *5062:A 0.00029437
3 *5062:A *5065:A 2.88889e-05
*RES
1 addr[4] *5062:A 49.8062 
*END

*D_NET *8 0.00064333
*CONN
*P addr[5] I
*I *5063:A I *D sky130_fd_sc_hd__clkbuf_1
*CAP
1 addr[5] 0.000292776
2 *5063:A 0
3 *8:17 0.000292776
4 *8:17 rdata[4] 2.43221e-05
5 *8:17 *38:14 4.56684e-06
6 *6:17 *8:17 2.88889e-05
*RES
1 addr[5] *8:17 27.1584 
2 *8:17 *5063:A 23 
*END

*D_NET *9 0.000698024
*CONN
*P addr[6] I
*I *5064:A I *D sky130_fd_sc_hd__clkbuf_1
*CAP
1 addr[6] 0.000284586
2 *5064:A 0.000284586
3 *5064:A rdata[4] 1.5289e-05
4 *5064:A ready 2.12457e-05
5 *5064:A *4150:B 2.38256e-05
6 *5064:A *38:14 1.26232e-05
7 *5064:A *980:8 5.58694e-05
*RES
1 addr[6] *5064:A 49.1918 
*END

*D_NET *10 0.000608278
*CONN
*P addr[7] I
*I *5065:A I *D sky130_fd_sc_hd__clkbuf_1
*CAP
1 addr[7] 0.00027525
2 *5065:A 0.00027525
3 *5065:A ready 2.88889e-05
4 *5065:A *44:10 0
5 *5062:A *5065:A 2.88889e-05
*RES
1 addr[7] *5065:A 49.8062 
*END

*D_NET *11 0.0190285
*CONN
*P clk I
*I *4918:A I *D sky130_fd_sc_hd__clkbuf_16
*CAP
1 clk 0.0045695
2 *4918:A 0
3 *11:9 0.00398685
4 *11:7 0.00855635
5 *11:7 *641:10 0.000130115
6 *11:9 *4493:B1 4.98543e-05
7 *11:9 *4493:C1 0
8 *11:9 *4530:B1 8.82421e-05
9 *11:9 *4535:A1 3.56433e-05
10 *11:9 *4606:A 0
11 *11:9 *4669:B 0
12 *11:9 *422:16 0
13 *11:9 *424:16 6.21538e-05
14 *11:9 *447:10 0
15 *11:9 *448:12 0
16 *11:9 *449:12 0
17 *11:9 *450:25 3.64189e-05
18 *11:9 *450:36 0.000204868
19 *11:9 *451:8 0
20 *11:9 *482:10 0
21 *11:9 *485:10 2.01531e-05
22 *11:9 *486:10 0.00026824
23 *11:9 *487:27 5.58068e-05
24 *11:9 *510:25 0.000108569
25 *11:9 *520:10 0
26 *11:9 *520:36 0.000118899
27 *11:9 *521:18 0.000216721
28 *11:9 *524:8 0
29 *11:9 *557:10 0.000139647
30 *11:9 *558:10 6.4393e-05
31 *11:9 *560:16 0
32 *11:9 *581:19 1.37349e-05
33 *11:9 *582:18 0.000215782
34 *11:9 *583:8 3.81391e-05
35 *11:9 *611:10 0
36 *11:9 *611:14 0
37 *11:9 *622:10 4.84109e-05
38 *11:9 *849:14 0
*RES
1 clk *11:7 24.2997 
2 *11:7 *11:9 81.6661 
3 *11:9 *4918:A 38 
*END

*D_NET *12 0.00076346
*CONN
*P rdata[0] O
*I *5069:X O *D sky130_fd_sc_hd__buf_2
*CAP
1 rdata[0] 8.51798e-05
2 *5069:X 0.000280392
3 *12:14 0.000365572
4 rdata[0] *46:17 1.5289e-05
5 *12:14 *46:17 1.70278e-05
*RES
1 *5069:X *12:14 49.9 
2 *12:14 rdata[0] 0.382667 
*END

*D_NET *13 0.00169215
*CONN
*P rdata[10] O
*I *5070:X O *D sky130_fd_sc_hd__buf_2
*CAP
1 rdata[10] 0.000182497
2 *5070:X 0.000329854
3 *13:10 0.000512351
4 rdata[10] rdata[14] 7.16267e-05
5 *13:10 *5017:A 5.31385e-05
6 *13:10 *5070:A 0.000520221
7 *13:10 *14:10 2.24608e-05
*RES
1 *5070:X *13:10 45.9854 
2 *13:10 rdata[10] 8.75787 
*END

*D_NET *14 0.00137276
*CONN
*P rdata[11] O
*I *5071:X O *D sky130_fd_sc_hd__buf_2
*CAP
1 rdata[11] 0.000121521
2 *5071:X 0.000388531
3 *14:10 0.000510052
4 rdata[11] rdata[13] 6.91091e-05
5 rdata[11] rdata[14] 6.91091e-05
6 *14:10 *5070:A 2.60152e-05
7 *14:10 *930:8 0.000165964
8 *14:10 *930:20 0
9 *13:10 *14:10 2.24608e-05
*RES
1 *5071:X *14:10 45.0532 
2 *14:10 rdata[11] 8.672 
*END

*D_NET *15 0.0010733
*CONN
*P rdata[12] O
*I *5072:X O *D sky130_fd_sc_hd__buf_2
*CAP
1 rdata[12] 0.000213348
2 *5072:X 0.000217265
3 *15:8 0.000430613
4 rdata[12] rdata[13] 8.44976e-05
5 *15:8 *930:8 0.000127573
*RES
1 *5072:X *15:8 42.5468 
2 *15:8 rdata[12] 8.84373 
*END

*D_NET *16 0.00132847
*CONN
*P rdata[13] O
*I *5073:X O *D sky130_fd_sc_hd__buf_2
*CAP
1 rdata[13] 0.000556602
2 *5073:X 0.000556602
3 rdata[13] rdata[14] 0
4 rdata[13] *849:121 0
5 rdata[13] *930:20 6.16635e-05
6 rdata[11] rdata[13] 6.91091e-05
7 rdata[12] rdata[13] 8.44976e-05
*RES
1 *5073:X rdata[13] 49.3462 
*END

*D_NET *17 0.00120105
*CONN
*P rdata[14] O
*I *5074:X O *D sky130_fd_sc_hd__buf_2
*CAP
1 rdata[14] 0.000296352
2 *5074:X 0.000162112
3 *17:10 0.000458464
4 *17:10 *5008:A 2.62661e-05
5 *17:10 *5074:A 0.000117121
6 *17:10 *849:121 0
7 rdata[10] rdata[14] 7.16267e-05
8 rdata[11] rdata[14] 6.91091e-05
9 rdata[13] rdata[14] 0
*RES
1 *5074:X *17:10 49.8425 
2 *17:10 rdata[14] 1.1872 
*END

*D_NET *18 0.000525951
*CONN
*P rdata[15] O
*I *5075:X O *D sky130_fd_sc_hd__buf_2
*CAP
1 rdata[15] 0.00022334
2 *5075:X 0.00022334
3 rdata[15] rdata[16] 7.92703e-05
4 rdata[15] *5075:A 0
*RES
1 *5075:X rdata[15] 47.1648 
*END

*D_NET *19 0.00120649
*CONN
*P rdata[16] O
*I *5076:X O *D sky130_fd_sc_hd__buf_2
*CAP
1 rdata[16] 0.000563608
2 *5076:X 0.000563608
3 rdata[16] *778:110 0
4 rdata[15] rdata[16] 7.92703e-05
*RES
1 *5076:X rdata[16] 48.1093 
*END

*D_NET *20 0.000513213
*CONN
*P rdata[17] O
*I *5077:X O *D sky130_fd_sc_hd__buf_2
*CAP
1 rdata[17] 0.000172097
2 *5077:X 0.000172097
3 rdata[17] rdata[19] 8.97484e-05
4 rdata[17] rdata[20] 7.92703e-05
*RES
1 *5077:X rdata[17] 47.1648 
*END

*D_NET *21 0.000548558
*CONN
*P rdata[18] O
*I *5078:X O *D sky130_fd_sc_hd__buf_2
*CAP
1 rdata[18] 0.000225219
2 *5078:X 0.000225219
3 rdata[18] rdata[19] 0
4 rdata[18] rdata[9] 7.92703e-05
5 rdata[18] *5078:A 1.88491e-05
*RES
1 *5078:X rdata[18] 47.5169 
*END

*D_NET *22 0.000622138
*CONN
*P rdata[19] O
*I *5079:X O *D sky130_fd_sc_hd__buf_2
*CAP
1 rdata[19] 0.000248575
2 *5079:X 0.000248575
3 rdata[19] *5079:A 3.52397e-05
4 rdata[17] rdata[19] 8.97484e-05
5 rdata[18] rdata[19] 0
*RES
1 *5079:X rdata[19] 47.8691 
*END

*D_NET *23 0.000720901
*CONN
*P rdata[1] O
*I *5080:X O *D sky130_fd_sc_hd__buf_2
*CAP
1 rdata[1] 0.000360451
2 *5080:X 0.000360451
3 rdata[1] *938:12 0
*RES
1 *5080:X rdata[1] 48.7952 
*END

*D_NET *24 0.00121133
*CONN
*P rdata[20] O
*I *5081:X O *D sky130_fd_sc_hd__buf_2
*CAP
1 rdata[20] 0.000521155
2 *5081:X 0.000521155
3 rdata[20] rdata[24] 8.97484e-05
4 rdata[20] *837:93 0
5 rdata[17] rdata[20] 7.92703e-05
*RES
1 *5081:X rdata[20] 48.1093 
*END

*D_NET *25 0.000933891
*CONN
*P rdata[21] O
*I *5082:X O *D sky130_fd_sc_hd__buf_2
*CAP
1 rdata[21] 0.000184416
2 *5082:X 0.000194582
3 *25:10 0.000378998
4 rdata[21] rdata[24] 8.73764e-05
5 *25:10 *940:8 8.85189e-05
*RES
1 *5082:X *25:10 49.8425 
2 *25:10 rdata[21] 0.843733 
*END

*D_NET *26 0.000537776
*CONN
*P rdata[22] O
*I *5083:X O *D sky130_fd_sc_hd__buf_2
*CAP
1 rdata[22] 0.000242639
2 *5083:X 0.000242639
3 rdata[22] *941:8 5.2497e-05
*RES
1 *5083:X rdata[22] 47.5169 
*END

*D_NET *27 0.00119958
*CONN
*P rdata[23] O
*I *5084:X O *D sky130_fd_sc_hd__buf_2
*CAP
1 rdata[23] 0.000512549
2 *5084:X 8.72412e-05
3 *27:8 0.00059979
*RES
1 *5084:X *27:8 39.0979 
2 *27:8 rdata[23] 11.165 
*END

*D_NET *28 0.000701823
*CONN
*P rdata[24] O
*I *5085:X O *D sky130_fd_sc_hd__buf_2
*CAP
1 rdata[24] 0.000262349
2 *5085:X 0.000262349
3 rdata[20] rdata[24] 8.97484e-05
4 rdata[21] rdata[24] 8.73764e-05
*RES
1 *5085:X rdata[24] 48.9255 
*END

*D_NET *29 0.00167995
*CONN
*P rdata[25] O
*I *5086:X O *D sky130_fd_sc_hd__buf_2
*CAP
1 rdata[25] 0.00049798
2 *5086:X 0.000248512
3 *29:12 0.000746493
4 rdata[25] rdata[8] 0
5 *29:12 *5086:A 2.82035e-05
6 *29:12 *42:10 5.82853e-05
7 *29:12 *967:10 0.000100477
*RES
1 *5086:X *29:12 42.5986 
2 *29:12 rdata[25] 10.8129 
*END

*D_NET *30 0.00119961
*CONN
*P rdata[26] O
*I *5087:X O *D sky130_fd_sc_hd__buf_2
*CAP
1 rdata[26] 0.000512564
2 *5087:X 8.72412e-05
3 *30:8 0.000599805
*RES
1 *5087:X *30:8 39.0979 
2 *30:8 rdata[26] 11.165 
*END

*D_NET *31 0.00119958
*CONN
*P rdata[27] O
*I *5088:X O *D sky130_fd_sc_hd__buf_2
*CAP
1 rdata[27] 0.000512549
2 *5088:X 8.72412e-05
3 *31:8 0.00059979
4 rdata[27] rdata[28] 0
*RES
1 *5088:X *31:8 39.0979 
2 *31:8 rdata[27] 11.165 
*END

*D_NET *32 0.00119594
*CONN
*P rdata[28] O
*I *5089:X O *D sky130_fd_sc_hd__buf_2
*CAP
1 rdata[28] 0.000500453
2 *5089:X 8.72412e-05
3 *32:8 0.000587694
4 rdata[28] *946:12 2.05505e-05
5 rdata[27] rdata[28] 0
*RES
1 *5089:X *32:8 39.0979 
2 *32:8 rdata[28] 11.165 
*END

*D_NET *33 0.00124987
*CONN
*P rdata[29] O
*I *5090:X O *D sky130_fd_sc_hd__buf_2
*CAP
1 rdata[29] 0.000509516
2 *5090:X 7.24453e-05
3 *33:8 0.000581961
4 rdata[29] *5090:A 3.13857e-05
5 *33:8 *5090:A 5.45644e-05
*RES
1 *5090:X *33:8 39.0979 
2 *33:8 rdata[29] 11.165 
*END

*D_NET *34 0.000778632
*CONN
*P rdata[2] O
*I *5091:X O *D sky130_fd_sc_hd__buf_2
*CAP
1 rdata[2] 0.000325526
2 *5091:X 0.000325526
3 rdata[2] *5091:A 0.00012758
4 rdata[2] *164:10 0
*RES
1 *5091:X rdata[2] 48.5734 
*END

*D_NET *35 0.00119958
*CONN
*P rdata[30] O
*I *5092:X O *D sky130_fd_sc_hd__buf_2
*CAP
1 rdata[30] 0.000512549
2 *5092:X 8.72412e-05
3 *35:8 0.00059979
*RES
1 *5092:X *35:8 39.0979 
2 *35:8 rdata[30] 11.165 
*END

*D_NET *36 0.00119958
*CONN
*P rdata[31] O
*I *5093:X O *D sky130_fd_sc_hd__buf_2
*CAP
1 rdata[31] 0.000512549
2 *5093:X 8.72412e-05
3 *36:8 0.00059979
4 rdata[31] rdata[6] 0
*RES
1 *5093:X *36:8 39.0979 
2 *36:8 rdata[31] 11.165 
*END

*D_NET *37 0.000683424
*CONN
*P rdata[3] O
*I *5094:X O *D sky130_fd_sc_hd__buf_2
*CAP
1 rdata[3] 0.000309419
2 *5094:X 0.000309419
3 rdata[3] *164:10 0
4 rdata[3] *953:10 4.334e-05
5 *5:17 rdata[3] 2.12457e-05
*RES
1 *5094:X rdata[3] 48.5734 
*END

*D_NET *38 0.000690523
*CONN
*P rdata[4] O
*I *5095:X O *D sky130_fd_sc_hd__buf_2
*CAP
1 rdata[4] 7.58295e-05
2 *5095:X 0.000241032
3 *38:14 0.000316861
4 *5064:A rdata[4] 1.5289e-05
5 *5064:A *38:14 1.26232e-05
6 *8:17 rdata[4] 2.43221e-05
7 *8:17 *38:14 4.56684e-06
*RES
1 *5095:X *38:14 49.9 
2 *38:14 rdata[4] 0.382667 
*END

*D_NET *39 0.000854679
*CONN
*P rdata[5] O
*I *5096:X O *D sky130_fd_sc_hd__buf_2
*CAP
1 rdata[5] 9.74436e-05
2 *5096:X 0.000297479
3 *39:10 0.000394923
4 *4:17 rdata[5] 2.0307e-05
5 *5:17 rdata[5] 3.23168e-05
6 *5:17 *39:10 1.221e-05
*RES
1 *5096:X *39:10 42.5054 
2 *39:10 rdata[5] 8.4816 
*END

*D_NET *40 0.00142373
*CONN
*P rdata[6] O
*I *5097:X O *D sky130_fd_sc_hd__buf_2
*CAP
1 rdata[6] 0.00050433
2 *5097:X 0.000106236
3 *40:8 0.000610565
4 rdata[6] *956:21 6.12484e-05
5 *40:8 *952:25 0.000141352
6 rdata[31] rdata[6] 0
*RES
1 *5097:X *40:8 39.5743 
2 *40:8 rdata[6] 11.165 
*END

*D_NET *41 0.00133434
*CONN
*P rdata[7] O
*I *5098:X O *D sky130_fd_sc_hd__buf_2
*CAP
1 rdata[7] 0.000499655
2 *5098:X 0.000135327
3 *41:8 0.000634983
4 rdata[7] *5098:A 6.43792e-05
*RES
1 *5098:X *41:8 39.5743 
2 *41:8 rdata[7] 11.165 
*END

*D_NET *42 0.00142726
*CONN
*P rdata[8] O
*I *5099:X O *D sky130_fd_sc_hd__buf_2
*CAP
1 rdata[8] 0.000491929
2 *5099:X 0.00012132
3 *42:10 0.000613249
4 rdata[8] *5086:A 1.51481e-05
5 rdata[8] *968:136 2.9338e-05
6 *42:10 *5086:A 9.79925e-05
7 rdata[25] rdata[8] 0
8 *29:12 *42:10 5.82853e-05
*RES
1 *5099:X *42:10 40.5479 
2 *42:10 rdata[8] 10.8129 
*END

*D_NET *43 0.000527084
*CONN
*P rdata[9] O
*I *5100:X O *D sky130_fd_sc_hd__buf_2
*CAP
1 rdata[9] 0.000219596
2 *5100:X 0.000219596
3 rdata[9] *935:10 8.62073e-06
4 rdata[18] rdata[9] 7.92703e-05
*RES
1 *5100:X rdata[9] 47.1648 
*END

*D_NET *44 0.000672747
*CONN
*P ready O
*I *5116:HI O *D sky130_fd_sc_hd__conb_1
*CAP
1 ready 8.9331e-05
2 *5116:HI 0.000221975
3 *44:10 0.000311306
4 *44:10 *4150:B 0
5 *5064:A ready 2.12457e-05
6 *5065:A ready 2.88889e-05
7 *5065:A *44:10 0
*RES
1 *5116:HI *44:10 42.0289 
2 *44:10 ready 8.4816 
*END

*D_NET *45 0.00109035
*CONN
*P rst I
*I *5066:A I *D sky130_fd_sc_hd__clkbuf_4
*CAP
1 rst 0.000545176
2 *5066:A 0.000545176
*RES
1 rst *5066:A 49.5586 
*END

*D_NET *46 0.000692582
*CONN
*P valid I
*I *5049:A I *D sky130_fd_sc_hd__clkbuf_2
*CAP
1 valid 0.000315688
2 *5049:A 0
3 *46:17 0.000315688
4 *46:17 *79:17 2.88889e-05
5 rdata[0] *46:17 1.5289e-05
6 *12:14 *46:17 1.70278e-05
*RES
1 valid *46:17 27.2827 
2 *46:17 *5049:A 23 
*END

*D_NET *47 0.000690829
*CONN
*P wdata[0] I
*I *5050:A I *D sky130_fd_sc_hd__buf_1
*CAP
1 wdata[0] 0.000320835
2 *5050:A 0.000320835
3 *5050:A *58:17 2.79122e-05
4 *5050:A *79:17 2.12457e-05
*RES
1 wdata[0] *5050:A 49.1918 
*END

*D_NET *58 0.000667074
*CONN
*P wdata[1] I
*I *5051:A I *D sky130_fd_sc_hd__buf_1
*CAP
1 wdata[1] 0.000319581
2 *5051:A 0
3 *58:17 0.000319581
4 *5050:A *58:17 2.79122e-05
*RES
1 wdata[1] *58:17 27.1584 
2 *58:17 *5051:A 23 
*END

*D_NET *69 0.000707613
*CONN
*P wdata[2] I
*I *5052:A I *D sky130_fd_sc_hd__clkbuf_1
*CAP
1 wdata[2] 0.00033985
2 *5052:A 0.00033985
3 *5052:A *5055:A 2.79122e-05
*RES
1 wdata[2] *5052:A 49.5439 
*END

*D_NET *72 0.000569027
*CONN
*P wdata[3] I
*I *5053:A I *D sky130_fd_sc_hd__clkbuf_1
*CAP
1 wdata[3] 0.000284513
2 *5053:A 0.000284513
*RES
1 wdata[3] *5053:A 48.1354 
*END

*D_NET *73 0.000699906
*CONN
*P wdata[4] I
*I *5054:A I *D sky130_fd_sc_hd__clkbuf_1
*CAP
1 wdata[4] 0.000349953
2 *5054:A 0
3 *73:17 0.000349953
4 *73:17 *5055:A 0
*RES
1 wdata[4] *73:17 27.8627 
2 *73:17 *5054:A 23 
*END

*D_NET *74 0.000617619
*CONN
*P wdata[5] I
*I *5055:A I *D sky130_fd_sc_hd__buf_1
*CAP
1 wdata[5] 0.000294853
2 *5055:A 0.000294853
3 *5052:A *5055:A 2.79122e-05
4 *73:17 *5055:A 0
*RES
1 wdata[5] *5055:A 49.8062 
*END

*D_NET *75 0.00100747
*CONN
*P wdata[6] I
*I *5056:A I *D sky130_fd_sc_hd__clkbuf_1
*CAP
1 wdata[6] 0.000493995
2 *5056:A 0.000493995
3 *5056:A *906:8 1.94812e-05
*RES
1 wdata[6] *5056:A 48.2743 
*END

*D_NET *76 0.00100747
*CONN
*P wdata[7] I
*I *5057:A I *D sky130_fd_sc_hd__clkbuf_1
*CAP
1 wdata[7] 0.000493995
2 *5057:A 0.000493995
3 *5057:A *917:8 1.94812e-05
*RES
1 wdata[7] *5057:A 48.2743 
*END

*D_NET *79 0.000703598
*CONN
*P write I
*I *5058:A I *D sky130_fd_sc_hd__buf_1
*CAP
1 write 0.000326731
2 *5058:A 0
3 *79:17 0.000326731
4 *79:17 *831:14 0
5 *5050:A *79:17 2.12457e-05
6 *46:17 *79:17 2.88889e-05
*RES
1 write *79:17 27.8627 
2 *79:17 *5058:A 23 
*END

*D_NET *80 0.000291584
*CONN
*I *4837:D I *D sky130_fd_sc_hd__dfxtp_1
*I *4152:Y O *D sky130_fd_sc_hd__nor3_1
*CAP
1 *4837:D 1.13183e-05
2 *4152:Y 9.81904e-05
3 *80:8 0.000109509
4 *4837:D *4837:CLK 1.64354e-05
5 *80:8 *166:10 0
6 *80:8 *1002:67 5.61311e-05
*RES
1 *4152:Y *80:8 40.2579 
2 *80:8 *4837:D 38.1916 
*END

*D_NET *81 0.000309418
*CONN
*I *4838:D I *D sky130_fd_sc_hd__dfxtp_1
*I *4157:X O *D sky130_fd_sc_hd__and2_1
*CAP
1 *4838:D 0.000104679
2 *4157:X 0.000104679
3 *4838:D *4157:B 0.000100061
*RES
1 *4157:X *4838:D 47.8902 
*END

*D_NET *82 0.000227156
*CONN
*I *4839:D I *D sky130_fd_sc_hd__dfxtp_1
*I *4159:X O *D sky130_fd_sc_hd__and2_1
*CAP
1 *4839:D 8.54628e-05
2 *4159:X 8.54628e-05
3 *4839:D *781:23 4.86962e-05
4 *4839:D *841:94 7.53384e-06
*RES
1 *4159:X *4839:D 47.8902 
*END

*D_NET *83 0.000232447
*CONN
*I *4840:D I *D sky130_fd_sc_hd__dfxtp_1
*I *4161:X O *D sky130_fd_sc_hd__and2_1
*CAP
1 *4840:D 1.26271e-05
2 *4161:X 9.53785e-05
3 *83:8 0.000108006
4 *4840:D *4840:CLK 1.64354e-05
5 *83:8 *844:35 0
*RES
1 *4161:X *83:8 39.5536 
2 *83:8 *4840:D 38.1916 
*END

*D_NET *84 0.000345199
*CONN
*I *4841:D I *D sky130_fd_sc_hd__dfxtp_1
*I *4163:X O *D sky130_fd_sc_hd__and2_1
*CAP
1 *4841:D 8.75094e-05
2 *4163:X 8.75094e-05
3 *4841:D *884:12 0.00017018
*RES
1 *4163:X *4841:D 47.8902 
*END

*D_NET *85 0.000226912
*CONN
*I *4842:D I *D sky130_fd_sc_hd__dfxtp_1
*I *4165:X O *D sky130_fd_sc_hd__and2_1
*CAP
1 *4842:D 1.66233e-05
2 *4165:X 7.77633e-05
3 *85:8 9.43866e-05
4 *85:8 *774:68 3.81391e-05
5 *85:8 *999:14 0
*RES
1 *4165:X *85:8 39.5536 
2 *85:8 *4842:D 38.1916 
*END

*D_NET *86 0.000402536
*CONN
*I *4843:D I *D sky130_fd_sc_hd__dfxtp_1
*I *4167:X O *D sky130_fd_sc_hd__and2_1
*CAP
1 *4843:D 0.000124422
2 *4167:X 0.000124422
3 *4843:D *4167:B 9.86805e-05
4 *4843:D *774:18 5.50106e-05
*RES
1 *4167:X *4843:D 48.3873 
*END

*D_NET *87 0.000397083
*CONN
*I *4844:D I *D sky130_fd_sc_hd__dfxtp_1
*I *4169:X O *D sky130_fd_sc_hd__and2_1
*CAP
1 *4844:D 5.12449e-05
2 *4169:X 5.12449e-05
3 *4844:D *984:23 0.00016727
4 *4844:D *992:25 0.000127324
*RES
1 *4169:X *4844:D 47.8902 
*END

*D_NET *88 0.0002469
*CONN
*I *4845:D I *D sky130_fd_sc_hd__dfxtp_2
*I *4171:X O *D sky130_fd_sc_hd__and2_1
*CAP
1 *4845:D 1.11712e-05
2 *4171:X 8.6752e-05
3 *88:8 9.79232e-05
4 *4845:D *984:23 1.64354e-05
5 *88:8 *774:104 3.46181e-05
6 *88:8 *840:57 0
*RES
1 *4171:X *88:8 39.5536 
2 *88:8 *4845:D 38.1916 
*END

*D_NET *89 0.00024202
*CONN
*I *4846:D I *D sky130_fd_sc_hd__dfxtp_1
*I *4179:X O *D sky130_fd_sc_hd__o211a_1
*CAP
1 *4846:D 1.26271e-05
2 *4179:X 7.23553e-05
3 *89:8 8.49823e-05
4 *4846:D *773:53 1.64354e-05
5 *89:8 *4179:A2 5.56203e-05
6 *89:8 *844:35 0
*RES
1 *4179:X *89:8 39.5536 
2 *89:8 *4846:D 38.1916 
*END

*D_NET *90 0.00031658
*CONN
*I *4847:D I *D sky130_fd_sc_hd__dfxtp_1
*I *4182:X O *D sky130_fd_sc_hd__o211a_1
*CAP
1 *4847:D 7.37595e-05
2 *4182:X 7.37595e-05
3 *4847:D *839:40 0.000169061
*RES
1 *4182:X *4847:D 47.8902 
*END

*D_NET *91 0.00065564
*CONN
*I *4848:D I *D sky130_fd_sc_hd__dfxtp_1
*I *4185:X O *D sky130_fd_sc_hd__o211a_1
*CAP
1 *4848:D 0.000156948
2 *4185:X 8.49192e-05
3 *91:8 0.000241867
4 *91:8 *164:10 0.000171906
5 *91:8 *839:40 0
*RES
1 *4185:X *91:8 40.2579 
2 *91:8 *4848:D 40.5737 
*END

*D_NET *92 0.000823305
*CONN
*I *4849:D I *D sky130_fd_sc_hd__dfxtp_1
*I *4188:X O *D sky130_fd_sc_hd__o211a_1
*CAP
1 *4849:D 0.000198979
2 *4188:X 0.000116936
3 *92:10 0.000315915
4 *4849:D *191:10 2.12084e-05
5 *92:10 *164:10 8.76088e-05
6 *92:10 *870:10 8.26569e-05
*RES
1 *4188:X *92:10 40.8793 
2 *92:10 *4849:D 41.0502 
*END

*D_NET *93 0.00044258
*CONN
*I *4850:D I *D sky130_fd_sc_hd__dfxtp_1
*I *4191:X O *D sky130_fd_sc_hd__o211a_1
*CAP
1 *4850:D 2.50154e-05
2 *4191:X 5.62221e-05
3 *93:8 8.12374e-05
4 *4850:D *775:89 5.73018e-05
5 *4850:D *843:10 5.73018e-05
6 *93:8 *775:89 5.45887e-05
7 *93:8 *874:8 0.000110913
*RES
1 *4191:X *93:8 39.5536 
2 *93:8 *4850:D 38.668 
*END

*D_NET *94 0.000287242
*CONN
*I *4851:D I *D sky130_fd_sc_hd__dfxtp_1
*I *4194:X O *D sky130_fd_sc_hd__o211a_1
*CAP
1 *4851:D 1.02637e-05
2 *4194:X 6.62654e-05
3 *94:8 7.65291e-05
4 *4851:D *775:16 1.78697e-05
5 *94:8 *775:59 0.000116314
*RES
1 *4194:X *94:8 39.5536 
2 *94:8 *4851:D 38.1916 
*END

*D_NET *95 0.000600797
*CONN
*I *4852:D I *D sky130_fd_sc_hd__dfxtp_1
*I *4197:X O *D sky130_fd_sc_hd__o211a_1
*CAP
1 *4852:D 0.000123313
2 *4197:X 9.03074e-05
3 *95:8 0.000213621
4 *4852:D *4852:CLK 4.9054e-06
5 *4852:D *776:56 6.343e-05
6 *95:8 *199:10 5.26101e-05
7 *95:8 *839:110 5.26101e-05
*RES
1 *4197:X *95:8 40.2579 
2 *95:8 *4852:D 40.0973 
*END

*D_NET *96 0.000339841
*CONN
*I *4853:D I *D sky130_fd_sc_hd__dfxtp_1
*I *4200:X O *D sky130_fd_sc_hd__o221a_1
*CAP
1 *4853:D 1.56856e-05
2 *4200:X 9.40715e-05
3 *96:8 0.000109757
4 *4853:D *4947:A 6.01634e-05
5 *4853:D *845:10 6.01634e-05
*RES
1 *4200:X *96:8 39.5536 
2 *96:8 *4853:D 38.668 
*END

*D_NET *97 0.000582338
*CONN
*I *4854:D I *D sky130_fd_sc_hd__dfxtp_1
*I *4202:X O *D sky130_fd_sc_hd__o221a_1
*CAP
1 *4854:D 0.000119677
2 *4202:X 9.24173e-05
3 *97:8 0.000212094
4 *4854:D *885:10 1.49833e-05
5 *97:8 *779:164 0.000143166
*RES
1 *4202:X *97:8 40.2579 
2 *97:8 *4854:D 39.9471 
*END

*D_NET *98 0.000292815
*CONN
*I *4855:D I *D sky130_fd_sc_hd__dfxtp_1
*I *4204:X O *D sky130_fd_sc_hd__o221a_1
*CAP
1 *4855:D 0.000103062
2 *4204:X 0.000103062
3 *4855:D *4855:CLK 5.56279e-05
4 *4855:D *838:103 3.10633e-05
*RES
1 *4204:X *4855:D 47.8902 
*END

*D_NET *99 0.000507962
*CONN
*I *4856:D I *D sky130_fd_sc_hd__dfxtp_1
*I *4206:X O *D sky130_fd_sc_hd__o221a_1
*CAP
1 *4856:D 5.81553e-05
2 *4206:X 0.000156637
3 *99:10 0.000214792
4 *99:10 *778:80 2.76611e-06
5 *99:10 *778:91 5.61414e-05
6 *99:10 *890:6 1.94693e-05
*RES
1 *4206:X *99:10 40.8793 
2 *99:10 *4856:D 38.9943 
*END

*D_NET *100 0.000341102
*CONN
*I *4857:D I *D sky130_fd_sc_hd__dfxtp_1
*I *4208:X O *D sky130_fd_sc_hd__o221a_1
*CAP
1 *4857:D 7.02897e-05
2 *4208:X 7.02897e-05
3 *4857:D *4857:CLK 2.93845e-05
4 *4857:D *966:33 0.000171138
*RES
1 *4208:X *4857:D 47.8902 
*END

*D_NET *101 0.000305581
*CONN
*I *4858:D I *D sky130_fd_sc_hd__dfxtp_1
*I *4210:X O *D sky130_fd_sc_hd__o221a_1
*CAP
1 *4858:D 8.10608e-06
2 *4210:X 9.39437e-05
3 *101:8 0.00010205
4 *4858:D *778:67 1.64354e-05
5 *101:8 *778:67 8.50457e-05
*RES
1 *4210:X *101:8 39.5536 
2 *101:8 *4858:D 38.1916 
*END

*D_NET *102 0.000908036
*CONN
*I *4859:D I *D sky130_fd_sc_hd__dfxtp_1
*I *4212:X O *D sky130_fd_sc_hd__o221a_1
*CAP
1 *4859:D 1.31802e-05
2 *4212:X 0.000369858
3 *102:10 0.000383038
4 *102:10 *4212:A2 0.00014196
5 *102:10 *778:71 0
6 *102:10 *929:12 0
*RES
1 *4212:X *102:10 43.7379 
2 *102:10 *4859:D 38.1916 
*END

*D_NET *103 0.000498698
*CONN
*I *4860:D I *D sky130_fd_sc_hd__dfxtp_1
*I *4214:X O *D sky130_fd_sc_hd__o221a_1
*CAP
1 *4860:D 1.31802e-05
2 *4214:X 0.000111297
3 *103:10 0.000124477
4 *103:10 *4214:A1 1.94693e-05
5 *103:10 *778:71 4.21594e-06
6 *103:10 *778:80 5.86165e-05
7 *103:10 *849:121 0.000167443
*RES
1 *4214:X *103:10 40.8793 
2 *103:10 *4860:D 38.1916 
*END

*D_NET *104 0.000535024
*CONN
*I *4861:D I *D sky130_fd_sc_hd__dfxtp_1
*I *4216:X O *D sky130_fd_sc_hd__o221a_1
*CAP
1 *4861:D 1.31802e-05
2 *4216:X 0.000193899
3 *104:10 0.000207079
4 *104:10 *4216:A1 3.3577e-05
5 *104:10 *778:91 4.6318e-06
6 *104:10 *778:110 8.26569e-05
*RES
1 *4216:X *104:10 41.3557 
2 *104:10 *4861:D 38.1916 
*END

*D_NET *105 0.00025322
*CONN
*I *4862:D I *D sky130_fd_sc_hd__dfxtp_1
*I *4218:X O *D sky130_fd_sc_hd__o221a_1
*CAP
1 *4862:D 9.82573e-05
2 *4218:X 9.82573e-05
3 *4862:D *778:110 5.67058e-05
*RES
1 *4218:X *4862:D 47.8902 
*END

*D_NET *106 0.000376042
*CONN
*I *4863:D I *D sky130_fd_sc_hd__dfxtp_1
*I *4220:X O *D sky130_fd_sc_hd__o221a_1
*CAP
1 *4863:D 6.41697e-05
2 *4220:X 6.56939e-05
3 *106:8 0.000129864
4 *106:8 *777:62 0.000116314
5 *106:8 *967:91 0
*RES
1 *4220:X *106:8 39.5536 
2 *106:8 *4863:D 38.9373 
*END

*D_NET *107 0.000695241
*CONN
*I *4864:D I *D sky130_fd_sc_hd__dfxtp_1
*I *4222:X O *D sky130_fd_sc_hd__o221a_1
*CAP
1 *4864:D 5.81553e-05
2 *4222:X 0.000226228
3 *107:8 0.000284384
4 *107:8 *4222:A2 0.000126473
5 *107:8 *888:8 0
*RES
1 *4222:X *107:8 43.075 
2 *107:8 *4864:D 38.9943 
*END

*D_NET *108 0.000321662
*CONN
*I *4865:D I *D sky130_fd_sc_hd__dfxtp_1
*I *4224:X O *D sky130_fd_sc_hd__o221a_1
*CAP
1 *4865:D 7.45909e-05
2 *4224:X 7.45909e-05
3 *4865:D *4224:A1 0.00017248
*RES
1 *4224:X *4865:D 47.8902 
*END

*D_NET *109 0.000321662
*CONN
*I *4866:D I *D sky130_fd_sc_hd__dfxtp_1
*I *4226:X O *D sky130_fd_sc_hd__o221a_1
*CAP
1 *4866:D 7.45909e-05
2 *4226:X 7.45909e-05
3 *4866:D *4226:A1 0.00017248
*RES
1 *4226:X *4866:D 47.8902 
*END

*D_NET *110 0.000905092
*CONN
*I *4867:D I *D sky130_fd_sc_hd__dfxtp_1
*I *4228:X O *D sky130_fd_sc_hd__o221a_1
*CAP
1 *4867:D 1.31802e-05
2 *4228:X 0.000368386
3 *110:10 0.000381566
4 *110:10 *4228:A2 0.00014196
5 *110:10 *4867:CLK 0
6 *110:10 *837:91 0
*RES
1 *4228:X *110:10 43.7379 
2 *110:10 *4867:D 38.1916 
*END

*D_NET *111 0.000357173
*CONN
*I *4868:D I *D sky130_fd_sc_hd__dfxtp_1
*I *4230:X O *D sky130_fd_sc_hd__o221a_1
*CAP
1 *4868:D 6.06366e-05
2 *4230:X 6.06366e-05
3 *4868:D *4230:A1 0.000147385
4 *4868:D *847:172 8.85152e-05
*RES
1 *4230:X *4868:D 48.5893 
*END

*D_NET *112 0.00145991
*CONN
*I *4869:D I *D sky130_fd_sc_hd__dfxtp_1
*I *4232:X O *D sky130_fd_sc_hd__o221a_1
*CAP
1 *4869:D 0
2 *4232:X 9.0203e-05
3 *112:6 9.0203e-05
4 *112:6 *181:87 0.000639751
5 *112:6 *967:62 0.000639751
*RES
1 *4232:X *112:6 29.8616 
2 *112:6 *4869:D 23 
*END

*D_NET *113 0.000413521
*CONN
*I *4870:D I *D sky130_fd_sc_hd__dfxtp_1
*I *4234:X O *D sky130_fd_sc_hd__o221a_1
*CAP
1 *4870:D 0.000123876
2 *4234:X 0.000123876
3 *4870:D *777:117 6.85658e-05
4 *4870:D *967:87 9.72041e-05
*RES
1 *4234:X *4870:D 48.5323 
*END

*D_NET *114 0.000687268
*CONN
*I *4871:D I *D sky130_fd_sc_hd__dfxtp_1
*I *4236:X O *D sky130_fd_sc_hd__o221a_1
*CAP
1 *4871:D 0.000124103
2 *4236:X 7.56005e-05
3 *114:8 0.000199703
4 *4871:D *779:82 0.000149534
5 *4871:D *779:158 8.55549e-05
6 *114:8 *779:80 5.27729e-05
*RES
1 *4236:X *114:8 39.5536 
2 *114:8 *4871:D 40.5737 
*END

*D_NET *115 0.000408541
*CONN
*I *4872:D I *D sky130_fd_sc_hd__dfxtp_1
*I *4238:X O *D sky130_fd_sc_hd__o221a_1
*CAP
1 *4872:D 5.4196e-05
2 *4238:X 9.76501e-05
3 *115:8 0.000151846
4 *4872:D *967:41 0.000104849
*RES
1 *4238:X *115:8 39.5536 
2 *115:8 *4872:D 39.1445 
*END

*D_NET *116 0.000414683
*CONN
*I *4873:D I *D sky130_fd_sc_hd__dfxtp_1
*I *4240:X O *D sky130_fd_sc_hd__o221a_1
*CAP
1 *4873:D 5.33781e-05
2 *4240:X 5.57175e-05
3 *116:8 0.000109096
4 *4873:D *4873:CLK 0.000102732
5 *116:8 *837:38 5.56203e-05
6 *116:8 *838:124 3.81391e-05
*RES
1 *4240:X *116:8 39.5536 
2 *116:8 *4873:D 39.1445 
*END

*D_NET *117 0.000548476
*CONN
*I *4874:D I *D sky130_fd_sc_hd__dfxtp_1
*I *4242:X O *D sky130_fd_sc_hd__o221a_1
*CAP
1 *4874:D 4.85691e-05
2 *4242:X 0.000199583
3 *117:10 0.000248152
4 *4874:D *779:92 3.11218e-05
5 *117:10 *4242:A1 2.10502e-05
*RES
1 *4242:X *117:10 40.8793 
2 *117:10 *4874:D 38.9943 
*END

*D_NET *118 0.000324858
*CONN
*I *4875:D I *D sky130_fd_sc_hd__dfxtp_1
*I *4244:X O *D sky130_fd_sc_hd__o221a_1
*CAP
1 *4875:D 5.18124e-05
2 *4244:X 6.28946e-05
3 *118:8 0.000114707
4 *118:8 *779:110 4.03343e-05
5 *118:8 *883:10 5.511e-05
*RES
1 *4244:X *118:8 39.5536 
2 *118:8 *4875:D 38.668 
*END

*D_NET *119 0.00075378
*CONN
*I *4876:D I *D sky130_fd_sc_hd__dfxtp_1
*I *4246:X O *D sky130_fd_sc_hd__o221a_1
*CAP
1 *4876:D 0.000202818
2 *4246:X 0.000113323
3 *119:8 0.000316141
4 *4876:D *222:14 6.88885e-05
5 *119:8 *5025:A 5.26101e-05
6 *119:8 *222:14 0
*RES
1 *4246:X *119:8 40.2579 
2 *119:8 *4876:D 42.003 
*END

*D_NET *120 0.000297773
*CONN
*I *4877:D I *D sky130_fd_sc_hd__dfxtp_1
*I *4248:X O *D sky130_fd_sc_hd__o221a_1
*CAP
1 *4877:D 1.13183e-05
2 *4248:X 0.000105161
3 *120:8 0.00011648
4 *4877:D *4876:CLK 1.64354e-05
5 *120:8 *199:10 0
6 *120:8 *776:71 4.83778e-05
*RES
1 *4248:X *120:8 40.2579 
2 *120:8 *4877:D 38.1916 
*END

*D_NET *121 0.000357404
*CONN
*I *4878:D I *D sky130_fd_sc_hd__dfxtp_4
*I *4251:X O *D sky130_fd_sc_hd__and2_1
*CAP
1 *4878:D 3.06765e-05
2 *4251:X 3.06765e-05
3 *4878:D *4840:CLK 5.79559e-05
4 *4878:D *774:44 0.000131713
5 *4878:D *841:69 0.000106382
*RES
1 *4251:X *4878:D 48.0507 
*END

*D_NET *122 0.000323987
*CONN
*I *4879:D I *D sky130_fd_sc_hd__dfxtp_1
*I *4253:X O *D sky130_fd_sc_hd__and2_1
*CAP
1 *4879:D 4.58166e-05
2 *4253:X 4.58166e-05
3 *4879:D *774:40 3.01878e-05
4 *4879:D *774:42 3.22879e-05
5 *4879:D *841:112 0.000169878
*RES
1 *4253:X *4879:D 47.8902 
*END

*D_NET *123 0.000463715
*CONN
*I *4880:D I *D sky130_fd_sc_hd__dfxtp_1
*I *4255:X O *D sky130_fd_sc_hd__and2_1
*CAP
1 *4880:D 0.000201268
2 *4255:X 0.000201268
3 *4880:D *4255:A 6.17437e-06
4 *4880:D *4880:CLK 5.50049e-05
*RES
1 *4255:X *4880:D 49.3195 
*END

*D_NET *124 0.000368534
*CONN
*I *4881:D I *D sky130_fd_sc_hd__dfxtp_2
*I *4257:X O *D sky130_fd_sc_hd__and2_1
*CAP
1 *4881:D 3.05476e-05
2 *4257:X 3.05476e-05
3 *4881:D *4257:B 0.0001363
4 *4881:D *873:6 0.000171138
*RES
1 *4257:X *4881:D 47.8902 
*END

*D_NET *125 0.000369781
*CONN
*I *4882:D I *D sky130_fd_sc_hd__dfxtp_1
*I *4259:X O *D sky130_fd_sc_hd__and2_1
*CAP
1 *4882:D 2.17705e-05
2 *4259:X 2.17705e-05
3 *4882:D *774:89 2.4754e-05
4 *4882:D *774:100 0.000129006
5 *4882:D *840:92 0.00017248
*RES
1 *4259:X *4882:D 47.8902 
*END

*D_NET *126 0.000423616
*CONN
*I *4883:D I *D sky130_fd_sc_hd__dfxtp_1
*I *4261:X O *D sky130_fd_sc_hd__and2_1
*CAP
1 *4883:D 3.93911e-05
2 *4261:X 0.0001279
3 *126:8 0.000167291
4 *4883:D *4883:CLK 8.90341e-05
5 *126:8 *224:42 0
6 *126:8 *774:18 0
*RES
1 *4261:X *126:8 40.2579 
2 *126:8 *4883:D 38.9943 
*END

*D_NET *127 0.000426081
*CONN
*I *4884:D I *D sky130_fd_sc_hd__dfxtp_1
*I *4263:X O *D sky130_fd_sc_hd__and2_1
*CAP
1 *4884:D 3.56914e-05
2 *4263:X 7.92496e-05
3 *127:8 0.000114941
4 *4884:D *975:31 8.54287e-05
5 *127:8 *975:25 8.36198e-05
6 *127:8 *977:12 2.71504e-05
*RES
1 *4263:X *127:8 39.5536 
2 *127:8 *4884:D 38.9373 
*END

*D_NET *128 0.000398144
*CONN
*I *4885:D I *D sky130_fd_sc_hd__dfxtp_2
*I *4265:X O *D sky130_fd_sc_hd__and2_1
*CAP
1 *4885:D 5.4196e-05
2 *4265:X 9.24516e-05
3 *128:8 0.000146648
4 *4885:D *774:113 0.000104849
*RES
1 *4265:X *128:8 39.5536 
2 *128:8 *4885:D 39.1445 
*END

*D_NET *129 0.000375428
*CONN
*I *4886:D I *D sky130_fd_sc_hd__dfxtp_1
*I *4269:X O *D sky130_fd_sc_hd__and3_1
*CAP
1 *4886:D 4.1059e-05
2 *4269:X 7.47013e-05
3 *129:8 0.00011576
4 *4886:D *1010:101 8.55313e-05
5 *129:8 *233:10 5.561e-05
6 *129:8 *1005:17 0
7 *129:8 *1010:101 2.76611e-06
*RES
1 *4269:X *129:8 39.5536 
2 *129:8 *4886:D 38.9373 
*END

*D_NET *130 0.000807323
*CONN
*I *4887:D I *D sky130_fd_sc_hd__dfxtp_1
*I *4278:X O *D sky130_fd_sc_hd__o211a_1
*CAP
1 *4887:D 0.000193956
2 *4278:X 6.41567e-05
3 *130:8 0.000258113
4 *4887:D *4887:CLK 0.000185123
5 *4887:D *844:33 3.46673e-05
6 *130:8 *4887:CLK 3.56537e-05
7 *130:8 *1010:52 3.56537e-05
*RES
1 *4278:X *130:8 39.5536 
2 *130:8 *4887:D 41.5266 
*END

*D_NET *131 0.000727503
*CONN
*I *4888:D I *D sky130_fd_sc_hd__dfxtp_1
*I *4293:X O *D sky130_fd_sc_hd__o211a_1
*CAP
1 *4888:D 0.00012235
2 *4293:X 6.90834e-05
3 *131:8 0.000191433
4 *4888:D *4888:CLK 0.000230553
5 *131:8 *164:10 0
6 *131:8 *839:49 0.000114083
*RES
1 *4293:X *131:8 39.5536 
2 *131:8 *4888:D 40.5737 
*END

*D_NET *132 0.000773771
*CONN
*I *4889:D I *D sky130_fd_sc_hd__dfxtp_1
*I *4313:X O *D sky130_fd_sc_hd__o211a_1
*CAP
1 *4889:D 3.98102e-05
2 *4313:X 0.000200788
3 *132:10 0.000240598
4 *4889:D *4994:A 9.04092e-05
5 *132:10 *4313:B1 2.45549e-06
6 *132:10 *775:59 0.000141879
7 *132:10 *775:70 3.92407e-05
8 *132:10 *843:16 1.85916e-05
*RES
1 *4313:X *132:10 41.3557 
2 *132:10 *4889:D 38.9943 
*END

*D_NET *133 0.000321662
*CONN
*I *4890:D I *D sky130_fd_sc_hd__dfxtp_1
*I *4338:X O *D sky130_fd_sc_hd__and2_1
*CAP
1 *4890:D 7.45909e-05
2 *4338:X 7.45909e-05
3 *4890:D *843:116 0.00017248
*RES
1 *4338:X *4890:D 47.8902 
*END

*D_NET *134 0.00102964
*CONN
*I *4891:D I *D sky130_fd_sc_hd__dfxtp_1
*I *4371:X O *D sky130_fd_sc_hd__o211a_1
*CAP
1 *4891:D 3.93911e-05
2 *4371:X 0.000350047
3 *134:10 0.000389438
4 *4891:D *776:32 8.90341e-05
5 *134:10 *4371:A2 5.25848e-05
6 *134:10 *844:52 8.4047e-05
7 *134:10 *1009:55 6.7177e-06
8 *134:10 *1010:131 1.83763e-05
*RES
1 *4371:X *134:10 43.2614 
2 *134:10 *4891:D 38.9943 
*END

*D_NET *135 0.000841677
*CONN
*I *4892:D I *D sky130_fd_sc_hd__dfxtp_1
*I *4411:X O *D sky130_fd_sc_hd__o211a_1
*CAP
1 *4892:D 0.000118336
2 *4411:X 9.19897e-05
3 *135:8 0.000210326
4 *4892:D *825:6 2.5622e-05
5 *4892:D *1002:44 0.000227208
6 *135:8 *1002:44 0.000168195
7 *135:8 *1002:54 0
*RES
1 *4411:X *135:8 40.2579 
2 *135:8 *4892:D 41.0502 
*END

*D_NET *136 0.000236609
*CONN
*I *4893:D I *D sky130_fd_sc_hd__dfxtp_1
*I *4456:X O *D sky130_fd_sc_hd__o211a_1
*CAP
1 *4893:D 1.26271e-05
2 *4456:X 9.746e-05
3 *136:8 0.000110087
4 *4893:D *779:29 1.64354e-05
5 *136:8 *845:18 0
*RES
1 *4456:X *136:8 39.5536 
2 *136:8 *4893:D 38.1916 
*END

*D_NET *137 0.000435467
*CONN
*I *4894:D I *D sky130_fd_sc_hd__dfxtp_1
*I *4503:X O *D sky130_fd_sc_hd__and2_1
*CAP
1 *4894:D 1.26909e-05
2 *4503:X 6.90435e-05
3 *137:8 8.17344e-05
4 *4894:D *832:44 8.15899e-06
5 *137:8 *4503:A 6.63698e-05
6 *137:8 *966:102 0.00019747
*RES
1 *4503:X *137:8 40.61 
2 *137:8 *4894:D 38.1916 
*END

*D_NET *138 0.00177911
*CONN
*I *4895:D I *D sky130_fd_sc_hd__dfxtp_1
*I *4545:X O *D sky130_fd_sc_hd__o211a_1
*CAP
1 *4895:D 0.000179645
2 *4545:X 0.000100433
3 *138:8 0.000280078
4 *4895:D *828:30 2.13733e-05
5 *4895:D *838:118 0.00074965
6 *4895:D *1012:49 0.000447931
7 *138:8 *4544:B1 0
8 *138:8 *498:10 0
9 *138:8 *1012:15 0
*RES
1 *4545:X *138:8 39.5536 
2 *138:8 *4895:D 46.2909 
*END

*D_NET *139 0.000310868
*CONN
*I *4896:D I *D sky130_fd_sc_hd__dfxtp_1
*I *4588:X O *D sky130_fd_sc_hd__o211a_1
*CAP
1 *4896:D 4.66648e-05
2 *4588:X 4.66648e-05
3 *4896:D *4588:B1 0.000171658
4 *4896:D *798:8 4.58804e-05
*RES
1 *4588:X *4896:D 47.8902 
*END

*D_NET *140 0.000450729
*CONN
*I *4897:D I *D sky130_fd_sc_hd__dfxtp_1
*I *4621:X O *D sky130_fd_sc_hd__o211a_1
*CAP
1 *4897:D 8.45249e-06
2 *4621:X 0.000134099
3 *140:10 0.000142552
4 *4897:D *574:25 1.64354e-05
5 *140:10 *671:14 3.63546e-05
6 *140:10 *778:193 1.69668e-05
7 *140:10 *849:39 4.08641e-05
8 *140:10 *913:8 5.50049e-05
*RES
1 *4621:X *140:10 40.5271 
2 *140:10 *4897:D 38.1916 
*END

*D_NET *141 0.000321662
*CONN
*I *4898:D I *D sky130_fd_sc_hd__dfxtp_1
*I *4656:X O *D sky130_fd_sc_hd__o211a_1
*CAP
1 *4898:D 7.45909e-05
2 *4656:X 7.45909e-05
3 *4898:D *800:14 0.00017248
*RES
1 *4656:X *4898:D 47.8902 
*END

*D_NET *142 0.000406075
*CONN
*I *4899:D I *D sky130_fd_sc_hd__dfxtp_1
*I *4685:X O *D sky130_fd_sc_hd__o211a_1
*CAP
1 *4899:D 3.31594e-05
2 *4685:X 3.31594e-05
3 *4899:D *4956:A 0.000169878
4 *4899:D *849:76 0.000169878
*RES
1 *4685:X *4899:D 47.8902 
*END

*D_NET *143 0.000474458
*CONN
*I *4900:D I *D sky130_fd_sc_hd__dfxtp_1
*I *4713:X O *D sky130_fd_sc_hd__o211a_1
*CAP
1 *4900:D 5.6777e-05
2 *4713:X 0.000101626
3 *143:8 0.000158403
4 *4900:D *802:24 0.000146207
5 *143:8 *181:60 0
6 *143:8 *778:29 0
7 *143:8 *849:102 1.14452e-05
*RES
1 *4713:X *143:8 39.5536 
2 *143:8 *4900:D 39.6209 
*END

*D_NET *144 0.000525757
*CONN
*I *4901:D I *D sky130_fd_sc_hd__dfxtp_1
*I *4725:X O *D sky130_fd_sc_hd__o221a_1
*CAP
1 *4901:D 4.21913e-05
2 *4725:X 4.21913e-05
3 *4901:D *798:55 0.000184548
4 *4901:D *846:41 0.000256827
*RES
1 *4725:X *4901:D 48.843 
*END

*D_NET *145 0.000878007
*CONN
*I *4902:D I *D sky130_fd_sc_hd__dfxtp_1
*I *4733:X O *D sky130_fd_sc_hd__o211a_1
*CAP
1 *4902:D 0
2 *4733:X 0.000345508
3 *145:10 0.000345508
4 *145:10 *4733:A1 4.9662e-05
5 *145:10 *4733:A2 1.5769e-05
6 *145:10 *4733:C1 1.60667e-05
7 *145:10 *777:95 5.24356e-05
8 *145:10 *804:8 3.54023e-05
9 *145:10 *804:22 1.76557e-05
*RES
1 *4733:X *145:10 28.8673 
2 *145:10 *4902:D 23 
*END

*D_NET *146 0.00105329
*CONN
*I *4903:D I *D sky130_fd_sc_hd__dfxtp_1
*I *4738:X O *D sky130_fd_sc_hd__o211a_1
*CAP
1 *4903:D 0.000203786
2 *4738:X 7.97676e-05
3 *146:8 0.000283554
4 *4903:D *780:18 0.000450528
5 *146:8 *833:19 3.56537e-05
*RES
1 *4738:X *146:8 39.5536 
2 *146:8 *4903:D 42.9559 
*END

*D_NET *147 0.000972062
*CONN
*I *4904:D I *D sky130_fd_sc_hd__dfxtp_1
*I *4745:X O *D sky130_fd_sc_hd__o211a_1
*CAP
1 *4904:D 0.000228165
2 *4745:X 9.43614e-05
3 *147:8 0.000322527
4 *4904:D *777:21 0.000129529
5 *147:8 *181:60 0.000197479
6 *147:8 *846:68 0
*RES
1 *4745:X *147:8 40.61 
2 *147:8 *4904:D 41.7959 
*END

*D_NET *148 0.000369781
*CONN
*I *4905:D I *D sky130_fd_sc_hd__dfxtp_1
*I *4750:X O *D sky130_fd_sc_hd__o211a_1
*CAP
1 *4905:D 2.17705e-05
2 *4750:X 2.17705e-05
3 *4905:D *777:70 0.000129006
4 *4905:D *777:76 2.4754e-05
5 *4905:D *833:95 0.00017248
*RES
1 *4750:X *4905:D 47.8902 
*END

*D_NET *149 0.000573489
*CONN
*I *4906:D I *D sky130_fd_sc_hd__dfxtp_2
*I *4760:X O *D sky130_fd_sc_hd__o211a_1
*CAP
1 *4906:D 0
2 *4760:X 0.000215402
3 *149:8 0.000215402
4 *149:8 *4760:A1 4.00259e-06
5 *149:8 *777:117 0.000132509
6 *149:8 *833:74 6.17437e-06
*RES
1 *4760:X *149:8 27.35 
2 *149:8 *4906:D 23 
*END

*D_NET *150 0.000358659
*CONN
*I *4907:D I *D sky130_fd_sc_hd__dfxtp_1
*I *4765:X O *D sky130_fd_sc_hd__o211a_1
*CAP
1 *4907:D 9.18613e-05
2 *4765:X 9.18613e-05
3 *4907:D *780:101 5.67058e-05
4 *4907:D *780:112 0.000118231
*RES
1 *4765:X *4907:D 48.5893 
*END

*D_NET *151 0.000316443
*CONN
*I *4908:D I *D sky130_fd_sc_hd__dfxtp_1
*I *4773:X O *D sky130_fd_sc_hd__o211a_1
*CAP
1 *4908:D 4.67498e-05
2 *4773:X 4.67498e-05
3 *4908:D *780:89 1.94693e-05
4 *4908:D *811:6 0.000169878
5 *4908:D *847:33 3.3596e-05
*RES
1 *4773:X *4908:D 47.8902 
*END

*D_NET *152 0.000468186
*CONN
*I *4909:D I *D sky130_fd_sc_hd__dfxtp_1
*I *4778:Y O *D sky130_fd_sc_hd__a211oi_1
*CAP
1 *4909:D 1.13828e-05
2 *4778:Y 0.000156617
3 *152:8 0.000168
4 *4909:D *4777:B 6.09588e-05
5 *4909:D *780:73 5.92579e-05
6 *152:8 *4778:A2 0
7 *152:8 *721:8 0
8 *152:8 *780:47 1.19692e-05
9 *152:8 *834:60 0
10 *152:8 *835:94 0
*RES
1 *4778:Y *152:8 40.61 
2 *152:8 *4909:D 38.668 
*END

*D_NET *153 0.0012444
*CONN
*I *4910:D I *D sky130_fd_sc_hd__dfxtp_2
*I *4786:X O *D sky130_fd_sc_hd__o211a_1
*CAP
1 *4910:D 1.01088e-05
2 *4786:X 0.00030432
3 *153:10 0.000314428
4 *4910:D *4910:CLK 1.64354e-05
5 *153:10 *4786:B1 9.63815e-05
6 *153:10 *780:12 0.000181934
7 *153:10 *780:18 1.01436e-05
8 *153:10 *813:12 0.000310647
*RES
1 *4786:X *153:10 44.09 
2 *153:10 *4910:D 38.1916 
*END

*D_NET *154 0.000500876
*CONN
*I *4911:D I *D sky130_fd_sc_hd__dfxtp_1
*I *4791:Y O *D sky130_fd_sc_hd__a211oi_1
*CAP
1 *4911:D 0.000103069
2 *4791:Y 7.5314e-05
3 *154:8 0.000178383
4 *154:8 *1002:22 0.00014411
*RES
1 *4791:Y *154:8 39.9057 
2 *154:8 *4911:D 39.6209 
*END

*D_NET *155 0.00060957
*CONN
*I *4912:D I *D sky130_fd_sc_hd__dfxtp_1
*I *4799:X O *D sky130_fd_sc_hd__o211a_1
*CAP
1 *4912:D 1.13183e-05
2 *4799:X 0.000115463
3 *155:10 0.000126781
4 *4912:D *832:134 1.64354e-05
5 *155:10 *816:47 0.000169674
6 *155:10 *832:134 0.000167443
7 *155:10 *845:88 2.45549e-06
*RES
1 *4799:X *155:10 40.8793 
2 *155:10 *4912:D 38.1916 
*END

*D_NET *156 0.000547016
*CONN
*I *4913:D I *D sky130_fd_sc_hd__dfxtp_1
*I *4804:Y O *D sky130_fd_sc_hd__a211oi_1
*CAP
1 *4913:D 3.99268e-05
2 *4804:Y 0.000107771
3 *156:8 0.000147698
4 *4913:D *779:25 5.73018e-05
5 *156:8 *832:61 0.000194318
*RES
1 *4804:Y *156:8 40.61 
2 *156:8 *4913:D 38.668 
*END

*D_NET *157 0.000280949
*CONN
*I *4914:D I *D sky130_fd_sc_hd__dfxtp_1
*I *4815:X O *D sky130_fd_sc_hd__o211a_1
*CAP
1 *4914:D 1.66233e-05
2 *4815:X 6.56939e-05
3 *157:8 8.23173e-05
4 *157:8 *818:36 0.000116314
5 *157:8 *845:12 0
*RES
1 *4815:X *157:8 39.5536 
2 *157:8 *4914:D 38.1916 
*END

*D_NET *158 0.00038889
*CONN
*I *4915:D I *D sky130_fd_sc_hd__dfxtp_1
*I *4820:Y O *D sky130_fd_sc_hd__a211oi_1
*CAP
1 *4915:D 9.26771e-06
2 *4820:Y 9.1594e-05
3 *158:8 0.000100862
4 *4915:D *4819:B 1.64354e-05
5 *4915:D *757:10 4.9054e-06
6 *158:8 *757:10 8.62783e-05
7 *158:8 *779:39 7.95478e-05
*RES
1 *4820:Y *158:8 40.2579 
2 *158:8 *4915:D 38.1916 
*END

*D_NET *159 0.00057222
*CONN
*I *4916:D I *D sky130_fd_sc_hd__dfxtp_1
*I *4831:Y O *D sky130_fd_sc_hd__a211oi_2
*CAP
1 *4916:D 1.13183e-05
2 *4831:Y 0.000142768
3 *159:10 0.000154086
4 *4916:D *4916:CLK 1.64354e-05
5 *159:10 *839:131 5.3304e-05
6 *159:10 *844:81 0.000194309
*RES
1 *4831:Y *159:10 41.2314 
2 *159:10 *4916:D 38.1916 
*END

*D_NET *160 0.000321662
*CONN
*I *4917:D I *D sky130_fd_sc_hd__dfxtp_1
*I *4836:Y O *D sky130_fd_sc_hd__a211oi_1
*CAP
1 *4917:D 7.45909e-05
2 *4836:Y 7.45909e-05
3 *4917:D *4832:A 0.00017248
*RES
1 *4836:Y *4917:D 47.8902 
*END

*D_NET *161 0.0113305
*CONN
*I *4418:B1 I *D sky130_fd_sc_hd__o2bb2a_1
*I *4460:B2 I *D sky130_fd_sc_hd__o2bb2a_1
*I *4506:B2 I *D sky130_fd_sc_hd__o2bb2a_1
*I *4548:B2 I *D sky130_fd_sc_hd__o2bb2a_1
*I *4592:B2 I *D sky130_fd_sc_hd__o2bb2a_1
*I *4631:B2 I *D sky130_fd_sc_hd__o2bb2a_1
*I *4662:B2 I *D sky130_fd_sc_hd__o2bb2a_1
*I *4145:Y O *D sky130_fd_sc_hd__inv_2
*CAP
1 *4418:B1 0
2 *4460:B2 0
3 *4506:B2 0
4 *4548:B2 4.26123e-05
5 *4592:B2 7.80525e-05
6 *4631:B2 5.13614e-05
7 *4662:B2 0.000130657
8 *4145:Y 0
9 *161:82 0.000708166
10 *161:65 0.00108133
11 *161:52 0.000999171
12 *161:41 0.00101706
13 *161:30 0.000592802
14 *161:19 0.000359941
15 *161:6 0.00027293
16 *4548:B2 *977:31 9.84794e-05
17 *4592:B2 *4592:A2_N 6.70361e-05
18 *4592:B2 *4592:B1 9.41704e-05
19 *4631:B2 *580:18 9.67842e-05
20 *4662:B2 *4662:A1_N 9.58714e-05
21 *4662:B2 *642:18 9.75779e-05
22 *4662:B2 *975:50 0.000192077
23 *4662:B2 *976:74 0.000118475
24 *4662:B2 *977:31 0
25 *4662:B2 *994:90 0.000110922
26 *161:19 *976:74 0.00014411
27 *161:19 *976:87 0.000241616
28 *161:19 *977:31 0
29 *161:19 *997:136 0.000114645
30 *161:30 *4592:B1 3.47781e-05
31 *161:30 *976:87 1.01436e-05
32 *161:30 *976:98 0.000419458
33 *161:30 *997:136 0.000188672
34 *161:41 *4592:B1 0.000206577
35 *161:41 *976:98 1.01436e-05
36 *161:41 *976:109 0.000181013
37 *161:41 *976:122 0.000451354
38 *161:41 *976:135 0.000206568
39 *161:41 *977:31 0
40 *161:41 *996:100 3.96156e-05
41 *161:41 *998:98 0.000432782
42 *161:52 *473:8 0
43 *161:52 *976:135 0.00102695
44 *161:52 *977:31 0
45 *161:52 *978:96 0
46 *161:52 *978:104 0
47 *161:52 *979:57 4.26957e-05
48 *161:52 *1003:10 0
49 *161:52 *1003:30 0
50 *161:65 *4461:A_N 5.67058e-05
51 *161:65 *979:57 0.000176658
52 *161:65 *1003:30 0
53 *161:65 *1006:14 2.18506e-05
54 *161:82 *4461:A_N 0.000310636
55 *161:82 *374:18 0.000103886
56 *161:82 *419:8 0.000114083
57 *161:82 *796:36 9.48381e-06
58 *161:82 *796:55 0.00040327
59 *161:82 *977:52 5.94125e-05
60 *161:82 *977:64 0
61 *161:82 *1003:30 1.78655e-05
62 *161:82 *1003:45 0
*RES
1 *4145:Y *161:6 38 
2 *161:6 *4662:B2 42.4121 
3 *161:6 *161:19 5.075 
4 *161:19 *4631:B2 39.0979 
5 *161:19 *161:30 5.77929 
6 *161:30 *4592:B2 39.5743 
7 *161:30 *161:41 11.4136 
8 *161:41 *4548:B2 39.0979 
9 *161:41 *161:52 14.935 
10 *161:52 *4506:B2 38 
11 *161:52 *161:65 23.2857 
12 *161:65 *4460:B2 23 
13 *161:65 *161:82 46.4886 
14 *161:82 *4418:B1 23 
*END

*D_NET *162 0.000301856
*CONN
*I *4151:A I *D sky130_fd_sc_hd__or2_1
*I *4146:Y O *D sky130_fd_sc_hd__inv_2
*CAP
1 *4151:A 7.69313e-05
2 *4146:Y 7.69313e-05
3 *4151:A *4153:A 4.95081e-05
4 *4151:A *4153:B 9.84851e-05
*RES
1 *4146:Y *4151:A 48.0507 
*END

*D_NET *163 0.01501
*CONN
*I *4951:A I *D sky130_fd_sc_hd__clkbuf_4
*I *4946:A I *D sky130_fd_sc_hd__buf_2
*I *4147:Y O *D sky130_fd_sc_hd__inv_2
*CAP
1 *4951:A 0
2 *4946:A 0
3 *4147:Y 0.000947402
4 *163:27 0.000317197
5 *163:19 0.00476059
6 *163:10 0.00103405
7 *163:6 0.00642485
8 *163:19 *820:36 0.000193729
9 *163:19 *820:44 0.000268011
10 *163:27 *4950:A 0.000102323
11 *163:27 *5010:A 0.000273509
12 *163:27 *5098:A 0.000160125
13 *163:27 *198:10 0
14 *163:27 *849:12 0.000528228
*RES
1 *4147:Y *163:6 38.8671 
2 *163:6 *163:10 35.2171 
3 *163:10 *4946:A 38 
4 *163:6 *163:19 75.8971 
5 *163:19 *163:27 38.8657 
6 *163:27 *4951:A 23 
*END

*D_NET *164 0.00750891
*CONN
*I *4149:D_N I *D sky130_fd_sc_hd__or4b_1
*I *4148:X O *D sky130_fd_sc_hd__and3_1
*CAP
1 *4149:D_N 1.50079e-05
2 *4148:X 3.83684e-05
3 *164:10 0.00311109
4 *164:8 0.00313445
5 *4149:D_N *4149:C 5.50049e-05
6 *4149:D_N *4154:D 5.50049e-05
7 *164:8 *831:18 5.67058e-05
8 *164:10 *4149:C 6.12496e-06
9 *164:10 *4172:A 0
10 *164:10 *5091:A 0
11 *164:10 *169:10 6.7177e-06
12 *164:10 *181:8 0.000384227
13 *164:10 *830:38 8.62783e-05
14 *164:10 *831:8 5.61414e-05
15 *164:10 *831:14 5.0135e-05
16 *164:10 *839:40 0
17 *164:10 *839:49 0
18 *164:10 *839:62 0
19 *164:10 *844:35 0
20 *164:10 *870:10 0
21 *164:10 *871:10 0
22 *164:10 *926:10 4.3407e-05
23 *164:10 *936:8 0
24 *164:10 *936:21 0
25 *164:10 *938:12 0.000107325
26 *164:10 *938:25 0
27 *164:10 *950:8 0
28 *164:10 *953:10 4.3407e-05
29 rdata[2] *164:10 0
30 rdata[3] *164:10 0
31 *91:8 *164:10 0.000171906
32 *92:10 *164:10 8.76088e-05
33 *131:8 *164:10 0
*RES
1 *4148:X *164:8 38.6214 
2 *164:8 *164:10 64.235 
3 *164:10 *4149:D_N 38.6214 
*END

*D_NET *165 0.00174965
*CONN
*I *4152:B I *D sky130_fd_sc_hd__nor3_1
*I *4149:X O *D sky130_fd_sc_hd__or4b_1
*CAP
1 *4152:B 0
2 *4149:X 0.000410111
3 *165:10 0.000410111
4 *165:10 *4154:D 0.000156135
5 *165:10 *4176:B 0.000385726
6 *165:10 *167:12 0.00019747
7 *165:10 *168:8 0.000190102
*RES
1 *4149:X *165:10 48.5436 
2 *165:10 *4152:B 38 
*END

*D_NET *166 0.00167716
*CONN
*I *4153:B I *D sky130_fd_sc_hd__or2_1
*I *4151:B I *D sky130_fd_sc_hd__or2_1
*I *4150:X O *D sky130_fd_sc_hd__or4_1
*CAP
1 *4153:B 4.66192e-05
2 *4151:B 0
3 *4150:X 0.000449471
4 *166:12 4.66192e-05
5 *166:10 0.000449471
6 *4153:B *4153:A 0.000230604
7 *4153:B *167:6 5.67058e-05
8 *166:10 *969:10 0.000299187
9 *4151:A *4153:B 9.84851e-05
10 *80:8 *166:10 0
*RES
1 *4150:X *166:10 46.8657 
2 *166:10 *166:12 15 
3 *166:12 *4151:B 23 
4 *166:12 *4153:B 25.5271 
*END

*D_NET *167 0.000874239
*CONN
*I *4152:C I *D sky130_fd_sc_hd__nor3_1
*I *4176:A I *D sky130_fd_sc_hd__nor2_2
*I *4151:X O *D sky130_fd_sc_hd__or2_1
*CAP
1 *4152:C 0
2 *4176:A 0
3 *4151:X 0.000143633
4 *167:12 6.95902e-05
5 *167:6 0.000213223
6 *167:6 *4153:A 4.95081e-05
7 *167:12 *168:8 0.00014411
8 *4153:B *167:6 5.67058e-05
9 *165:10 *167:12 0.00019747
*RES
1 *4151:X *167:6 26.0036 
2 *167:6 *167:12 32.61 
3 *167:12 *4176:A 23 
4 *167:6 *4152:C 23 
*END

*D_NET *168 0.00186777
*CONN
*I *4173:A I *D sky130_fd_sc_hd__nor2_4
*I *4154:D I *D sky130_fd_sc_hd__nor4_1
*I *4153:X O *D sky130_fd_sc_hd__or2_1
*CAP
1 *4173:A 0
2 *4154:D 0.000302968
3 *4153:X 0.000306351
4 *168:10 0.000302968
5 *168:8 0.000306351
6 *4154:D *4149:C 7.27182e-05
7 *4154:D *169:10 1.40958e-05
8 *168:8 *4172:A 0
9 *168:8 *4176:B 1.42006e-05
10 *168:8 *179:10 2.76611e-06
11 *168:8 *925:23 0
12 *4149:D_N *4154:D 5.50049e-05
13 *165:10 *4154:D 0.000156135
14 *165:10 *168:8 0.000190102
15 *167:12 *168:8 0.00014411
*RES
1 *4153:X *168:8 45.54 
2 *168:8 *168:10 15 
3 *168:10 *4154:D 29.5043 
4 *168:10 *4173:A 23 
*END

*D_NET *169 0.00531715
*CONN
*I *5068:A I *D sky130_fd_sc_hd__clkbuf_2
*I *4187:A2 I *D sky130_fd_sc_hd__a211o_1
*I *4154:Y O *D sky130_fd_sc_hd__nor4_1
*CAP
1 *5068:A 0.000109788
2 *4187:A2 7.66065e-05
3 *4154:Y 0.00014884
4 *169:26 0.00116399
5 *169:10 0.00112643
6 *4187:A2 *182:74 6.22448e-06
7 *4187:A2 *1001:10 0.000154843
8 *4187:A2 *1001:20 1.12863e-05
9 *4187:A2 *1010:18 9.88678e-05
10 *5068:A *784:25 0.000146197
11 *5068:A *843:38 0.000405617
12 *5068:A *1001:10 0.000140939
13 *169:10 *4149:C 0.000184527
14 *169:10 *4172:A 0.000111852
15 *169:10 *830:25 9.84794e-05
16 *169:10 *830:38 9.41578e-05
17 *169:26 *5096:A 4.34876e-05
18 *169:26 *182:74 1.09607e-05
19 *169:26 *839:62 0.000829
20 *169:26 *1010:18 0.000334241
21 *4154:D *169:10 1.40958e-05
22 *164:10 *169:10 6.7177e-06
*RES
1 *4154:Y *169:10 42.0807 
2 *169:10 *169:26 48.5186 
3 *169:26 *4187:A2 40.61 
4 *169:26 *5068:A 42.4329 
*END

*D_NET *170 0.0173194
*CONN
*I *4156:S I *D sky130_fd_sc_hd__mux2_1
*I *4158:S I *D sky130_fd_sc_hd__mux2_1
*I *4166:S I *D sky130_fd_sc_hd__mux2_1
*I *4170:S I *D sky130_fd_sc_hd__mux2_1
*I *4168:S I *D sky130_fd_sc_hd__mux2_1
*I *4164:S I *D sky130_fd_sc_hd__mux2_1
*I *4162:S I *D sky130_fd_sc_hd__mux2_1
*I *4160:S I *D sky130_fd_sc_hd__mux2_1
*I *4155:X O *D sky130_fd_sc_hd__and3_4
*CAP
1 *4156:S 0
2 *4158:S 0.000486715
3 *4166:S 9.33471e-05
4 *4170:S 0
5 *4168:S 0.000377223
6 *4164:S 4.47407e-05
7 *4162:S 0.000407199
8 *4160:S 6.07614e-05
9 *4155:X 2.01797e-05
10 *170:98 0.000852153
11 *170:59 0.00103942
12 *170:55 0.00142374
13 *170:40 0.00155
14 *170:27 0.00209468
15 *170:12 0.0012944
16 *170:6 0.000768838
17 *4158:S *4156:A1 3.85196e-05
18 *4158:S *4199:C1 0.000162216
19 *4158:S *182:10 9.90628e-05
20 *4158:S *224:8 0.000267386
21 *4158:S *852:25 0.000487153
22 *4160:S *4160:A0 7.53384e-06
23 *4160:S *1004:27 4.21281e-05
24 *4162:S *773:18 0
25 *4162:S *774:68 0
26 *4162:S *774:80 7.03663e-05
27 *4162:S *784:17 0
28 *4164:S *4260:S 1.32314e-05
29 *4164:S *998:19 2.4754e-05
30 *4166:S *978:20 0.000275809
31 *4166:S *996:6 0.000104714
32 *4166:S *996:19 0.00010018
33 *4166:S *997:12 5.3304e-05
34 *4168:S *4168:A1 0.000226306
35 *4168:S *4170:A0 5.72217e-05
36 *4168:S *4977:A 5.10686e-05
37 *4168:S *4979:A 2.4754e-05
38 *4168:S *917:25 3.91386e-05
39 *4168:S *992:25 2.25419e-05
40 *170:6 *842:17 9.84794e-05
41 *170:6 *974:32 9.84794e-05
42 *170:12 *773:14 0
43 *170:12 *841:43 0.000148687
44 *170:12 *841:53 0.000164291
45 *170:27 *4971:A 0
46 *170:27 *773:14 0
47 *170:27 *773:18 0
48 *170:27 *784:17 0
49 *170:27 *791:10 0.000348456
50 *170:27 *840:42 0
51 *170:27 *986:21 0
52 *170:27 *986:27 0.000170398
53 *170:27 *986:44 0
54 *170:27 *1004:27 0.000289461
55 *170:40 *4164:A1 3.3577e-05
56 *170:40 *175:8 0.000447976
57 *170:40 *840:42 2.64616e-05
58 *170:40 *895:10 6.69093e-05
59 *170:40 *998:6 3.40181e-05
60 *170:40 *998:19 2.07355e-05
61 *170:55 *4260:S 6.52495e-05
62 *170:55 *841:118 6.07929e-05
63 *170:55 *895:20 0.000212299
64 *170:55 *895:30 0.000265477
65 *170:55 *997:12 0.000136486
66 *170:59 *4168:A1 0
67 *170:59 *176:8 0.000141888
68 *170:59 *786:8 0
69 *170:59 *841:118 0.000423269
70 *170:59 *975:101 0
71 *170:59 *992:25 0
72 *170:59 *997:12 3.47781e-05
73 *170:98 *4156:A1 0.0001001
74 *170:98 *784:17 6.40214e-05
75 *170:98 *842:17 0.00060397
76 *170:98 *974:32 0.000582387
*RES
1 *4155:X *170:6 24.0979 
2 *170:6 *170:12 38.2443 
3 *170:12 *4160:S 24.0979 
4 *170:12 *170:27 33.6014 
5 *170:27 *4162:S 45.54 
6 *170:27 *170:40 27.5321 
7 *170:40 *4164:S 24.4707 
8 *170:40 *170:55 26.1029 
9 *170:55 *170:59 29.5829 
10 *170:59 *4168:S 31.2857 
11 *170:59 *4170:S 23 
12 *170:55 *4166:S 42.6193 
13 *170:6 *170:98 41.0821 
14 *170:98 *4158:S 34.6207 
15 *170:98 *4156:S 23 
*END

*D_NET *171 0.000750739
*CONN
*I *4157:B I *D sky130_fd_sc_hd__and2_1
*I *4156:X O *D sky130_fd_sc_hd__mux2_1
*CAP
1 *4157:B 7.28826e-05
2 *4156:X 0.00014802
3 *171:10 0.000220903
4 *4157:B *4838:CLK 0.000144501
5 *171:10 *4249:C 3.22051e-05
6 *171:10 *180:67 3.21668e-05
7 *171:10 *986:44 0
8 *4838:D *4157:B 0.000100061
*RES
1 *4156:X *171:10 40.5271 
2 *171:10 *4157:B 40.0507 
*END

*D_NET *172 0.000646034
*CONN
*I *4159:B I *D sky130_fd_sc_hd__and2_1
*I *4158:X O *D sky130_fd_sc_hd__mux2_1
*CAP
1 *4159:B 0
2 *4158:X 0.000205263
3 *172:10 0.000205263
4 *172:10 *180:78 0.000187129
5 *172:10 *866:25 0
6 *172:10 *990:74 4.83778e-05
*RES
1 *4158:X *172:10 41.9564 
2 *172:10 *4159:B 38 
*END

*D_NET *173 0.000479827
*CONN
*I *4161:B I *D sky130_fd_sc_hd__and2_1
*I *4160:X O *D sky130_fd_sc_hd__mux2_1
*CAP
1 *4161:B 0.000190674
2 *4160:X 0.000190674
3 *4161:B *4161:A 9.84794e-05
*RES
1 *4160:X *4161:B 49.8529 
*END

*D_NET *174 0.000852385
*CONN
*I *4163:B I *D sky130_fd_sc_hd__and2_1
*I *4162:X O *D sky130_fd_sc_hd__mux2_1
*CAP
1 *4163:B 0
2 *4162:X 0.000336097
3 *174:10 0.000336097
4 *174:10 *4257:A 0.000168744
5 *174:10 *773:18 0
6 *174:10 *840:14 1.14452e-05
*RES
1 *4162:X *174:10 43.2614 
2 *174:10 *4163:B 38 
*END

*D_NET *175 0.000871006
*CONN
*I *4165:B I *D sky130_fd_sc_hd__and2_1
*I *4164:X O *D sky130_fd_sc_hd__mux2_1
*CAP
1 *4165:B 0
2 *4164:X 0.000113888
3 *175:8 0.000113888
4 *175:8 *895:10 7.59964e-05
5 *175:8 *895:20 9.24795e-06
6 *175:8 *998:6 5.29672e-05
7 *175:8 *999:14 5.70419e-05
8 *170:40 *175:8 0.000447976
*RES
1 *4164:X *175:8 28.7586 
2 *175:8 *4165:B 23 
*END

*D_NET *176 0.00107875
*CONN
*I *4167:B I *D sky130_fd_sc_hd__and2_1
*I *4166:X O *D sky130_fd_sc_hd__mux2_1
*CAP
1 *4167:B 0.000217861
2 *4166:X 7.86745e-05
3 *176:8 0.000296535
4 *4167:B *4167:A 1.83444e-05
5 *4167:B *774:18 5.67058e-05
6 *4167:B *1000:31 0.000170058
7 *176:8 *786:8 0
8 *4843:D *4167:B 9.86805e-05
9 *170:59 *176:8 0.000141888
*RES
1 *4166:X *176:8 39.9057 
2 *176:8 *4167:B 43.5721 
*END

*D_NET *177 0.00040212
*CONN
*I *4169:B I *D sky130_fd_sc_hd__and2_1
*I *4168:X O *D sky130_fd_sc_hd__mux2_1
*CAP
1 *4169:B 1.80505e-05
2 *4168:X 7.39505e-05
3 *177:8 9.2001e-05
4 *4169:B *984:23 2.93747e-05
5 *4169:B *992:25 5.50049e-05
6 *177:8 *774:119 6.6869e-05
7 *177:8 *992:25 6.6869e-05
*RES
1 *4168:X *177:8 39.9057 
2 *177:8 *4169:B 38.6214 
*END

*D_NET *178 0.000484753
*CONN
*I *4171:B I *D sky130_fd_sc_hd__and2_1
*I *4170:X O *D sky130_fd_sc_hd__mux2_1
*CAP
1 *4171:B 0.000193137
2 *4170:X 0.000193137
3 *4171:B *4171:A 9.84794e-05
4 *4171:B *917:25 0
*RES
1 *4170:X *4171:B 49.8529 
*END

*D_NET *179 0.00211422
*CONN
*I *4176:B I *D sky130_fd_sc_hd__nor2_2
*I *4173:B I *D sky130_fd_sc_hd__nor2_4
*I *4172:X O *D sky130_fd_sc_hd__or3b_2
*CAP
1 *4176:B 0.00020585
2 *4173:B 0
3 *4172:X 0.000474288
4 *179:10 0.000680138
5 *4176:B *1010:18 0
6 *179:10 *4172:A 0
7 *179:10 *4172:C_N 9.75779e-05
8 *179:10 *5096:A 0.00012003
9 *179:10 *180:8 0.000133645
10 *179:10 *839:62 0
11 *179:10 *1010:18 0
12 *165:10 *4176:B 0.000385726
13 *168:8 *4176:B 1.42006e-05
14 *168:8 *179:10 2.76611e-06
*RES
1 *4172:X *179:10 46.4514 
2 *179:10 *4173:B 38 
3 *179:10 *4176:B 43.7793 
*END

*D_NET *180 0.0245309
*CONN
*I *4186:A2 I *D sky130_fd_sc_hd__a22o_1
*I *4189:B1 I *D sky130_fd_sc_hd__a22o_1
*I *4183:B1 I *D sky130_fd_sc_hd__a22o_1
*I *4180:B1 I *D sky130_fd_sc_hd__a22o_1
*I *4199:B1 I *D sky130_fd_sc_hd__a221o_1
*I *4195:B1 I *D sky130_fd_sc_hd__a22o_1
*I *4192:B1 I *D sky130_fd_sc_hd__a22o_1
*I *4249:C I *D sky130_fd_sc_hd__and3_4
*I *4178:A2 I *D sky130_fd_sc_hd__a211o_1
*I *4173:Y O *D sky130_fd_sc_hd__nor2_4
*CAP
1 *4186:A2 9.21367e-05
2 *4189:B1 0
3 *4183:B1 0
4 *4180:B1 0
5 *4199:B1 0.000147207
6 *4195:B1 0
7 *4192:B1 0
8 *4249:C 0.000146114
9 *4178:A2 0
10 *4173:Y 0.000580672
11 *180:133 0.000874025
12 *180:125 0.00115306
13 *180:96 0.000159869
14 *180:86 0.000337944
15 *180:82 0.00109956
16 *180:78 0.00189544
17 *180:67 0.00161099
18 *180:56 0.000160886
19 *180:48 0.000897633
20 *180:44 9.86163e-05
21 *180:42 0.000373801
22 *180:34 0.00126191
23 *180:22 0.00165682
24 *180:12 0.00103121
25 *180:8 0.000656265
26 *4186:A2 *4186:B2 0
27 *4186:A2 *4187:C1 5.77393e-06
28 *4186:A2 *182:68 2.54459e-06
29 *4186:A2 *972:85 0
30 *4186:A2 *1001:20 5.66688e-05
31 *4199:B1 *4199:C1 2.18409e-05
32 *4199:B1 *5107:A 6.17437e-06
33 *4199:B1 *975:113 1.28818e-05
34 *4249:C *182:10 0.000362472
35 *180:8 *182:68 9.26098e-05
36 *180:8 *775:22 0
37 *180:8 *775:26 0
38 *180:8 *839:62 0
39 *180:8 *843:38 0
40 *180:8 *955:8 0
41 *180:8 *1010:18 0
42 *180:12 *182:68 6.88885e-05
43 *180:12 *191:10 0.0002263
44 *180:22 *182:68 0
45 *180:22 *843:38 0.000192077
46 *180:22 *972:32 0.000277705
47 *180:22 *974:14 0
48 *180:22 *1010:18 0.000245242
49 *180:34 *4183:A1 1.57571e-05
50 *180:34 *4183:A2 0.000391828
51 *180:34 *4183:B2 2.02517e-05
52 *180:34 *841:10 8.29264e-05
53 *180:34 *974:14 2.46345e-05
54 *180:34 *974:24 0.00114537
55 *180:34 *986:44 0
56 *180:34 *986:48 5.56356e-05
57 *180:34 *986:57 0.000264269
58 *180:42 *4181:B1 4.67488e-05
59 *180:42 *182:39 5.62243e-05
60 *180:42 *784:17 7.5153e-05
61 *180:42 *972:68 4.3053e-05
62 *180:48 *4180:A2 9.65021e-05
63 *180:48 *866:43 0.000217938
64 *180:48 *987:20 5.47983e-06
65 *180:48 *1005:23 3.19833e-05
66 *180:56 *866:43 0.000142173
67 *180:56 *866:49 0.000141975
68 *180:56 *986:44 5.86165e-05
69 *180:67 *866:49 3.68205e-05
70 *180:67 *974:26 0.00019109
71 *180:67 *974:32 0.00081844
72 *180:67 *986:44 0
73 *180:78 *4158:A0 0.000185434
74 *180:78 *4199:C1 0.0012232
75 *180:78 *182:10 0.000317628
76 *180:78 *1005:6 8.6949e-05
77 *180:82 *797:8 0
78 *180:82 *859:16 0.00125881
79 *180:82 *979:10 0.000146967
80 *180:82 *987:41 0
81 *180:82 *997:69 0.000141869
82 *180:86 *4973:A 0.000139764
83 *180:96 *772:48 5.31444e-05
84 *180:96 *859:29 0.000114092
85 *180:96 *973:24 6.17437e-06
86 *180:96 *973:35 4.5051e-05
87 *180:125 *4187:C1 2.38868e-05
88 *180:125 *182:68 0.000102669
89 *180:125 *191:10 8.17328e-05
90 *180:125 *1001:20 0.00018531
91 *180:133 *192:8 3.46673e-05
92 *180:133 *973:18 9.84851e-05
93 *180:133 *974:14 0.000108662
94 *180:133 *999:88 2.30292e-05
95 *180:133 *1001:20 0
96 *180:133 *1010:18 0
97 *171:10 *4249:C 3.22051e-05
98 *171:10 *180:67 3.21668e-05
99 *172:10 *180:78 0.000187129
100 *179:10 *180:8 0.000133645
*RES
1 *4173:Y *180:8 49.7657 
2 *180:8 *180:12 17.5271 
3 *180:12 *180:22 47.11 
4 *180:22 *180:34 37.9721 
5 *180:34 *180:42 35.2614 
6 *180:42 *180:44 15 
7 *180:44 *180:48 3.02429 
8 *180:48 *180:56 34.3086 
9 *180:56 *4178:A2 23 
10 *180:48 *180:67 43.5264 
11 *180:67 *4249:C 26.9564 
12 *180:67 *180:78 21.1286 
13 *180:78 *180:82 37.6821 
14 *180:82 *180:86 18.0036 
15 *180:86 *180:96 33.1486 
16 *180:96 *4192:B1 23 
17 *180:86 *4195:B1 23 
18 *180:78 *4199:B1 25.0507 
19 *180:44 *4180:B1 23 
20 *180:22 *4183:B1 23 
21 *180:12 *180:125 4.43286 
22 *180:125 *180:133 44.5414 
23 *180:133 *4189:B1 23 
24 *180:125 *4186:A2 25.0921 
*END

*D_NET *181 0.0485931
*CONN
*I *4941:A I *D sky130_fd_sc_hd__clkbuf_4
*I *4230:A2 I *D sky130_fd_sc_hd__o221a_1
*I *4232:A2 I *D sky130_fd_sc_hd__o221a_1
*I *4234:A2 I *D sky130_fd_sc_hd__o221a_1
*I *4942:A I *D sky130_fd_sc_hd__clkbuf_4
*I *1013:DIODE I *D sky130_fd_sc_hd__diode_2
*I *4174:X O *D sky130_fd_sc_hd__and2b_4
*CAP
1 *4941:A 0
2 *4230:A2 0.000234518
3 *4232:A2 0
4 *4234:A2 0
5 *4942:A 3.66911e-05
6 *1013:DIODE 0
7 *4174:X 0.000405097
8 *181:119 0.000797754
9 *181:87 0.00163816
10 *181:77 0.00255657
11 *181:71 0.00175944
12 *181:60 0.00324879
13 *181:58 0.00264227
14 *181:56 0.00171646
15 *181:52 0.00371914
16 *181:50 0.00450529
17 *181:46 0.00188147
18 *181:40 0.00232756
19 *181:38 0.00392631
20 *181:23 0.00194685
21 *181:12 0.000344139
22 *181:8 0.000614436
23 *4230:A2 *4229:B 2.93845e-05
24 *4230:A2 *4230:B2 0.000362881
25 *4230:A2 *811:58 0.000436652
26 *4230:A2 *847:147 4.61439e-05
27 *4230:A2 *847:172 6.38926e-05
28 *4230:A2 *967:149 0.000890821
29 *181:8 *844:35 0
30 *181:38 *4178:B1 0.000380132
31 *181:38 *4268:A 2.30292e-05
32 *181:38 *4268:B 8.06804e-06
33 *181:38 *4886:CLK 9.91895e-05
34 *181:38 *185:10 0.000267803
35 *181:38 *797:32 2.25927e-05
36 *181:38 *1007:42 9.58714e-05
37 *181:38 *1010:101 0.0001073
38 *181:40 *4431:A1 2.64616e-05
39 *181:40 *385:10 0.000355817
40 *181:40 *391:6 0.000212956
41 *181:40 *857:29 0.000141173
42 *181:40 *982:12 1.41077e-05
43 *181:46 *441:8 0.000197479
44 *181:46 *984:59 0
45 *181:46 *1008:14 0
46 *181:50 *4414:B 5.3304e-05
47 *181:50 *4414:D 2.32004e-05
48 *181:50 *4419:B 0.000141954
49 *181:50 *379:8 0.000403599
50 *181:50 *392:6 0.00108537
51 *181:50 *979:89 0.000183733
52 *181:50 *1006:45 1.41077e-05
53 *181:52 *4577:A 0.000123934
54 *181:52 *4577:B 0.000301679
55 *181:52 *534:10 0.000228001
56 *181:52 *799:38 0.000273746
57 *181:56 *799:38 0.000304969
58 *181:56 *971:117 0.000236202
59 *181:60 *4901:CLK 0
60 *181:60 *183:69 0
61 *181:60 *183:81 0
62 *181:60 *216:10 0.000138727
63 *181:60 *692:10 0
64 *181:60 *693:10 0
65 *181:60 *777:10 0
66 *181:60 *777:125 0
67 *181:60 *778:8 0
68 *181:60 *798:55 0.000222183
69 *181:60 *803:34 0
70 *181:60 *805:81 0
71 *181:60 *809:81 9.98891e-05
72 *181:60 *846:68 0
73 *181:60 *847:62 0
74 *181:60 *847:70 0
75 *181:60 *849:102 0
76 *181:60 *966:115 7.91596e-05
77 *181:60 *970:52 0.000178388
78 *181:60 *971:70 0.000158666
79 *181:60 *1011:133 0
80 *181:71 *183:69 0
81 *181:71 *777:125 0
82 *181:71 *811:58 3.47781e-05
83 *181:71 *847:33 0
84 *181:71 *847:35 0
85 *181:71 *847:39 0
86 *181:71 *967:68 0.00109292
87 *181:77 *811:58 0.000381207
88 *181:77 *847:33 0
89 *181:77 *847:147 2.4754e-05
90 *181:77 *967:64 0.000431664
91 *181:87 *4232:B1 5.55743e-06
92 *181:87 *4232:B2 2.95423e-05
93 *181:87 *847:187 1.24376e-05
94 *181:87 *967:62 0.00173195
95 *181:119 *4211:A 0.000235062
96 *181:119 *205:6 0.000143259
97 *181:119 *778:141 1.86022e-05
98 *181:119 *838:8 8.76309e-05
99 *181:119 *838:22 0.000741704
100 *181:119 *849:55 0
101 *181:119 *849:102 0
102 *181:119 *900:10 0
103 *181:119 *971:89 0
104 *181:119 *971:91 0
105 *181:119 *971:117 6.7063e-05
106 *112:6 *181:87 0.000639751
107 *143:8 *181:60 0
108 *147:8 *181:60 0.000197479
109 *164:10 *181:8 0.000384227
*RES
1 *4174:X *181:8 48.005 
2 *181:8 *181:12 17.5271 
3 *181:12 *1013:DIODE 23 
4 *181:12 *181:23 2.21643 
5 *181:23 *4942:A 23.8493 
6 *181:23 *181:38 26.0586 
7 *181:38 *181:40 36.3536 
8 *181:40 *181:46 33.6664 
9 *181:46 *181:50 38.9946 
10 *181:50 *181:52 50.17 
11 *181:52 *181:56 14.2204 
12 *181:56 *181:58 15 
13 *181:58 *181:60 52.6143 
14 *181:60 *4234:A2 38 
15 *181:60 *181:71 29.935 
16 *181:71 *181:77 37.3714 
17 *181:77 *181:87 42.9643 
18 *181:87 *4232:A2 23 
19 *181:71 *4230:A2 34.6 
20 *181:56 *181:119 48.4979 
21 *181:119 *4941:A 23 
*END

*D_NET *182 0.0255213
*CONN
*I *4199:C1 I *D sky130_fd_sc_hd__a221o_1
*I *4181:C1 I *D sky130_fd_sc_hd__a211o_1
*I *4187:B1 I *D sky130_fd_sc_hd__a211o_1
*I *4196:C1 I *D sky130_fd_sc_hd__a211o_1
*I *4190:C1 I *D sky130_fd_sc_hd__a211o_1
*I *4193:C1 I *D sky130_fd_sc_hd__a211o_1
*I *4184:C1 I *D sky130_fd_sc_hd__a211o_1
*I *4178:B1 I *D sky130_fd_sc_hd__a211o_1
*I *4175:Y O *D sky130_fd_sc_hd__nand2b_4
*CAP
1 *4199:C1 0.000536427
2 *4181:C1 0
3 *4187:B1 0
4 *4196:C1 6.08932e-05
5 *4190:C1 0.000167406
6 *4193:C1 0
7 *4184:C1 0
8 *4178:B1 0.000186465
9 *4175:Y 0.000360787
10 *182:91 0.000730292
11 *182:80 0.00198766
12 *182:74 0.00170708
13 *182:68 0.00136272
14 *182:53 0.00145457
15 *182:49 0.000845647
16 *182:39 0.0010616
17 *182:14 0.000989157
18 *182:10 0.00117069
19 *4178:B1 *4177:A1 3.15313e-05
20 *4178:B1 *4177:A2 6.19585e-05
21 *4178:B1 *4178:C1 2.30151e-05
22 *4178:B1 *797:32 2.64616e-05
23 *4190:C1 *183:18 9.84794e-05
24 *4190:C1 *823:29 0.000706221
25 *4190:C1 *972:99 3.17516e-05
26 *4190:C1 *972:116 4.75206e-05
27 *4190:C1 *1010:131 0.000804543
28 *4196:C1 *972:116 0.000125416
29 *4196:C1 *1010:131 0.00030342
30 *4199:C1 *852:25 0.000487153
31 *182:10 *4156:A1 4.68412e-05
32 *182:10 *4249:A 0.000143655
33 *182:10 *4249:B 4.6595e-05
34 *182:10 *224:8 0.000197216
35 *182:14 *784:17 0.000788086
36 *182:14 *1004:35 0.00077016
37 *182:14 *1007:42 4.6318e-06
38 *182:39 *4181:B1 0.000270659
39 *182:39 *4268:B 0.000110922
40 *182:39 *234:25 0.000299187
41 *182:39 *784:17 3.78201e-05
42 *182:39 *972:68 0.000314139
43 *182:39 *1004:35 6.49555e-06
44 *182:39 *1004:43 6.17437e-06
45 *182:39 *1007:42 0.0001058
46 *182:39 *1007:55 9.85378e-05
47 *182:39 *1007:74 0.000262178
48 *182:49 *808:8 8.48502e-06
49 *182:49 *808:21 4.67488e-05
50 *182:49 *844:33 0.000166072
51 *182:49 *907:10 0.000100733
52 *182:49 *986:44 0.000641581
53 *182:53 *4184:A2 1.09783e-05
54 *182:53 *972:32 0
55 *182:53 *972:51 0
56 *182:53 *1010:52 0.000653287
57 *182:68 *4187:C1 1.62885e-05
58 *182:68 *775:26 0
59 *182:68 *819:23 0
60 *182:68 *843:38 0
61 *182:68 *972:32 0
62 *182:68 *1010:52 0.00058718
63 *182:74 *1001:10 7.50825e-05
64 *182:74 *1001:20 5.58975e-06
65 *182:80 *4304:A 3.17634e-05
66 *182:80 *4305:A1 9.75779e-05
67 *182:80 *194:12 0.000379431
68 *182:80 *268:8 0
69 *182:80 *268:23 0
70 *182:80 *269:10 5.67058e-05
71 *182:80 *272:27 0.000123934
72 *182:80 *843:38 0.000451285
73 *182:91 *4332:A 0
74 *182:91 *196:10 0
75 *182:91 *268:23 0
76 *182:91 *295:26 0
77 *182:91 *823:40 0
78 *182:91 *972:107 0.00028398
79 *4158:S *4199:C1 0.000162216
80 *4158:S *182:10 9.90628e-05
81 *4186:A2 *182:68 2.54459e-06
82 *4187:A2 *182:74 6.22448e-06
83 *4199:B1 *4199:C1 2.18409e-05
84 *4249:C *182:10 0.000362472
85 *169:26 *182:74 1.09607e-05
86 *180:8 *182:68 9.26098e-05
87 *180:12 *182:68 6.88885e-05
88 *180:22 *182:68 0
89 *180:42 *182:39 5.62243e-05
90 *180:78 *4199:C1 0.0012232
91 *180:78 *182:10 0.000317628
92 *180:125 *182:68 0.000102669
93 *181:38 *4178:B1 0.000380132
*RES
1 *4175:Y *182:10 34.2686 
2 *182:10 *182:14 25.7093 
3 *182:14 *4178:B1 43.5721 
4 *182:14 *182:39 29.065 
5 *182:39 *182:49 42.6979 
6 *182:49 *182:53 23.5964 
7 *182:53 *4184:C1 38 
8 *182:53 *182:68 38.2829 
9 *182:68 *182:74 33.3143 
10 *182:74 *182:80 42.6121 
11 *182:80 *4193:C1 38 
12 *182:80 *182:91 26.4136 
13 *182:91 *4190:C1 33.15 
14 *182:91 *4196:C1 26.48 
15 *182:68 *4187:B1 23 
16 *182:39 *4181:C1 23 
17 *182:10 *4199:C1 41.4357 
*END

*D_NET *183 0.037292
*CONN
*I *4961:A I *D sky130_fd_sc_hd__clkbuf_4
*I *4231:B I *D sky130_fd_sc_hd__and2_1
*I *4233:B I *D sky130_fd_sc_hd__and2_1
*I *4223:B I *D sky130_fd_sc_hd__and2_1
*I *4960:A I *D sky130_fd_sc_hd__buf_2
*I *4176:Y O *D sky130_fd_sc_hd__nor2_2
*CAP
1 *4961:A 0
2 *4231:B 0
3 *4233:B 0
4 *4223:B 0
5 *4960:A 9.20459e-05
6 *4176:Y 0.000475871
7 *183:103 0.0010524
8 *183:81 0.000843942
9 *183:69 0.00111148
10 *183:63 0.000954029
11 *183:53 0.00247259
12 *183:49 0.00250885
13 *183:28 0.00640257
14 *183:18 0.00505923
15 *183:10 0.000999724
16 *4960:A *845:18 1.34542e-05
17 *4960:A *849:12 3.65352e-05
18 *4960:A *970:19 2.98663e-05
19 *183:10 *843:16 2.71902e-05
20 *183:10 *1010:18 0.000112419
21 *183:10 *1010:114 8.50457e-05
22 *183:18 *193:10 7.09095e-05
23 *183:18 *823:29 6.9805e-05
24 *183:18 *836:8 5.50049e-05
25 *183:18 *972:10 1.22822e-05
26 *183:18 *972:16 0.00035673
27 *183:18 *1010:114 7.36043e-05
28 *183:18 *1010:131 0.000772257
29 *183:28 *192:12 1.28427e-05
30 *183:28 *299:8 0
31 *183:28 *836:29 0
32 *183:28 *836:46 0
33 *183:28 *844:64 0.00165787
34 *183:28 *1002:30 0.00012354
35 *183:28 *1002:54 0.00125752
36 *183:28 *1009:63 0.000128728
37 *183:28 *1010:131 0.000103645
38 *183:28 *1010:142 0.000257326
39 *183:49 *4801:A2 0.000612552
40 *183:49 *735:23 6.83551e-05
41 *183:49 *754:10 5.50106e-05
42 *183:49 *835:54 0.000234865
43 *183:49 *836:46 0.000142871
44 *183:49 *849:12 8.01672e-05
45 *183:49 *961:35 0.000679732
46 *183:49 *970:19 3.19083e-05
47 *183:49 *970:100 9.64022e-05
48 *183:53 *4795:A2 9.58714e-05
49 *183:53 *4795:B1 5.3304e-05
50 *183:53 *4932:A 7.44257e-05
51 *183:53 *835:54 0.000117614
52 *183:53 *835:77 1.41129e-05
53 *183:53 *962:34 0.000428639
54 *183:63 *4751:A 6.07929e-05
55 *183:63 *4759:A1 0.000359332
56 *183:63 *4759:A2 5.50049e-05
57 *183:63 *5043:A 5.41385e-05
58 *183:63 *671:39 0.000342253
59 *183:63 *704:25 0.000140259
60 *183:63 *724:10 0
61 *183:63 *809:20 0.00032352
62 *183:63 *837:87 0.00132518
63 *183:63 *847:49 7.93453e-05
64 *183:63 *847:60 6.88885e-05
65 *183:63 *963:12 0.000135494
66 *183:63 *963:23 0.000992106
67 *183:69 *216:10 4.48671e-05
68 *183:69 *847:39 0
69 *183:69 *847:60 0.000164291
70 *183:69 *847:62 0.000249909
71 *183:81 *216:10 1.73399e-05
72 *183:81 *809:81 0.000141954
73 *183:81 *846:8 5.119e-05
74 *183:81 *970:52 0.000361507
75 *183:103 *4231:A 0.000436152
76 *183:103 *4751:A 0.000208548
77 *183:103 *4778:A2 3.80069e-05
78 *183:103 *4780:A1 0.000182055
79 *183:103 *4780:A4 0.000275473
80 *183:103 *810:44 0.000487434
81 *183:103 *812:19 0.000281862
82 *183:103 *834:60 0.000107173
83 *183:103 *1002:12 0.000194327
84 *4190:C1 *183:18 9.84794e-05
85 *181:60 *183:69 0
86 *181:60 *183:81 0
87 *181:71 *183:69 0
*RES
1 *4176:Y *183:10 46.4721 
2 *183:10 *183:18 29.9557 
3 *183:18 *183:28 44.4375 
4 *183:28 *4960:A 39.7296 
5 *183:28 *183:49 48.5986 
6 *183:49 *183:53 28.7232 
7 *183:53 *183:63 44.725 
8 *183:63 *183:69 36.4836 
9 *183:69 *183:81 46.6129 
10 *183:81 *4223:B 23 
11 *183:69 *4233:B 23 
12 *183:53 *183:103 42.8607 
13 *183:103 *4231:B 23 
14 *183:18 *4961:A 23 
*END

*D_NET *184 0.000214638
*CONN
*I *4178:C1 I *D sky130_fd_sc_hd__a211o_1
*I *4177:X O *D sky130_fd_sc_hd__a22o_1
*CAP
1 *4178:C1 9.381e-05
2 *4177:X 9.381e-05
3 *4178:C1 *4177:A1 0
4 *4178:C1 *4177:A2 4.00259e-06
5 *4178:B1 *4178:C1 2.30151e-05
*RES
1 *4177:X *4178:C1 47.4707 
*END

*D_NET *185 0.00126257
*CONN
*I *4179:B1 I *D sky130_fd_sc_hd__o211a_1
*I *4178:X O *D sky130_fd_sc_hd__a211o_1
*CAP
1 *4179:B1 0
2 *4178:X 0.000385242
3 *185:10 0.000385242
4 *185:10 *4179:A2 0.000107031
5 *185:10 *841:37 0.000113033
6 *185:10 *841:39 4.21594e-06
7 *181:38 *185:10 0.000267803
*RES
1 *4178:X *185:10 45.7264 
2 *185:10 *4179:B1 38 
*END

*D_NET *186 0.00111637
*CONN
*I *4181:B1 I *D sky130_fd_sc_hd__a211o_1
*I *4180:X O *D sky130_fd_sc_hd__a22o_1
*CAP
1 *4181:B1 0.000190208
2 *4180:X 5.62067e-05
3 *186:8 0.000246415
4 *4181:B1 *972:68 2.86932e-05
5 *186:8 *972:68 0.000138718
6 *186:8 *974:24 0.000138718
7 *180:42 *4181:B1 4.67488e-05
8 *182:39 *4181:B1 0.000270659
*RES
1 *4180:X *186:8 39.9057 
2 *186:8 *4181:B1 41.9771 
*END

*D_NET *187 0.000304587
*CONN
*I *4182:B1 I *D sky130_fd_sc_hd__o211a_1
*I *4181:X O *D sky130_fd_sc_hd__a211o_1
*CAP
1 *4182:B1 0.000105219
2 *4181:X 0.000105219
3 *4182:B1 *839:40 3.91386e-05
4 *4182:B1 *841:37 5.50106e-05
5 *4182:B1 *972:68 0
*RES
1 *4181:X *4182:B1 48.0714 
*END

*D_NET *188 0.000279849
*CONN
*I *4184:B1 I *D sky130_fd_sc_hd__a211o_1
*I *4183:X O *D sky130_fd_sc_hd__a22o_1
*CAP
1 *4184:B1 0.000104963
2 *4183:X 0.000104963
3 *4184:B1 *4183:A2 0
4 *4184:B1 *4184:A1 2.02517e-05
5 *4184:B1 *4184:A2 4.96717e-05
*RES
1 *4183:X *4184:B1 48.0921 
*END

*D_NET *189 0.000327181
*CONN
*I *4185:B1 I *D sky130_fd_sc_hd__o211a_1
*I *4184:X O *D sky130_fd_sc_hd__a211o_1
*CAP
1 *4185:B1 0.000135237
2 *4184:X 0.000135237
3 *4185:B1 *4184:A2 0
4 *4185:B1 *4185:C1 5.67058e-05
*RES
1 *4184:X *4185:B1 48.5479 
*END

*D_NET *190 0.000179314
*CONN
*I *4187:C1 I *D sky130_fd_sc_hd__a211o_1
*I *4186:X O *D sky130_fd_sc_hd__a22o_1
*CAP
1 *4187:C1 5.98206e-05
2 *4186:X 5.98206e-05
3 *4187:C1 *4186:A1 1.37232e-05
4 *4187:C1 *4186:B2 0
5 *4186:A2 *4187:C1 5.77393e-06
6 *180:125 *4187:C1 2.38868e-05
7 *182:68 *4187:C1 1.62885e-05
*RES
1 *4186:X *4187:C1 47.6468 
*END

*D_NET *191 0.00179905
*CONN
*I *4188:B1 I *D sky130_fd_sc_hd__o211a_1
*I *4187:X O *D sky130_fd_sc_hd__a211o_1
*CAP
1 *4188:B1 3.80995e-05
2 *4187:X 0.000594365
3 *191:10 0.000632464
4 *191:10 *4849:CLK 2.30292e-05
5 *191:10 *775:26 7.80251e-05
6 *191:10 *839:49 6.07611e-06
7 *191:10 *839:62 8.76088e-05
8 *191:10 *843:50 1.01436e-05
9 *4849:D *191:10 2.12084e-05
10 *180:12 *191:10 0.0002263
11 *180:125 *191:10 8.17328e-05
*RES
1 *4187:X *191:10 47.5493 
2 *191:10 *4188:B1 38.6214 
*END

*D_NET *192 0.00299572
*CONN
*I *4190:B1 I *D sky130_fd_sc_hd__a211o_1
*I *4189:X O *D sky130_fd_sc_hd__a22o_1
*CAP
1 *4190:B1 0
2 *4189:X 0.000115537
3 *192:12 0.00117648
4 *192:8 0.00129201
5 *192:8 *999:88 1.32314e-05
6 *192:12 *4311:B 0
7 *192:12 *4336:B 0
8 *192:12 *271:19 2.72055e-05
9 *192:12 *272:14 8.57382e-05
10 *192:12 *272:27 0
11 *192:12 *273:8 0.000126155
12 *192:12 *274:10 0
13 *192:12 *298:10 0
14 *192:12 *299:8 0
15 *192:12 *775:116 0
16 *192:12 *844:18 0
17 *192:12 *909:8 0
18 *192:12 *973:10 0.000111852
19 *180:133 *192:8 3.46673e-05
20 *183:28 *192:12 1.28427e-05
*RES
1 *4189:X *192:8 39.5743 
2 *192:8 *192:12 36.6257 
3 *192:12 *4190:B1 23 
*END

*D_NET *193 0.00139736
*CONN
*I *4191:B1 I *D sky130_fd_sc_hd__o211a_1
*I *4190:X O *D sky130_fd_sc_hd__a211o_1
*CAP
1 *4191:B1 0
2 *4190:X 0.000483828
3 *193:10 0.000483828
4 *193:10 *775:70 0
5 *193:10 *829:10 8.29264e-05
6 *193:10 *836:8 5.50049e-05
7 *193:10 *839:81 6.30049e-05
8 *193:10 *972:16 0.0001042
9 *193:10 *1009:16 5.58975e-06
10 *193:10 *1009:42 4.80733e-05
11 *183:18 *193:10 7.09095e-05
*RES
1 *4190:X *193:10 45.6436 
2 *193:10 *4191:B1 38 
*END

*D_NET *194 0.00578726
*CONN
*I *4193:B1 I *D sky130_fd_sc_hd__a211o_1
*I *4192:X O *D sky130_fd_sc_hd__a22o_1
*CAP
1 *4193:B1 0
2 *4192:X 0.000106884
3 *194:12 0.00132345
4 *194:8 0.00143033
5 *194:8 *4192:B2 2.93845e-05
6 *194:8 *973:24 3.34129e-05
7 *194:12 *4303:A2 0
8 *194:12 *249:29 5.23561e-05
9 *194:12 *267:10 0.000138718
10 *194:12 *269:10 8.51329e-05
11 *194:12 *285:8 0.000378483
12 *194:12 *772:46 0
13 *194:12 *772:48 0
14 *194:12 *859:29 0
15 *194:12 *972:107 6.07611e-06
16 *194:12 *973:24 0.00154813
17 *194:12 *984:107 0.000275473
18 *194:12 *1007:136 0
19 *182:80 *194:12 0.000379431
*RES
1 *4192:X *194:8 39.5743 
2 *194:8 *194:12 47.8943 
3 *194:12 *4193:B1 23 
*END

*D_NET *195 0.00255078
*CONN
*I *4194:B1 I *D sky130_fd_sc_hd__o211a_1
*I *4193:X O *D sky130_fd_sc_hd__a211o_1
*CAP
1 *4194:B1 0
2 *4193:X 0.00107889
3 *195:12 0.00107889
4 *195:12 *4194:A2 3.85196e-05
5 *195:12 *4194:C1 5.50106e-05
6 *195:12 *4311:B 2.93845e-05
7 *195:12 *275:10 0.000171898
8 *195:12 *839:81 9.82009e-05
*RES
1 *4193:X *195:12 39.8821 
2 *195:12 *4194:B1 23 
*END

*D_NET *196 0.00712244
*CONN
*I *4196:B1 I *D sky130_fd_sc_hd__a211o_1
*I *4195:X O *D sky130_fd_sc_hd__a22o_1
*CAP
1 *4196:B1 3.00574e-05
2 *4195:X 5.64276e-05
3 *196:10 0.00177843
4 *196:8 0.0018048
5 *4196:B1 *972:116 1.59094e-05
6 *4196:B1 *1010:131 5.3304e-05
7 *196:8 *4973:A 3.7122e-06
8 *196:10 *4303:A1 7.48331e-05
9 *196:10 *4332:A 0.000168754
10 *196:10 *4333:A1 0.000216051
11 *196:10 *4346:C 2.60152e-05
12 *196:10 *261:8 7.03766e-05
13 *196:10 *264:29 0.000216721
14 *196:10 *266:10 5.97612e-05
15 *196:10 *266:23 3.71611e-05
16 *196:10 *268:23 5.86432e-05
17 *196:10 *290:8 0.00019747
18 *196:10 *292:8 6.11286e-05
19 *196:10 *293:10 0.000221193
20 *196:10 *294:25 2.60152e-05
21 *196:10 *772:48 0.000450955
22 *196:10 *823:40 0.000427499
23 *196:10 *825:12 1.01436e-05
24 *196:10 *865:10 0
25 *196:10 *984:99 0.000138727
26 *196:10 *988:102 0.000349386
27 *196:10 *997:87 9.74132e-05
28 *196:10 *997:104 9.17704e-05
29 *196:10 *999:73 2.46933e-05
30 *196:10 *999:88 0.000355096
31 *182:91 *196:10 0
*RES
1 *4195:X *196:8 38.6214 
2 *196:8 *196:10 46.98 
3 *196:10 *4196:B1 38.6214 
*END

*D_NET *197 0.00101005
*CONN
*I *4197:B1 I *D sky130_fd_sc_hd__o211a_1
*I *4196:X O *D sky130_fd_sc_hd__a211o_1
*CAP
1 *4197:B1 0
2 *4196:X 0.000230836
3 *197:10 0.000230836
4 *197:10 *4196:A2 1.01436e-05
5 *197:10 *199:10 0
6 *197:10 *839:93 0.000190581
7 *197:10 *972:131 0.000340942
8 *197:10 *1010:131 6.71408e-06
*RES
1 *4196:X *197:10 43.3443 
2 *197:10 *4197:B1 38 
*END

*D_NET *198 0.00537469
*CONN
*I *4200:B1 I *D sky130_fd_sc_hd__o221a_1
*I *4198:X O *D sky130_fd_sc_hd__and2_1
*CAP
1 *4200:B1 0
2 *4198:X 0
3 *198:10 0.00105826
4 *198:6 0.00105826
5 *198:10 *4200:C1 1.13812e-05
6 *198:10 *4241:A 0.000105594
7 *198:10 *756:8 0.00022058
8 *198:10 *817:12 0.000195345
9 *198:10 *845:12 0.000857789
10 *198:10 *845:18 0.0016451
11 *198:10 *849:12 0
12 *198:10 *970:19 3.71111e-05
13 *198:10 *970:100 0.000185277
14 *163:27 *198:10 0
*RES
1 *4198:X *198:6 38 
2 *198:6 *198:10 48.2464 
3 *198:10 *4200:B1 23 
*END

*D_NET *199 0.0144524
*CONN
*I *4958:A I *D sky130_fd_sc_hd__clkbuf_4
*I *4199:X O *D sky130_fd_sc_hd__a221o_1
*CAP
1 *4958:A 0
2 *4199:X 0.000384902
3 *199:10 0.00502439
4 *199:8 0.0054093
5 *199:8 *5107:A 0.000181131
6 *199:8 *995:56 5.3304e-05
7 *199:10 *4196:A2 0
8 *199:10 *4303:A1 0
9 *199:10 *4319:B1 2.96051e-05
10 *199:10 *4333:A1 0
11 *199:10 *4386:C 0
12 *199:10 *4387:A2 0
13 *199:10 *4387:B1 0
14 *199:10 *4431:C1 9.53499e-05
15 *199:10 *223:10 0.000140958
16 *199:10 *279:20 0
17 *199:10 *282:8 0.000374002
18 *199:10 *282:25 0.000107101
19 *199:10 *284:8 0.000183898
20 *199:10 *286:8 0
21 *199:10 *288:8 0
22 *199:10 *292:8 0
23 *199:10 *293:10 0
24 *199:10 *294:25 0
25 *199:10 *295:10 0
26 *199:10 *346:8 8.76088e-05
27 *199:10 *387:10 0
28 *199:10 *389:10 0
29 *199:10 *776:8 0.000165593
30 *199:10 *776:17 0.0012252
31 *199:10 *776:56 0.000360427
32 *199:10 *776:71 0
33 *199:10 *782:29 0
34 *199:10 *824:26 0.000185755
35 *199:10 *839:93 0
36 *199:10 *839:110 0
37 *199:10 *843:129 0
38 *199:10 *857:29 0
39 *199:10 *858:10 0
40 *199:10 *859:42 0
41 *199:10 *865:10 0
42 *199:10 *956:21 0
43 *199:10 *968:8 0.000118736
44 *199:10 *984:99 0
45 *199:10 *999:29 0
46 *199:10 *999:42 0
47 *199:10 *999:59 0
48 *199:10 *999:65 0
49 *199:10 *999:88 0
50 *199:10 *999:99 0.000175143
51 *199:10 *1001:46 9.74132e-05
52 *95:8 *199:10 5.26101e-05
53 *120:8 *199:10 0
54 *197:10 *199:10 0
*RES
1 *4199:X *199:8 44.815 
2 *199:8 *199:10 98.745 
3 *199:10 *4958:A 38 
*END

*D_NET *200 0.006648
*CONN
*I *4202:B2 I *D sky130_fd_sc_hd__o221a_1
*I *4201:X O *D sky130_fd_sc_hd__and2_1
*CAP
1 *4202:B2 8.43714e-05
2 *4201:X 6.07173e-05
3 *200:10 0.00182809
4 *200:8 0.00180444
5 *4202:B2 *4872:CLK 5.14826e-05
6 *4202:B2 *944:18 5.3304e-05
7 *200:8 *772:86 3.7122e-06
8 *200:8 *845:43 2.65879e-05
9 *200:10 *4805:C 0.000105563
10 *200:10 *218:8 0.000174749
11 *200:10 *733:10 7.45997e-05
12 *200:10 *735:8 5.24537e-05
13 *200:10 *739:10 0
14 *200:10 *772:86 0.00044143
15 *200:10 *815:54 0.000177925
16 *200:10 *832:121 0
17 *200:10 *837:64 1.98991e-05
18 *200:10 *845:103 0
19 *200:10 *845:120 0.000132638
20 *200:10 *853:10 0.000563759
21 *200:10 *911:8 7.03869e-05
22 *200:10 *944:18 0.000134767
23 *200:10 *966:102 0
24 *200:10 *967:22 1.16455e-05
25 *200:10 *968:97 0.00076062
26 *200:10 *968:136 1.48681e-05
*RES
1 *4201:X *200:8 39.0979 
2 *200:8 *200:10 44.1629 
3 *200:10 *4202:B2 39.595 
*END

*D_NET *201 0.00485828
*CONN
*I *4204:B2 I *D sky130_fd_sc_hd__o221a_1
*I *4203:X O *D sky130_fd_sc_hd__and2_1
*CAP
1 *4204:B2 0
2 *4203:X 0
3 *201:8 0.00102425
4 *201:4 0.00102425
5 *201:8 *4204:C1 0.000145611
6 *201:8 *4726:B 1.94812e-05
7 *201:8 *4730:A 3.53115e-05
8 *201:8 *4730:B 5.41385e-05
9 *201:8 *4732:A1 7.80819e-05
10 *201:8 *4732:B1_N 5.50049e-05
11 *201:8 *681:6 5.70419e-05
12 *201:8 *838:103 3.91386e-05
13 *201:8 *838:118 0.000419838
14 *201:8 *846:62 0.000301679
15 *201:8 *1012:49 0.00160446
*RES
1 *4203:X *201:4 23 
2 *201:4 *201:8 30.6571 
3 *201:8 *4204:B2 23 
*END

*D_NET *202 0.000480301
*CONN
*I *4206:B2 I *D sky130_fd_sc_hd__o221a_1
*I *4205:X O *D sky130_fd_sc_hd__and2_1
*CAP
1 *4206:B2 0.00024015
2 *4205:X 0.00024015
*RES
1 *4205:X *4206:B2 49.9564 
*END

*D_NET *203 0.00116458
*CONN
*I *4208:B2 I *D sky130_fd_sc_hd__o221a_1
*I *4207:X O *D sky130_fd_sc_hd__and2_1
*CAP
1 *4208:B2 0
2 *4207:X 0.000429761
3 *203:10 0.000429761
4 *203:10 *849:55 2.76611e-06
5 *203:10 *849:102 4.3407e-05
6 *203:10 *900:10 3.884e-05
7 *203:10 *971:117 0.000220047
*RES
1 *4207:X *203:10 44.3386 
2 *203:10 *4208:B2 38 
*END

*D_NET *204 0.000403265
*CONN
*I *4210:B2 I *D sky130_fd_sc_hd__o221a_1
*I *4209:X O *D sky130_fd_sc_hd__and2_1
*CAP
1 *4210:B2 7.14221e-05
2 *4209:X 7.14221e-05
3 *4210:B2 *4209:B 0.000146195
4 *4210:B2 *4210:B1 5.73309e-05
5 *4210:B2 *4210:C1 5.68958e-05
*RES
1 *4209:X *4210:B2 48.5271 
*END

*D_NET *205 0.00178771
*CONN
*I *4212:B2 I *D sky130_fd_sc_hd__o221a_1
*I *4211:X O *D sky130_fd_sc_hd__and2_1
*CAP
1 *4212:B2 0
2 *4211:X 0.000323282
3 *205:6 0.000323282
4 *205:6 *4212:A2 0.000443679
5 *205:6 *4212:B1 0.000179871
6 *205:6 *838:8 9.13336e-05
7 *205:6 *838:42 0.0002263
8 *205:6 *849:121 5.67058e-05
9 *181:119 *205:6 0.000143259
*RES
1 *4211:X *205:6 33.6264 
2 *205:6 *4212:B2 23 
*END

*D_NET *206 0.000562271
*CONN
*I *4214:B2 I *D sky130_fd_sc_hd__o221a_1
*I *4213:X O *D sky130_fd_sc_hd__and2_1
*CAP
1 *4214:B2 0
2 *4213:X 0.000177426
3 *206:10 0.000177426
4 *206:10 *4214:C1 1.14154e-05
5 *206:10 *849:102 0.000118664
6 *206:10 *849:121 7.73389e-05
*RES
1 *4213:X *206:10 27.5986 
2 *206:10 *4214:B2 23 
*END

*D_NET *207 0.000420029
*CONN
*I *4216:B2 I *D sky130_fd_sc_hd__o221a_1
*I *4215:X O *D sky130_fd_sc_hd__and2_1
*CAP
1 *4216:B2 0.000120773
2 *4215:X 0.000120773
3 *4216:B2 *4216:B1 3.22879e-05
4 *4216:B2 *846:41 0.000146195
*RES
1 *4215:X *4216:B2 49.0036 
*END

*D_NET *208 0.00106044
*CONN
*I *4218:B2 I *D sky130_fd_sc_hd__o221a_1
*I *4217:X O *D sky130_fd_sc_hd__and2_1
*CAP
1 *4218:B2 0
2 *4217:X 0.00040921
3 *208:6 0.00040921
4 *208:6 *4218:C1 9.84851e-05
5 *208:6 *971:81 0.000143535
*RES
1 *4217:X *208:6 30.2914 
2 *208:6 *4218:B2 23 
*END

*D_NET *209 0.000517852
*CONN
*I *4220:B2 I *D sky130_fd_sc_hd__o221a_1
*I *4219:X O *D sky130_fd_sc_hd__and2_1
*CAP
1 *4220:B2 0.000167987
2 *4219:X 0.000167987
3 *4220:B2 *4220:B1 5.79559e-05
4 *4220:B2 *4220:C1 4.50289e-05
5 *4220:B2 *970:52 7.88926e-05
*RES
1 *4219:X *4220:B2 49.48 
*END

*D_NET *210 0.000769305
*CONN
*I *4222:B2 I *D sky130_fd_sc_hd__o221a_1
*I *4221:X O *D sky130_fd_sc_hd__and2_1
*CAP
1 *4222:B2 0
2 *4221:X 0.00027057
3 *210:10 0.00027057
4 *210:10 *4222:A2 7.03766e-05
5 *210:10 *4222:B1 0.000141879
6 *210:10 *960:27 1.59094e-05
*RES
1 *4221:X *210:10 42.4329 
2 *210:10 *4222:B2 38 
*END

*D_NET *211 0.00118423
*CONN
*I *4224:B2 I *D sky130_fd_sc_hd__o221a_1
*I *4223:X O *D sky130_fd_sc_hd__and2_1
*CAP
1 *4224:B2 0
2 *4223:X 0.000409144
3 *211:8 0.000409144
4 *211:8 *4224:C1 9.84851e-05
5 *211:8 *4865:CLK 0.000267457
*RES
1 *4223:X *211:8 31.265 
2 *211:8 *4224:B2 23 
*END

*D_NET *212 0.000794077
*CONN
*I *4226:B2 I *D sky130_fd_sc_hd__o221a_1
*I *4225:X O *D sky130_fd_sc_hd__and2_1
*CAP
1 *4226:B2 0
2 *4225:X 0.000252042
3 *212:8 0.000252042
4 *212:8 *4226:B1 5.67058e-05
5 *212:8 *4226:C1 9.84851e-05
6 *212:8 *777:125 0.000134802
*RES
1 *4225:X *212:8 27.93 
2 *212:8 *4226:B2 23 
*END

*D_NET *213 0.00154224
*CONN
*I *4228:B2 I *D sky130_fd_sc_hd__o221a_1
*I *4227:X O *D sky130_fd_sc_hd__and2_1
*CAP
1 *4228:B2 0
2 *4227:X 0.000725239
3 *213:10 0.000725239
4 *213:10 *847:172 4.5882e-05
5 *213:10 *876:8 4.5882e-05
*RES
1 *4227:X *213:10 48.15 
2 *213:10 *4228:B2 38 
*END

*D_NET *214 0.000822726
*CONN
*I *4230:B2 I *D sky130_fd_sc_hd__o221a_1
*I *4229:X O *D sky130_fd_sc_hd__and2_1
*CAP
1 *4230:B2 5.64366e-05
2 *4229:X 5.64366e-05
3 *4230:B2 *847:147 0.00023506
4 *4230:B2 *847:172 0.000111911
5 *4230:A2 *4230:B2 0.000362881
*RES
1 *4229:X *4230:B2 49.9564 
*END

*D_NET *215 0.000930884
*CONN
*I *4232:B2 I *D sky130_fd_sc_hd__o221a_1
*I *4231:X O *D sky130_fd_sc_hd__and2_1
*CAP
1 *4232:B2 2.92076e-05
2 *4231:X 0.000251024
3 *215:8 0.000280231
4 *4232:B2 *847:187 1.47709e-05
5 *4232:B2 *967:62 0.000100477
6 *215:8 *847:187 8.57485e-05
7 *215:8 *881:10 0.000139882
8 *215:8 *1002:12 0
9 *181:87 *4232:B2 2.95423e-05
*RES
1 *4231:X *215:8 43.075 
2 *215:8 *4232:B2 39.0979 
*END

*D_NET *216 0.000415856
*CONN
*I *4234:B2 I *D sky130_fd_sc_hd__o221a_1
*I *4233:X O *D sky130_fd_sc_hd__and2_1
*CAP
1 *4234:B2 0
2 *4233:X 0.000107461
3 *216:10 0.000107461
4 *181:60 *216:10 0.000138727
5 *183:69 *216:10 4.48671e-05
6 *183:81 *216:10 1.73399e-05
*RES
1 *4233:X *216:10 40.5271 
2 *216:10 *4234:B2 38 
*END

*D_NET *217 0.000778691
*CONN
*I *4236:B2 I *D sky130_fd_sc_hd__o221a_1
*I *4235:X O *D sky130_fd_sc_hd__and2_1
*CAP
1 *4236:B2 0
2 *4235:X 0.00018208
3 *217:8 0.00018208
4 *217:8 *779:65 0
5 *217:8 *779:80 0
6 *217:8 *837:51 6.12484e-05
7 *217:8 *966:102 0.000353282
*RES
1 *4235:X *217:8 42.7229 
2 *217:8 *4236:B2 38 
*END

*D_NET *218 0.00137267
*CONN
*I *4238:B2 I *D sky130_fd_sc_hd__o221a_1
*I *4237:X O *D sky130_fd_sc_hd__and2_1
*CAP
1 *4238:B2 7.73929e-05
2 *4237:X 0.000126521
3 *218:8 0.000203914
4 *4238:B2 *4949:A 7.50355e-05
5 *4238:B2 *837:73 0.000174899
6 *4238:B2 *848:44 0.000186038
7 *218:8 *968:136 0.000354121
8 *200:10 *218:8 0.000174749
*RES
1 *4237:X *218:8 42.7229 
2 *218:8 *4238:B2 41.48 
*END

*D_NET *219 0.000981994
*CONN
*I *4240:B2 I *D sky130_fd_sc_hd__o221a_1
*I *4239:X O *D sky130_fd_sc_hd__and2_1
*CAP
1 *4240:B2 0
2 *4239:X 0.000305081
3 *219:10 0.000305081
4 *219:10 *753:8 4.39278e-05
5 *219:10 *838:124 0
6 *219:10 *970:114 0.000327903
*RES
1 *4239:X *219:10 44.2971 
2 *219:10 *4240:B2 38 
*END

*D_NET *220 0.0020094
*CONN
*I *4242:B2 I *D sky130_fd_sc_hd__o221a_1
*I *4241:X O *D sky130_fd_sc_hd__and2_1
*CAP
1 *4242:B2 0
2 *4241:X 0.000432569
3 *220:10 0.000432569
4 *220:10 *4242:B1 0.00022052
5 *220:10 *837:10 0.000274798
6 *220:10 *838:124 0.000141558
7 *220:10 *968:80 0.000406901
8 *220:10 *970:108 0.000100488
*RES
1 *4241:X *220:10 49.02 
2 *220:10 *4242:B2 38 
*END

*D_NET *221 0.00137624
*CONN
*I *4244:B2 I *D sky130_fd_sc_hd__o221a_1
*I *4243:X O *D sky130_fd_sc_hd__and2_1
*CAP
1 *4244:B2 0
2 *4243:X 0.000349936
3 *221:10 0.000349936
4 *221:10 *4916:CLK 0.000221084
5 *221:10 *820:10 5.50106e-05
6 *221:10 *839:131 0.000400277
7 *221:10 *844:81 0
*RES
1 *4243:X *221:10 45.9543 
2 *221:10 *4244:B2 38 
*END

*D_NET *222 0.00108523
*CONN
*I *4246:B2 I *D sky130_fd_sc_hd__o221a_1
*I *4245:X O *D sky130_fd_sc_hd__and2_1
*CAP
1 *4246:B2 0
2 *4245:X 0.000505534
3 *222:14 0.000505534
4 *222:14 *5025:A 0
5 *222:14 *951:8 5.27215e-06
6 *4876:D *222:14 6.88885e-05
7 *119:8 *222:14 0
*RES
1 *4245:X *222:14 45.105 
2 *222:14 *4246:B2 38 
*END

*D_NET *223 0.000505062
*CONN
*I *4248:B2 I *D sky130_fd_sc_hd__o221a_1
*I *4247:X O *D sky130_fd_sc_hd__and2_1
*CAP
1 *4248:B2 0
2 *4247:X 0.000127396
3 *223:10 0.000127396
4 *223:10 *843:129 3.14377e-05
5 *223:10 *968:8 2.08324e-05
6 *223:10 *972:131 5.70419e-05
7 *199:10 *223:10 0.000140958
*RES
1 *4247:X *223:10 41.0036 
2 *223:10 *4248:B2 38 
*END

*D_NET *224 0.0181488
*CONN
*I *4252:S I *D sky130_fd_sc_hd__mux2_1
*I *4260:S I *D sky130_fd_sc_hd__mux2_1
*I *4258:S I *D sky130_fd_sc_hd__mux2_1
*I *4256:S I *D sky130_fd_sc_hd__mux2_1
*I *4262:S I *D sky130_fd_sc_hd__mux2_1
*I *4264:S I *D sky130_fd_sc_hd__mux2_1
*I *4250:S I *D sky130_fd_sc_hd__mux2_1
*I *4254:S I *D sky130_fd_sc_hd__mux2_1
*I *4249:X O *D sky130_fd_sc_hd__and3_4
*CAP
1 *4252:S 4.65329e-05
2 *4260:S 0.000298121
3 *4258:S 1.92156e-05
4 *4256:S 0.000581358
5 *4262:S 9.66314e-05
6 *4264:S 0
7 *4250:S 8.70494e-05
8 *4254:S 0
9 *4249:X 0.000537245
10 *224:62 0.000145601
11 *224:56 0.00119967
12 *224:46 0.00199496
13 *224:44 0.00102593
14 *224:42 0.00152902
15 *224:34 0.00080946
16 *224:23 0.000169638
17 *224:16 0.000656013
18 *224:10 0.00100704
19 *224:8 0.000888277
20 *4250:S *866:16 2.46906e-05
21 *4250:S *986:27 0.000225274
22 *4250:S *1004:27 0.000139067
23 *4250:S *1004:135 4.17736e-05
24 *4252:S *986:27 0.000129522
25 *4252:S *1004:135 0.000110425
26 *4258:S *4258:A1 6.17437e-06
27 *4258:S *792:23 5.50106e-05
28 *4258:S *981:21 1.5769e-05
29 *4260:S *895:20 0.000395889
30 *4260:S *895:30 3.46255e-05
31 *4260:S *998:19 0.000611453
32 *4262:S *774:113 0.00026679
33 *4262:S *796:10 2.93845e-05
34 *224:8 *4156:A1 5.56356e-05
35 *224:10 *4252:A1 0
36 *224:10 *774:64 6.61686e-06
37 *224:10 *841:77 0.00032025
38 *224:10 *1004:35 0.000796649
39 *224:16 *4254:A0 2.18506e-05
40 *224:16 *4971:A 0.000538963
41 *224:16 *774:64 0.000201454
42 *224:16 *985:19 0.000111848
43 *224:34 *986:27 0.000562566
44 *224:34 *1004:135 0.000575004
45 *224:42 *230:10 0
46 *224:42 *985:19 0
47 *224:42 *999:14 0
48 *224:44 *4164:A1 0.000230966
49 *224:44 *4258:A1 3.47879e-05
50 *224:44 *774:100 0
51 *224:44 *793:12 0
52 *224:44 *895:20 0
53 *224:44 *981:10 0.000293785
54 *224:46 *774:100 0
55 *224:46 *774:104 0
56 *224:56 *774:104 0
57 *224:56 *774:113 0.000397938
58 *224:56 *796:10 2.64616e-05
59 *224:62 *4168:A1 0
60 *224:62 *917:10 1.13812e-05
61 *224:62 *917:25 0.000241988
62 *4158:S *224:8 0.000267386
63 *4164:S *4260:S 1.32314e-05
64 *126:8 *224:42 0
65 *170:55 *4260:S 6.52495e-05
66 *182:10 *224:8 0.000197216
*RES
1 *4249:X *224:8 45.7679 
2 *224:8 *224:10 11.0614 
3 *224:10 *224:16 29.1479 
4 *224:16 *4254:S 23 
5 *224:10 *224:23 15 
6 *224:23 *4250:S 26.0243 
7 *224:23 *224:34 6.33857 
8 *224:34 *224:42 26.4757 
9 *224:42 *224:44 11.7657 
10 *224:44 *224:46 8.24429 
11 *224:46 *224:56 31.2193 
12 *224:56 *224:62 33.3143 
13 *224:62 *4264:S 23 
14 *224:56 *4262:S 26.0036 
15 *224:46 *4256:S 48.15 
16 *224:44 *4258:S 38.6214 
17 *224:42 *4260:S 46.8864 
18 *224:34 *4252:S 25.0714 
*END

*D_NET *225 0.000657889
*CONN
*I *4251:B I *D sky130_fd_sc_hd__and2_1
*I *4250:X O *D sky130_fd_sc_hd__mux2_1
*CAP
1 *4251:B 0
2 *4250:X 0.000220861
3 *225:10 0.000220861
4 *225:10 *986:44 6.93449e-05
5 *225:10 *1004:27 0.000146822
*RES
1 *4250:X *225:10 41.48 
2 *225:10 *4251:B 38 
*END

*D_NET *226 0.000385519
*CONN
*I *4253:B I *D sky130_fd_sc_hd__and2_1
*I *4252:X O *D sky130_fd_sc_hd__mux2_1
*CAP
1 *4253:B 1.80505e-05
2 *4252:X 0.000132519
3 *226:8 0.00015057
4 *4253:B *774:42 5.50049e-05
5 *4253:B *841:112 2.93747e-05
6 *226:8 *4252:A1 0
7 *226:8 *866:16 0
*RES
1 *4252:X *226:8 39.9057 
2 *226:8 *4253:B 38.6214 
*END

*D_NET *227 0.000284058
*CONN
*I *4255:B I *D sky130_fd_sc_hd__and2_1
*I *4254:X O *D sky130_fd_sc_hd__mux2_1
*CAP
1 *4255:B 0
2 *4254:X 9.99731e-05
3 *227:8 9.99731e-05
4 *227:8 *840:10 6.57551e-05
5 *227:8 *840:12 1.83564e-05
*RES
1 *4254:X *227:8 40.2579 
2 *227:8 *4255:B 38 
*END

*D_NET *228 0.00145246
*CONN
*I *4257:B I *D sky130_fd_sc_hd__and2_1
*I *4256:X O *D sky130_fd_sc_hd__mux2_1
*CAP
1 *4257:B 0.000238156
2 *4256:X 0.000251407
3 *228:10 0.000489563
4 *4257:B *873:6 0.000164213
5 *228:10 *4256:A1 0.000167443
6 *228:10 *773:18 0
7 *228:10 *984:16 5.37348e-06
8 *4881:D *4257:B 0.0001363
*RES
1 *4256:X *228:10 42.3086 
2 *228:10 *4257:B 44.525 
*END

*D_NET *229 0.000848152
*CONN
*I *4259:B I *D sky130_fd_sc_hd__and2_1
*I *4258:X O *D sky130_fd_sc_hd__mux2_1
*CAP
1 *4259:B 0
2 *4258:X 0.000374141
3 *229:10 0.000374141
4 *229:10 *4258:A1 0
5 *229:10 *792:23 9.71035e-05
6 *229:10 *1000:12 2.76611e-06
*RES
1 *4258:X *229:10 43.3857 
2 *229:10 *4259:B 38 
*END

*D_NET *230 0.000561926
*CONN
*I *4261:B I *D sky130_fd_sc_hd__and2_1
*I *4260:X O *D sky130_fd_sc_hd__mux2_1
*CAP
1 *4261:B 0
2 *4260:X 0.000204064
3 *230:10 0.000204064
4 *230:10 *4261:A 0
5 *230:10 *895:20 1.01436e-05
6 *230:10 *998:19 0.000143655
7 *224:42 *230:10 0
*RES
1 *4260:X *230:10 41.48 
2 *230:10 *4261:B 38 
*END

*D_NET *231 0.000301038
*CONN
*I *4263:B I *D sky130_fd_sc_hd__and2_1
*I *4262:X O *D sky130_fd_sc_hd__mux2_1
*CAP
1 *4263:B 0
2 *4262:X 9.12059e-05
3 *231:8 9.12059e-05
4 *231:8 *906:10 3.28687e-05
5 *231:8 *975:25 8.57577e-05
*RES
1 *4262:X *231:8 39.9057 
2 *231:8 *4263:B 38 
*END

*D_NET *232 0.000299416
*CONN
*I *4265:B I *D sky130_fd_sc_hd__and2_1
*I *4264:X O *D sky130_fd_sc_hd__mux2_1
*CAP
1 *4265:B 0.000116168
2 *4264:X 0.000116168
3 *4265:B *4263:A 6.708e-05
*RES
1 *4264:X *4265:B 48.4236 
*END

*D_NET *233 0.000985381
*CONN
*I *4269:B I *D sky130_fd_sc_hd__and3_1
*I *4266:X O *D sky130_fd_sc_hd__a31o_1
*CAP
1 *4269:B 0
2 *4266:X 0.000367825
3 *233:10 0.000367825
4 *233:10 *4266:A3 5.70419e-05
5 *233:10 *4886:CLK 4.23714e-05
6 *233:10 *841:94 7.60112e-05
7 *233:10 *987:20 1.86973e-05
8 *233:10 *1005:17 0
9 *233:10 *1010:78 0
10 *233:10 *1010:101 0
11 *129:8 *233:10 5.561e-05
*RES
1 *4266:X *233:10 44.8771 
2 *233:10 *4269:B 38 
*END

*D_NET *234 0.00394327
*CONN
*I *4290:A1 I *D sky130_fd_sc_hd__a21oi_1
*I *4276:A I *D sky130_fd_sc_hd__xnor2_1
*I *4268:B I *D sky130_fd_sc_hd__nand2_1
*I *4267:X O *D sky130_fd_sc_hd__and3_1
*CAP
1 *4290:A1 0
2 *4276:A 0.000182061
3 *4268:B 0.000215289
4 *4267:X 0
5 *234:25 0.000580418
6 *234:6 0.000613646
7 *4268:B *4177:A1 9.41704e-05
8 *4268:B *784:17 0.000109343
9 *4268:B *797:32 0.000177604
10 *4276:A *4276:B 5.97944e-05
11 *4276:A *241:8 6.95806e-05
12 *4276:A *1010:78 4.65877e-05
13 *234:25 *241:8 0.000171837
14 *234:25 *784:17 0.000750516
15 *234:25 *1004:43 0.000431833
16 *234:25 *1007:74 2.24151e-05
17 *181:38 *4268:B 8.06804e-06
18 *182:39 *4268:B 0.000110922
19 *182:39 *234:25 0.000299187
*RES
1 *4267:X *234:6 38 
2 *234:6 *4268:B 42.5779 
3 *234:6 *234:25 27.4079 
4 *234:25 *4276:A 26.19 
5 *234:25 *4290:A1 23 
*END

*D_NET *235 0.00100106
*CONN
*I *4269:C I *D sky130_fd_sc_hd__and3_1
*I *4268:Y O *D sky130_fd_sc_hd__nand2_1
*CAP
1 *4269:C 0.000248628
2 *4268:Y 3.90016e-05
3 *235:8 0.000287629
4 *4269:C *797:24 0.000253246
5 *235:8 *866:43 8.62783e-05
6 *235:8 *1010:78 8.62783e-05
*RES
1 *4268:Y *235:8 39.2014 
2 *235:8 *4269:C 41.5629 
*END

*D_NET *236 0.00115013
*CONN
*I *4273:B I *D sky130_fd_sc_hd__and3_1
*I *4274:A1 I *D sky130_fd_sc_hd__a21oi_1
*I *4270:X O *D sky130_fd_sc_hd__a22o_1
*CAP
1 *4273:B 0
2 *4274:A1 0.000109453
3 *4270:X 0
4 *236:19 0.00019786
5 *236:4 0.000307314
6 *4274:A1 *4274:A2 9.84794e-05
7 *4274:A1 *1010:78 8.91468e-07
8 *236:19 *4274:A2 4.08664e-05
9 *236:19 *238:10 5.3304e-05
10 *236:19 *238:27 0.000194309
11 *236:19 *989:33 5.94125e-05
12 *236:19 *1005:48 1.12487e-05
13 *236:19 *1007:74 7.69935e-05
*RES
1 *4270:X *236:4 23 
2 *236:4 *4274:A1 24.5743 
3 *236:4 *236:19 34.06 
4 *236:19 *4273:B 23 
*END

*D_NET *237 0.00268668
*CONN
*I *4285:B1 I *D sky130_fd_sc_hd__a21oi_1
*I *4284:A I *D sky130_fd_sc_hd__and3_1
*I *4271:X O *D sky130_fd_sc_hd__and4_1
*CAP
1 *4285:B1 0
2 *4284:A 0
3 *4271:X 0.000329775
4 *237:29 0.000309748
5 *237:12 0.000504131
6 *237:8 0.000524158
7 *237:8 *248:8 0
8 *237:8 *844:18 0
9 *237:8 *972:28 0.000406483
10 *237:12 *248:12 0.000137651
11 *237:12 *251:12 0.000119313
12 *237:29 *4284:C 2.66989e-05
13 *237:29 *4285:A1 1.14452e-05
14 *237:29 *4285:A2 3.61155e-05
15 *237:29 *4286:B 1.32314e-05
16 *237:29 *248:12 4.04303e-05
17 *237:29 *249:8 6.7177e-06
18 *237:29 *249:16 0.000195269
19 *237:29 *251:12 2.55136e-05
*RES
1 *4271:X *237:8 46.2443 
2 *237:8 *237:12 18.9564 
3 *237:12 *4284:A 23 
4 *237:12 *237:29 35.4479 
5 *237:29 *4285:B1 23 
*END

*D_NET *238 0.00175915
*CONN
*I *4273:C I *D sky130_fd_sc_hd__and3_1
*I *4274:A2 I *D sky130_fd_sc_hd__a21oi_1
*I *4272:Y O *D sky130_fd_sc_hd__nand4_1
*CAP
1 *4273:C 0
2 *4274:A2 7.70731e-05
3 *4272:Y 0.000212886
4 *238:27 0.000217048
5 *238:10 0.000507008
6 *4274:A2 *4275:B 0
7 *4274:A2 *1005:40 0
8 *4274:A2 *1005:48 5.3304e-05
9 *238:10 *4272:D 0.000139352
10 *238:10 *989:27 2.65505e-05
11 *238:10 *1005:40 1.56762e-05
12 *238:10 *1005:48 4.08664e-05
13 *238:27 *4273:A 3.9889e-05
14 *238:27 *989:23 0
15 *238:27 *1005:48 3.47781e-05
16 *238:27 *1007:74 7.76364e-06
17 *238:27 *1010:78 0
18 *4274:A1 *4274:A2 9.84794e-05
19 *236:19 *4274:A2 4.08664e-05
20 *236:19 *238:10 5.3304e-05
21 *236:19 *238:27 0.000194309
*RES
1 *4272:Y *238:10 26.6457 
2 *238:10 *4274:A2 25.0714 
3 *238:10 *238:27 34.4743 
4 *238:27 *4273:C 23 
*END

*D_NET *239 0.00165571
*CONN
*I *4275:A I *D sky130_fd_sc_hd__nor2_1
*I *4290:B1 I *D sky130_fd_sc_hd__a21oi_1
*I *4273:X O *D sky130_fd_sc_hd__and3_1
*CAP
1 *4275:A 0
2 *4290:B1 9.67491e-05
3 *4273:X 0.000338831
4 *239:12 9.67491e-05
5 *239:10 0.000338831
6 *4290:B1 *241:8 0.000221707
7 *4290:B1 *255:8 7.51453e-06
8 *4290:B1 *1010:78 6.77507e-05
9 *239:10 *4273:A 5.01247e-05
10 *239:10 *1004:43 8.16253e-05
11 *239:10 *1007:74 0.000355822
*RES
1 *4273:X *239:10 44.2143 
2 *239:10 *239:12 15 
3 *239:12 *4290:B1 25.5271 
4 *239:12 *4275:A 23 
*END

*D_NET *240 0.000173425
*CONN
*I *4275:B I *D sky130_fd_sc_hd__nor2_1
*I *4274:Y O *D sky130_fd_sc_hd__a21oi_1
*CAP
1 *4275:B 7.2025e-05
2 *4274:Y 7.2025e-05
3 *4275:B *1005:40 0
4 *4275:B *1010:78 2.93747e-05
5 *4274:A2 *4275:B 0
*RES
1 *4274:Y *4275:B 47.6157 
*END

*D_NET *241 0.00110146
*CONN
*I *4290:A2 I *D sky130_fd_sc_hd__a21oi_1
*I *4276:B I *D sky130_fd_sc_hd__xnor2_1
*I *4275:Y O *D sky130_fd_sc_hd__nor2_1
*CAP
1 *4290:A2 0
2 *4276:B 5.80252e-05
3 *4275:Y 0.000175988
4 *241:8 0.000234013
5 *4276:B *255:8 2.93431e-05
6 *4276:B *1010:78 2.68076e-05
7 *241:8 *255:8 4.288e-05
8 *241:8 *1010:78 1.14876e-05
9 *4276:A *4276:B 5.97944e-05
10 *4276:A *241:8 6.95806e-05
11 *4290:B1 *241:8 0.000221707
12 *234:25 *241:8 0.000171837
*RES
1 *4275:Y *241:8 27.93 
2 *241:8 *4276:B 24.595 
3 *241:8 *4290:A2 23 
*END

*D_NET *242 0.00038965
*CONN
*I *4277:B I *D sky130_fd_sc_hd__nand2_1
*I *4276:Y O *D sky130_fd_sc_hd__xnor2_1
*CAP
1 *4277:B 0.000114873
2 *4276:Y 0.000114873
3 *4277:B *4277:A 0
4 *4277:B *4278:C1 0
5 *4277:B *1010:78 0.000159904
*RES
1 *4276:Y *4277:B 48.4236 
*END

*D_NET *243 0.000233323
*CONN
*I *4278:C1 I *D sky130_fd_sc_hd__o211a_1
*I *4277:Y O *D sky130_fd_sc_hd__nand2_1
*CAP
1 *4278:C1 8.61226e-05
2 *4277:Y 8.61226e-05
3 *4278:C1 *4277:A 1.14154e-05
4 *4278:C1 *1010:61 2.93747e-05
5 *4278:C1 *1010:78 2.02872e-05
6 *4277:B *4278:C1 0
*RES
1 *4277:Y *4278:C1 47.595 
*END

*D_NET *244 0.00143569
*CONN
*I *4282:A I *D sky130_fd_sc_hd__or3_1
*I *4283:B1 I *D sky130_fd_sc_hd__o21ai_1
*I *4299:A1 I *D sky130_fd_sc_hd__o21bai_1
*I *4279:Y O *D sky130_fd_sc_hd__nand2_1
*CAP
1 *4282:A 0
2 *4283:B1 2.73669e-05
3 *4299:A1 0
4 *4279:Y 0.000189889
5 *244:18 0.000149758
6 *244:12 0.000122391
7 *244:10 0.000189889
8 *4283:B1 *4299:A2 2.02517e-05
9 *4283:B1 *246:21 6.40446e-05
10 *4283:B1 *1001:38 1.57571e-05
11 *244:10 *844:18 0
12 *244:10 *1001:38 0
13 *244:10 *1005:93 0.000104396
14 *244:10 *1007:109 6.92122e-05
15 *244:10 *1007:134 3.53031e-05
16 *244:18 *4282:C 0.000115062
17 *244:18 *4299:A2 5.90675e-06
18 *244:18 *246:21 3.01552e-05
19 *244:18 *263:8 0.000185428
20 *244:18 *1001:38 9.67842e-05
21 *244:18 *1001:42 1.40958e-05
*RES
1 *4279:Y *244:10 41.0036 
2 *244:10 *244:12 15 
3 *244:12 *244:18 4.47429 
4 *244:18 *4299:A1 23 
5 *244:18 *4283:B1 24.1186 
6 *244:12 *4282:A 23 
*END

*D_NET *245 0.00182232
*CONN
*I *4282:B I *D sky130_fd_sc_hd__or3_1
*I *4299:B1_N I *D sky130_fd_sc_hd__o21bai_1
*I *4283:A1 I *D sky130_fd_sc_hd__o21ai_1
*I *4280:X O *D sky130_fd_sc_hd__and4_1
*CAP
1 *4282:B 3.43117e-05
2 *4299:B1_N 0
3 *4283:A1 0
4 *4280:X 0.000215715
5 *245:27 0.000390628
6 *245:10 0.000572031
7 *4282:B *1001:42 4.34745e-05
8 *245:10 *4271:C 4.70182e-05
9 *245:10 *4280:D 2.93747e-05
10 *245:10 *246:8 0.000134542
11 *245:10 *986:57 3.34247e-05
12 *245:27 *4282:C 1.56762e-05
13 *245:27 *246:8 1.14452e-05
14 *245:27 *246:21 0.000137651
15 *245:27 *248:8 1.14452e-05
16 *245:27 *784:25 0
17 *245:27 *844:18 4.70953e-05
18 *245:27 *1001:42 9.84851e-05
*RES
1 *4280:X *245:10 41.48 
2 *245:10 *4283:A1 38 
3 *245:10 *245:27 20.9243 
4 *245:27 *4299:B1_N 23 
5 *245:27 *4282:B 23.6214 
*END

*D_NET *246 0.00173969
*CONN
*I *4282:C I *D sky130_fd_sc_hd__or3_1
*I *4299:A2 I *D sky130_fd_sc_hd__o21bai_1
*I *4283:A2 I *D sky130_fd_sc_hd__o21ai_1
*I *4281:Y O *D sky130_fd_sc_hd__a22oi_2
*CAP
1 *4282:C 4.92496e-05
2 *4299:A2 1.75262e-05
3 *4283:A2 0
4 *4281:Y 0.000194645
5 *246:21 0.000215624
6 *246:10 0.000148849
7 *246:8 0.000194645
8 *4282:C *1001:42 0.000143655
9 *246:8 *4271:C 1.69668e-05
10 *246:8 *844:18 0.0001113
11 *246:8 *987:64 5.56203e-05
12 *246:8 *1005:56 1.34354e-05
13 *246:21 *1001:38 4.34427e-05
14 *4283:B1 *4299:A2 2.02517e-05
15 *4283:B1 *246:21 6.40446e-05
16 *244:18 *4282:C 0.000115062
17 *244:18 *4299:A2 5.90675e-06
18 *244:18 *246:21 3.01552e-05
19 *245:10 *246:8 0.000134542
20 *245:27 *4282:C 1.56762e-05
21 *245:27 *246:8 1.14452e-05
22 *245:27 *246:21 0.000137651
*RES
1 *4281:Y *246:8 42.7229 
2 *246:8 *246:10 15 
3 *246:10 *4283:A2 23 
4 *246:10 *246:21 3.87357 
5 *246:21 *4299:A2 23.4971 
6 *246:21 *4282:C 25.5479 
*END

*D_NET *247 0.00169225
*CONN
*I *4285:A1 I *D sky130_fd_sc_hd__a21oi_1
*I *4284:B I *D sky130_fd_sc_hd__and3_1
*I *4282:X O *D sky130_fd_sc_hd__or3_1
*CAP
1 *4285:A1 5.68752e-05
2 *4284:B 0.000118944
3 *4282:X 0.000480918
4 *247:10 0.000656737
5 *4284:B *251:12 0.000182826
6 *4285:A1 *249:8 2.24973e-05
7 *247:10 *249:8 1.83564e-05
8 *247:10 *844:18 0
9 *247:10 *1001:42 0.000143655
10 *237:29 *4285:A1 1.14452e-05
*RES
1 *4282:X *247:10 46.7621 
2 *247:10 *4284:B 40.5479 
3 *247:10 *4285:A1 38.8493 
*END

*D_NET *248 0.00184103
*CONN
*I *4285:A2 I *D sky130_fd_sc_hd__a21oi_1
*I *4284:C I *D sky130_fd_sc_hd__and3_1
*I *4283:Y O *D sky130_fd_sc_hd__o21ai_1
*CAP
1 *4285:A2 3.16005e-05
2 *4284:C 2.26562e-05
3 *4283:Y 0.000325908
4 *248:12 0.000118104
5 *248:8 0.000389756
6 *4284:C *4286:B 0
7 *4285:A2 *249:16 5.50106e-05
8 *4285:A2 *251:12 0.000127821
9 *248:8 *844:18 0.000294132
10 *248:12 *251:12 0.000223698
11 *237:8 *248:8 0
12 *237:12 *248:12 0.000137651
13 *237:29 *4284:C 2.66989e-05
14 *237:29 *4285:A2 3.61155e-05
15 *237:29 *248:12 4.04303e-05
16 *245:27 *248:8 1.14452e-05
*RES
1 *4283:Y *248:8 45.8921 
2 *248:8 *248:12 17.5271 
3 *248:12 *4284:C 23.725 
4 *248:12 *4285:A2 24.5743 
*END

*D_NET *249 0.00299382
*CONN
*I *4304:A I *D sky130_fd_sc_hd__and3_1
*I *4305:B1 I *D sky130_fd_sc_hd__a21oi_1
*I *4286:A I *D sky130_fd_sc_hd__nor2_1
*I *4284:X O *D sky130_fd_sc_hd__and3_1
*CAP
1 *4304:A 0.00016015
2 *4305:B1 0
3 *4286:A 0
4 *4284:X 0.000103075
5 *249:29 0.000819951
6 *249:16 0.000820298
7 *249:8 0.000263572
8 *4304:A *4304:C 8.60475e-05
9 *4304:A *4305:A1 2.32004e-05
10 *4304:A *4305:A2 5.3304e-05
11 *249:8 *274:10 0
12 *249:16 *4286:B 3.61695e-05
13 *249:16 *251:12 3.75171e-05
14 *249:29 *775:116 0
15 *249:29 *973:24 6.79006e-05
16 *249:29 *984:107 0.000140661
17 *4285:A1 *249:8 2.24973e-05
18 *4285:A2 *249:16 5.50106e-05
19 *182:80 *4304:A 3.17634e-05
20 *194:12 *249:29 5.23561e-05
21 *237:29 *249:8 6.7177e-06
22 *237:29 *249:16 0.000195269
23 *247:10 *249:8 1.83564e-05
*RES
1 *4284:X *249:8 39.5536 
2 *249:8 *249:16 19.1221 
3 *249:16 *4286:A 23 
4 *249:16 *249:29 43.2779 
5 *249:29 *4305:B1 23 
6 *249:29 *4304:A 26.0036 
*END

*D_NET *250 0.000200166
*CONN
*I *4286:B I *D sky130_fd_sc_hd__nor2_1
*I *4285:Y O *D sky130_fd_sc_hd__a21oi_1
*CAP
1 *4286:B 3.96692e-05
2 *4285:Y 3.96692e-05
3 *4286:B *251:12 7.14265e-05
4 *4284:C *4286:B 0
5 *237:29 *4286:B 1.32314e-05
6 *249:16 *4286:B 3.61695e-05
*RES
1 *4285:Y *4286:B 47.6157 
*END

*D_NET *251 0.00268257
*CONN
*I *4288:B I *D sky130_fd_sc_hd__or2_1
*I *4287:B I *D sky130_fd_sc_hd__nand2_1
*I *4286:Y O *D sky130_fd_sc_hd__nor2_1
*CAP
1 *4288:B 0.000329677
2 *4287:B 0
3 *4286:Y 0.000430712
4 *251:12 0.000760388
5 *4288:B *4289:A 6.18809e-05
6 *4288:B *252:6 3.29613e-05
7 *4288:B *274:8 2.38387e-06
8 *251:12 *274:8 0.000276451
9 *4284:B *251:12 0.000182826
10 *4285:A2 *251:12 0.000127821
11 *4286:B *251:12 7.14265e-05
12 *237:12 *251:12 0.000119313
13 *237:29 *251:12 2.55136e-05
14 *248:12 *251:12 0.000223698
15 *249:16 *251:12 3.75171e-05
*RES
1 *4286:Y *251:12 34.6414 
2 *251:12 *4287:B 23 
3 *251:12 *4288:B 28.1786 
*END

*D_NET *252 0.00101371
*CONN
*I *4310:B1 I *D sky130_fd_sc_hd__o21ai_1
*I *4289:A I *D sky130_fd_sc_hd__nand2_1
*I *4287:Y O *D sky130_fd_sc_hd__nand2_1
*CAP
1 *4310:B1 0
2 *4289:A 0.000192486
3 *4287:Y 3.28345e-05
4 *252:6 0.00022532
5 *4289:A *4289:B 5.79559e-05
6 *4289:A *819:34 7.2804e-05
7 *4289:A *819:53 0.000270671
8 *252:6 *274:8 2.46906e-05
9 *252:6 *819:53 4.21048e-05
10 *4288:B *4289:A 6.18809e-05
11 *4288:B *252:6 3.29613e-05
*RES
1 *4287:Y *252:6 24.0979 
2 *252:6 *4289:A 28.075 
3 *252:6 *4310:B1 23 
*END

*D_NET *253 0.000342318
*CONN
*I *4289:B I *D sky130_fd_sc_hd__nand2_1
*I *4288:X O *D sky130_fd_sc_hd__or2_1
*CAP
1 *4289:B 6.99304e-05
2 *4288:X 6.99304e-05
3 *4289:B *819:34 0.000144501
4 *4289:A *4289:B 5.79559e-05
*RES
1 *4288:X *4289:B 48.0714 
*END

*D_NET *254 0.00150393
*CONN
*I *4310:A1 I *D sky130_fd_sc_hd__o21ai_1
*I *4291:A I *D sky130_fd_sc_hd__xnor2_1
*I *4289:Y O *D sky130_fd_sc_hd__nand2_1
*CAP
1 *4310:A1 0
2 *4291:A 0
3 *4289:Y 0
4 *254:27 0.000299223
5 *254:12 0.000179087
6 *254:4 0.00047831
7 *254:12 *1010:18 0.000169683
8 *254:27 *819:34 0.000187418
9 *254:27 *819:40 2.72882e-05
10 *254:27 *819:53 8.60758e-05
11 *254:27 *974:14 7.68422e-05
12 *254:27 *1010:18 0
*RES
1 *4289:Y *254:4 23 
2 *254:4 *254:12 33.8321 
3 *254:12 *4291:A 23 
4 *254:4 *254:27 34.8264 
5 *254:27 *4310:A1 23 
*END

*D_NET *255 0.00422613
*CONN
*I *4310:A2 I *D sky130_fd_sc_hd__o21ai_1
*I *4291:B I *D sky130_fd_sc_hd__xnor2_1
*I *4290:Y O *D sky130_fd_sc_hd__a21oi_1
*CAP
1 *4310:A2 7.6577e-05
2 *4291:B 0.000132962
3 *4290:Y 4.06122e-05
4 *255:10 0.00109164
5 *255:8 0.000922717
6 *4310:A2 *974:14 0.000131744
7 *255:8 *1010:78 0.000191255
8 *255:10 *974:14 0.000729068
9 *255:10 *974:24 0.000829818
10 *4276:B *255:8 2.93431e-05
11 *4290:B1 *255:8 7.51453e-06
12 *241:8 *255:8 4.288e-05
*RES
1 *4290:Y *255:8 40.0507 
2 *255:8 *255:10 20.5693 
3 *255:10 *4291:B 40.0507 
4 *255:10 *4310:A2 39.9057 
*END

*D_NET *256 0.000791725
*CONN
*I *4292:B I *D sky130_fd_sc_hd__nand2_1
*I *4291:Y O *D sky130_fd_sc_hd__xnor2_1
*CAP
1 *4292:B 0
2 *4291:Y 0.00021389
3 *256:8 0.00021389
4 *256:8 *1010:22 0.00030894
5 *256:8 *1010:24 5.50049e-05
*RES
1 *4291:Y *256:8 27.8057 
2 *256:8 *4292:B 23 
*END

*D_NET *257 0.00041164
*CONN
*I *4293:C1 I *D sky130_fd_sc_hd__o211a_1
*I *4292:Y O *D sky130_fd_sc_hd__nand2_1
*CAP
1 *4293:C1 4.67873e-05
2 *4292:Y 5.9415e-05
3 *257:8 0.000106202
4 *257:8 *4184:A1 0.000141888
5 *257:8 *819:23 1.14452e-05
6 *257:8 *1010:52 4.59027e-05
*RES
1 *4292:Y *257:8 39.9057 
2 *257:8 *4293:C1 38.6214 
*END

*D_NET *258 0.00178899
*CONN
*I *4322:A1 I *D sky130_fd_sc_hd__o21bai_1
*I *4297:A I *D sky130_fd_sc_hd__or3_1
*I *4298:B1 I *D sky130_fd_sc_hd__o21ai_1
*I *4294:Y O *D sky130_fd_sc_hd__nand2_1
*CAP
1 *4322:A1 0
2 *4297:A 0.000109753
3 *4298:B1 1.80505e-05
4 *4294:Y 0.000165899
5 *258:12 0.000148715
6 *258:10 2.09113e-05
7 *258:8 0.000165899
8 *4297:A *4297:B 5.50049e-05
9 *4297:A *4297:C 0.000183733
10 *4297:A *259:14 0.000211255
11 *4297:A *260:23 4.05745e-05
12 *4298:B1 *259:14 5.50049e-05
13 *4298:B1 *260:23 2.93747e-05
14 *258:8 *4298:A1 3.3123e-05
15 *258:8 *259:10 0.000159671
16 *258:8 *973:24 0.00037534
17 *258:12 *260:23 1.66793e-05
*RES
1 *4294:Y *258:8 43.075 
2 *258:8 *258:10 15 
3 *258:10 *258:12 0.497143 
4 *258:12 *4298:B1 23.6214 
5 *258:12 *4297:A 26.48 
6 *258:10 *4322:A1 23 
*END

*D_NET *259 0.00267799
*CONN
*I *4298:A1 I *D sky130_fd_sc_hd__o21ai_1
*I *4297:B I *D sky130_fd_sc_hd__or3_1
*I *4322:B1_N I *D sky130_fd_sc_hd__o21bai_1
*I *4295:X O *D sky130_fd_sc_hd__and4_1
*CAP
1 *4298:A1 9.98382e-05
2 *4297:B 5.12851e-05
3 *4322:B1_N 0
4 *4295:X 0.000421594
5 *259:14 0.000238692
6 *259:10 0.000708839
7 *4298:A1 *263:16 0
8 *259:10 *260:8 0.000260204
9 *259:10 *263:16 0
10 *259:10 *973:24 7.81117e-05
11 *259:10 *986:76 8.06039e-05
12 *259:10 *987:114 1.52362e-05
13 *259:10 *989:77 5.67058e-05
14 *259:10 *1004:90 0.000138718
15 *259:14 *260:23 1.41077e-05
16 *4297:A *4297:B 5.50049e-05
17 *4297:A *259:14 0.000211255
18 *4298:B1 *259:14 5.50049e-05
19 *258:8 *4298:A1 3.3123e-05
20 *258:8 *259:10 0.000159671
*RES
1 *4295:X *259:10 48.6264 
2 *259:10 *259:14 18.48 
3 *259:14 *4322:B1_N 23 
4 *259:14 *4297:B 24.1186 
5 *259:10 *4298:A1 39.9471 
*END

*D_NET *260 0.0020821
*CONN
*I *4297:C I *D sky130_fd_sc_hd__or3_1
*I *4322:A2 I *D sky130_fd_sc_hd__o21bai_1
*I *4298:A2 I *D sky130_fd_sc_hd__o21ai_1
*I *4296:Y O *D sky130_fd_sc_hd__a22oi_2
*CAP
1 *4297:C 8.1594e-05
2 *4322:A2 0
3 *4298:A2 0
4 *4296:Y 0.000278343
5 *260:23 0.000326734
6 *260:12 0.000297917
7 *260:8 0.000331119
8 *260:8 *263:16 0.000107651
9 *260:8 *987:114 0.000114074
10 *4297:A *4297:C 0.000183733
11 *4297:A *260:23 4.05745e-05
12 *4298:B1 *260:23 2.93747e-05
13 *258:12 *260:23 1.66793e-05
14 *259:10 *260:8 0.000260204
15 *259:14 *260:23 1.41077e-05
*RES
1 *4296:Y *260:8 45.1879 
2 *260:8 *260:12 15.6214 
3 *260:12 *4298:A2 23 
4 *260:12 *260:23 4.57786 
5 *260:23 *4322:A2 23 
6 *260:23 *4297:C 25.0507 
*END

*D_NET *261 0.00184096
*CONN
*I *4301:A1 I *D sky130_fd_sc_hd__a21o_1
*I *4300:A I *D sky130_fd_sc_hd__nand3_1
*I *4297:X O *D sky130_fd_sc_hd__or3_1
*CAP
1 *4301:A1 0
2 *4300:A 0
3 *4297:X 5.4232e-05
4 *261:29 0.000304755
5 *261:12 0.000384138
6 *261:8 0.000133615
7 *261:8 *772:48 0.000141879
8 *261:29 *4300:B 0.00034457
9 *261:29 *262:8 5.94125e-05
10 *261:29 *263:16 5.3304e-05
11 *261:29 *265:10 0.000182832
12 *261:29 *973:24 0.000111852
13 *196:10 *261:8 7.03766e-05
*RES
1 *4297:X *261:8 39.9057 
2 *261:8 *261:12 16.0979 
3 *261:12 *4300:A 23 
4 *261:12 *261:29 36.9807 
5 *261:29 *4301:A1 23 
*END

*D_NET *262 0.0013354
*CONN
*I *4300:B I *D sky130_fd_sc_hd__nand3_1
*I *4301:A2 I *D sky130_fd_sc_hd__a21o_1
*I *4298:Y O *D sky130_fd_sc_hd__o21ai_1
*CAP
1 *4300:B 0.000197473
2 *4301:A2 0
3 *4298:Y 0.000101214
4 *262:12 0.000209572
5 *262:8 0.000113313
6 *4300:B *4300:C 0.000180218
7 *4300:B *263:16 3.84027e-05
8 *262:8 *263:16 0
9 *262:8 *973:24 3.62219e-05
10 *262:12 *263:16 5.50049e-05
11 *261:29 *4300:B 0.00034457
12 *261:29 *262:8 5.94125e-05
*RES
1 *4298:Y *262:8 39.9057 
2 *262:8 *262:12 15.6214 
3 *262:12 *4301:A2 23 
4 *262:12 *4300:B 28.4271 
*END

*D_NET *263 0.00321266
*CONN
*I *4300:C I *D sky130_fd_sc_hd__nand3_1
*I *4301:B1 I *D sky130_fd_sc_hd__a21o_1
*I *4299:Y O *D sky130_fd_sc_hd__o21bai_1
*CAP
1 *4300:C 9.9125e-05
2 *4301:B1 0
3 *4299:Y 0.000443021
4 *263:16 0.000628211
5 *263:8 0.000972106
6 *263:8 *1001:42 5.61255e-06
7 *263:8 *1007:134 0.00044458
8 *263:16 *973:24 0
9 *263:16 *1007:134 0
10 *4298:A1 *263:16 0
11 *4300:B *4300:C 0.000180218
12 *4300:B *263:16 3.84027e-05
13 *244:18 *263:8 0.000185428
14 *259:10 *263:16 0
15 *260:8 *263:16 0.000107651
16 *261:29 *263:16 5.3304e-05
17 *262:8 *263:16 0
18 *262:12 *263:16 5.50049e-05
*RES
1 *4299:Y *263:8 45.2914 
2 *263:8 *263:16 25.1086 
3 *263:16 *4301:B1 23 
4 *263:16 *4300:C 25.0507 
*END

*D_NET *264 0.00301523
*CONN
*I *4303:B1 I *D sky130_fd_sc_hd__a22o_1
*I *4327:A I *D sky130_fd_sc_hd__nand2_1
*I *4302:C I *D sky130_fd_sc_hd__nand4_1
*I *4300:Y O *D sky130_fd_sc_hd__nand3_1
*CAP
1 *4303:B1 8.22397e-05
2 *4327:A 0
3 *4302:C 0
4 *4300:Y 9.82609e-05
5 *264:29 0.000127363
6 *264:21 0.000382268
7 *264:8 0.000270927
8 *4303:B1 *4303:A2 5.3304e-05
9 *4303:B1 *4303:B2 0.000145465
10 *264:8 *265:10 0.000296947
11 *264:8 *772:48 0.000301419
12 *264:21 *4303:A2 0.000149793
13 *264:21 *4303:B2 0.000325669
14 *264:21 *265:10 4.92689e-05
15 *264:21 *772:48 0.00026189
16 *264:29 *266:10 0.000215791
17 *264:29 *266:23 1.14452e-05
18 *264:29 *772:46 2.64616e-05
19 *196:10 *264:29 0.000216721
*RES
1 *4300:Y *264:8 42.0186 
2 *264:8 *4302:C 38 
3 *264:8 *264:21 20.2407 
4 *264:21 *264:29 33.5836 
5 *264:29 *4327:A 23 
6 *264:21 *4303:B1 25.0714 
*END

*D_NET *265 0.0031676
*CONN
*I *4303:B2 I *D sky130_fd_sc_hd__a22o_1
*I *4302:D I *D sky130_fd_sc_hd__nand4_1
*I *4301:X O *D sky130_fd_sc_hd__a21o_1
*CAP
1 *4303:B2 0.000327939
2 *4302:D 4.11105e-05
3 *4301:X 0.000269094
4 *265:10 0.000638143
5 *4302:D *982:87 9.41704e-05
6 *4302:D *984:99 9.41704e-05
7 *4303:B2 *4303:A2 0.00020223
8 *4303:B2 *984:91 0.00014196
9 *265:10 *4303:A2 6.16531e-05
10 *265:10 *1007:136 0.000296947
11 *4303:B1 *4303:B2 0.000145465
12 *261:29 *265:10 0.000182832
13 *264:8 *265:10 0.000296947
14 *264:21 *4303:B2 0.000325669
15 *264:21 *265:10 4.92689e-05
*RES
1 *4301:X *265:10 44.7736 
2 *265:10 *4302:D 39.0979 
3 *265:10 *4303:B2 45.8921 
*END

*D_NET *266 0.00228544
*CONN
*I *4304:B I *D sky130_fd_sc_hd__and3_1
*I *4305:A1 I *D sky130_fd_sc_hd__a21oi_1
*I *4327:B I *D sky130_fd_sc_hd__nand2_1
*I *4302:Y O *D sky130_fd_sc_hd__nand4_1
*CAP
1 *4304:B 0
2 *4305:A1 0.000158625
3 *4327:B 0
4 *4302:Y 0.000256875
5 *266:23 0.000329334
6 *266:10 0.000427585
7 *4305:A1 *4304:C 0.000166714
8 *4305:A1 *4305:A2 5.3304e-05
9 *266:10 *267:10 0
10 *266:10 *772:46 0.000110913
11 *266:10 *772:48 0.000187996
12 *266:10 *999:88 9.5877e-05
13 *266:23 *4304:C 2.31199e-06
14 *266:23 *268:8 3.70094e-05
15 *266:23 *290:8 1.01436e-05
16 *266:23 *772:46 3.82058e-06
17 *4304:A *4305:A1 2.32004e-05
18 *182:80 *4305:A1 9.75779e-05
19 *196:10 *266:10 5.97612e-05
20 *196:10 *266:23 3.71611e-05
21 *264:29 *266:10 0.000215791
22 *264:29 *266:23 1.14452e-05
*RES
1 *4302:Y *266:10 43.8207 
2 *266:10 *4327:B 38 
3 *266:10 *266:23 17.7757 
4 *266:23 *4305:A1 27.35 
5 *266:23 *4304:B 23 
*END

*D_NET *267 0.00151578
*CONN
*I *4304:C I *D sky130_fd_sc_hd__and3_1
*I *4305:A2 I *D sky130_fd_sc_hd__a21oi_1
*I *4303:X O *D sky130_fd_sc_hd__a22o_1
*CAP
1 *4304:C 8.24745e-05
2 *4305:A2 2.32701e-05
3 *4303:X 0.000353813
4 *267:12 0.000105745
5 *267:10 0.000353813
6 *267:10 *4303:A2 9.62666e-05
7 *267:10 *772:46 0
8 *4304:A *4304:C 8.60475e-05
9 *4304:A *4305:A2 5.3304e-05
10 *4305:A1 *4304:C 0.000166714
11 *4305:A1 *4305:A2 5.3304e-05
12 *194:12 *267:10 0.000138718
13 *266:10 *267:10 0
14 *266:23 *4304:C 2.31199e-06
*RES
1 *4303:X *267:10 43.3857 
2 *267:10 *267:12 15 
3 *267:12 *4305:A2 23.6214 
4 *267:12 *4304:C 25.7757 
*END

*D_NET *268 0.00252652
*CONN
*I *4331:B1_N I *D sky130_fd_sc_hd__o21bai_1
*I *4330:C_N I *D sky130_fd_sc_hd__or3b_2
*I *4306:A I *D sky130_fd_sc_hd__nor2_1
*I *4304:X O *D sky130_fd_sc_hd__and3_1
*CAP
1 *4331:B1_N 0.000127435
2 *4330:C_N 0
3 *4306:A 0.000219099
4 *4304:X 0.000114757
5 *268:23 0.000457509
6 *268:8 0.000663929
7 *4331:B1_N *4330:A 4.57742e-05
8 *4331:B1_N *4331:A2 0.000126914
9 *4331:B1_N *291:21 3.7122e-06
10 *4331:B1_N *292:12 0.000185428
11 *4331:B1_N *293:28 5.61255e-06
12 *4331:B1_N *824:26 4.94073e-05
13 *268:8 *290:8 7.80251e-05
14 *268:23 *290:8 1.83667e-05
15 *268:23 *292:12 9.61128e-05
16 *268:23 *824:26 0.00023879
17 *182:80 *268:8 0
18 *182:80 *268:23 0
19 *182:91 *268:23 0
20 *196:10 *268:23 5.86432e-05
21 *266:23 *268:8 3.70094e-05
*RES
1 *4304:X *268:8 40.61 
2 *268:8 *4306:A 41.48 
3 *268:8 *268:23 22.8714 
4 *268:23 *4330:C_N 23 
5 *268:23 *4331:B1_N 26.9771 
*END

*D_NET *269 0.00041208
*CONN
*I *4306:B I *D sky130_fd_sc_hd__nor2_1
*I *4305:Y O *D sky130_fd_sc_hd__a21oi_1
*CAP
1 *4306:B 0
2 *4305:Y 0.00013512
3 *269:10 0.00013512
4 *182:80 *269:10 5.67058e-05
5 *194:12 *269:10 8.51329e-05
*RES
1 *4305:Y *269:10 40.8793 
2 *269:10 *4306:B 38 
*END

*D_NET *270 0.00179799
*CONN
*I *4308:B I *D sky130_fd_sc_hd__or2_1
*I *4307:B I *D sky130_fd_sc_hd__nand2_1
*I *4306:Y O *D sky130_fd_sc_hd__nor2_1
*CAP
1 *4308:B 0
2 *4307:B 0
3 *4306:Y 0.000352121
4 *270:20 0.000525435
5 *270:6 0.000877556
6 *270:20 *822:10 1.34542e-05
7 *270:20 *822:12 6.07611e-06
8 *270:20 *844:18 2.33476e-05
*RES
1 *4306:Y *270:6 28.8621 
2 *270:6 *270:20 47.9003 
3 *270:20 *4307:B 23 
4 *270:6 *4308:B 23 
*END

*D_NET *271 0.000951166
*CONN
*I *4309:A I *D sky130_fd_sc_hd__nand2_1
*I *4335:B1_N I *D sky130_fd_sc_hd__a21bo_1
*I *4307:Y O *D sky130_fd_sc_hd__nand2_1
*CAP
1 *4309:A 0
2 *4335:B1_N 0
3 *4307:Y 6.86583e-05
4 *271:19 0.000108063
5 *271:6 0.000176721
6 *271:6 *4308:A 0.000139346
7 *271:6 *4335:A2 6.17437e-06
8 *271:19 *4308:A 4.08664e-05
9 *271:19 *4335:A2 2.64616e-05
10 *271:19 *273:8 0.000138718
11 *271:19 *274:10 0.000218952
12 *192:12 *271:19 2.72055e-05
*RES
1 *4307:Y *271:6 24.5743 
2 *271:6 *4335:B1_N 23 
3 *271:6 *271:19 33.5836 
4 *271:19 *4309:A 23 
*END

*D_NET *272 0.00152962
*CONN
*I *4309:B I *D sky130_fd_sc_hd__nand2_1
*I *4335:A1 I *D sky130_fd_sc_hd__a21bo_1
*I *4308:X O *D sky130_fd_sc_hd__or2_1
*CAP
1 *4309:B 0
2 *4335:A1 0
3 *4308:X 0
4 *272:27 0.000256352
5 *272:14 0.00024161
6 *272:4 0.000497962
7 *272:14 *4308:A 0.000180588
8 *272:14 *4335:A2 5.3304e-05
9 *272:14 *273:8 9.01352e-05
10 *182:80 *272:27 0.000123934
11 *192:12 *272:14 8.57382e-05
12 *192:12 *272:27 0
*RES
1 *4308:X *272:4 23 
2 *272:4 *272:14 34.35 
3 *272:14 *4335:A1 23 
4 *272:4 *272:27 34.785 
5 *272:27 *4309:B 23 
*END

*D_NET *273 0.000772254
*CONN
*I *4311:A I *D sky130_fd_sc_hd__xor2_1
*I *4309:Y O *D sky130_fd_sc_hd__nand2_1
*CAP
1 *4311:A 0
2 *4309:Y 0.000156718
3 *273:8 0.000156718
4 *273:8 *4311:B 8.30744e-05
5 *273:8 *274:10 2.07357e-05
6 *192:12 *273:8 0.000126155
7 *271:19 *273:8 0.000138718
8 *272:14 *273:8 9.01352e-05
*RES
1 *4309:Y *273:8 42.7229 
2 *273:8 *4311:A 38 
*END

*D_NET *274 0.00478887
*CONN
*I *4311:B I *D sky130_fd_sc_hd__xor2_1
*I *4335:A2 I *D sky130_fd_sc_hd__a21bo_1
*I *4310:Y O *D sky130_fd_sc_hd__o21ai_1
*CAP
1 *4311:B 0.00010538
2 *4335:A2 0.000190068
3 *4310:Y 0.000556709
4 *274:10 0.000784757
5 *274:8 0.00104602
6 *4311:B *844:18 0.000185387
7 *4335:A2 *4308:A 4.38923e-05
8 *274:8 *819:53 0.000102389
9 *274:10 *844:18 0.000949323
10 *274:10 *973:10 6.21538e-05
11 *274:10 *973:18 2.11827e-05
12 *4288:B *274:8 2.38387e-06
13 *192:12 *4311:B 0
14 *192:12 *274:10 0
15 *195:12 *4311:B 2.93845e-05
16 *249:8 *274:10 0
17 *251:12 *274:8 0.000276451
18 *252:6 *274:8 2.46906e-05
19 *271:6 *4335:A2 6.17437e-06
20 *271:19 *4335:A2 2.64616e-05
21 *271:19 *274:10 0.000218952
22 *272:14 *4335:A2 5.3304e-05
23 *273:8 *4311:B 8.30744e-05
24 *273:8 *274:10 2.07357e-05
*RES
1 *4310:Y *274:8 45.7679 
2 *274:8 *274:10 12.8221 
3 *274:10 *4335:A2 41.0243 
4 *274:10 *4311:B 41.2314 
*END

*D_NET *275 0.00141049
*CONN
*I *4312:B I *D sky130_fd_sc_hd__nand2_1
*I *4311:X O *D sky130_fd_sc_hd__xor2_1
*CAP
1 *4312:B 0
2 *4311:X 0.000350082
3 *275:10 0.000350082
4 *275:10 *839:81 0.00035701
5 *275:10 *972:16 0.000181422
6 *195:12 *275:10 0.000171898
*RES
1 *4311:X *275:10 46.2029 
2 *275:10 *4312:B 38 
*END

*D_NET *276 0.000220441
*CONN
*I *4313:C1 I *D sky130_fd_sc_hd__o211a_1
*I *4312:Y O *D sky130_fd_sc_hd__nand2_1
*CAP
1 *4313:C1 7.37825e-05
2 *4312:Y 7.37825e-05
3 *4313:C1 *4313:A2 5.40876e-05
4 *4313:C1 *4313:B1 1.8788e-05
*RES
1 *4312:Y *4313:C1 47.595 
*END

*D_NET *277 0.00061001
*CONN
*I *4316:A I *D sky130_fd_sc_hd__nor2_1
*I *4314:Y O *D sky130_fd_sc_hd__a22oi_1
*CAP
1 *4316:A 2.01521e-05
2 *4314:Y 0.000186368
3 *277:8 0.00020652
4 *4316:A *279:10 9.84851e-05
5 *4316:A *317:8 9.84851e-05
6 *277:8 *4326:A2 0
7 *277:8 *278:10 0
8 *277:8 *287:8 0
9 *277:8 *984:91 0
*RES
1 *4314:Y *277:8 40.9621 
2 *277:8 *4316:A 39.0979 
*END

*D_NET *278 0.00228921
*CONN
*I *4358:A I *D sky130_fd_sc_hd__nand3_2
*I *4359:B1 I *D sky130_fd_sc_hd__a21o_1
*I *4316:B I *D sky130_fd_sc_hd__nor2_1
*I *4315:X O *D sky130_fd_sc_hd__and4_1
*CAP
1 *4358:A 0.000167378
2 *4359:B1 0
3 *4316:B 0
4 *4315:X 0.000173191
5 *278:23 0.000530747
6 *278:12 0.00036337
7 *278:10 0.000173191
8 *278:10 *982:83 5.67058e-05
9 *278:10 *984:91 2.29192e-05
10 *278:23 *317:8 0.000661952
11 *278:23 *318:12 0
12 *278:23 *319:8 8.85189e-05
13 *278:23 *984:91 5.12328e-05
14 *277:8 *278:10 0
*RES
1 *4315:X *278:10 40.8793 
2 *278:10 *278:12 15 
3 *278:12 *4316:B 23 
4 *278:12 *278:23 24.9014 
5 *278:23 *4359:B1 38 
6 *278:23 *4358:A 40.0507 
*END

*D_NET *279 0.00283587
*CONN
*I *4355:A1 I *D sky130_fd_sc_hd__a21bo_1
*I *4325:A I *D sky130_fd_sc_hd__nand3_1
*I *4326:B1 I *D sky130_fd_sc_hd__a21o_1
*I *4316:Y O *D sky130_fd_sc_hd__nor2_1
*CAP
1 *4355:A1 0
2 *4325:A 0
3 *4326:B1 0
4 *4316:Y 0.000151195
5 *279:20 0.000341455
6 *279:12 0.000456666
7 *279:10 0.000266406
8 *279:10 *4325:C 0
9 *279:10 *4355:A2 4.34745e-05
10 *279:10 *317:8 0.000146971
11 *279:10 *984:91 0.000234596
12 *279:12 *4325:C 0.000171725
13 *279:12 *4355:A2 9.5877e-05
14 *279:12 *286:21 0.000228909
15 *279:12 *286:34 2.4754e-05
16 *279:20 *4326:A2 0
17 *279:20 *286:8 1.14452e-05
18 *279:20 *286:34 0
19 *279:20 *288:8 0.000378483
20 *279:20 *824:16 0.000185434
21 *4316:A *279:10 9.84851e-05
22 *199:10 *279:20 0
*RES
1 *4316:Y *279:10 29.0279 
2 *279:10 *279:12 4.43286 
3 *279:12 *279:20 37.83 
4 *279:20 *4326:B1 23 
5 *279:12 *4325:A 23 
6 *279:10 *4355:A1 23 
*END

*D_NET *280 0.00148413
*CONN
*I *4320:A I *D sky130_fd_sc_hd__or3_1
*I *4350:A1 I *D sky130_fd_sc_hd__o21bai_1
*I *4321:B1 I *D sky130_fd_sc_hd__o21ai_1
*I *4317:Y O *D sky130_fd_sc_hd__nand2_1
*CAP
1 *4320:A 0
2 *4350:A1 2.14194e-05
3 *4321:B1 8.37909e-06
4 *4317:Y 0.000225686
5 *280:12 0.000105607
6 *280:10 7.5809e-05
7 *280:8 0.000225686
8 *4321:B1 *4321:A1 5.67058e-05
9 *4321:B1 *282:25 3.22879e-05
10 *4350:A1 *4321:A1 0
11 *4350:A1 *282:25 5.90675e-06
12 *280:8 *281:8 0.000110532
13 *280:8 *282:25 0
14 *280:12 *4320:B 9.84851e-05
15 *280:12 *4320:C 0.000230604
16 *280:12 *4321:A1 0.000215671
17 *280:12 *282:25 4.95081e-05
18 *280:12 *312:10 2.18409e-05
*RES
1 *4317:Y *280:8 42.7229 
2 *280:8 *280:10 15 
3 *280:10 *280:12 3.95643 
4 *280:12 *4321:B1 23.6214 
5 *280:12 *4350:A1 23.4971 
6 *280:10 *4320:A 23 
*END

*D_NET *281 0.001604
*CONN
*I *4320:B I *D sky130_fd_sc_hd__or3_1
*I *4350:B1_N I *D sky130_fd_sc_hd__o21bai_1
*I *4321:A1 I *D sky130_fd_sc_hd__o21ai_1
*I *4318:X O *D sky130_fd_sc_hd__and4_1
*CAP
1 *4320:B 6.81529e-05
2 *4350:B1_N 0
3 *4321:A1 0.000254062
4 *4318:X 0.000203064
5 *281:10 0.000322215
6 *281:8 0.000203064
7 *4321:A1 *4321:A2 5.3304e-05
8 *4321:A1 *282:25 1.41077e-05
9 *281:8 *282:8 0
10 *281:8 *1001:67 4.6318e-06
11 *4321:B1 *4321:A1 5.67058e-05
12 *4350:A1 *4321:A1 0
13 *280:8 *281:8 0.000110532
14 *280:12 *4320:B 9.84851e-05
15 *280:12 *4321:A1 0.000215671
*RES
1 *4318:X *281:8 42.3707 
2 *281:8 *281:10 15 
3 *281:10 *4321:A1 28.2821 
4 *281:10 *4350:B1_N 23 
5 *281:10 *4320:B 24.595 
*END

*D_NET *282 0.00203433
*CONN
*I *4320:C I *D sky130_fd_sc_hd__or3_1
*I *4350:A2 I *D sky130_fd_sc_hd__o21bai_1
*I *4321:A2 I *D sky130_fd_sc_hd__o21ai_1
*I *4319:Y O *D sky130_fd_sc_hd__a22oi_2
*CAP
1 *4320:C 3.50598e-05
2 *4350:A2 0
3 *4321:A2 4.99221e-05
4 *4319:Y 0.00021273
5 *282:25 0.000215847
6 *282:8 0.000443439
7 *4320:C *312:10 0.000187129
8 *282:8 *859:42 1.19692e-05
9 *282:25 *312:10 1.14154e-05
10 *4321:A1 *4321:A2 5.3304e-05
11 *4321:A1 *282:25 1.41077e-05
12 *4321:B1 *282:25 3.22879e-05
13 *4350:A1 *282:25 5.90675e-06
14 *199:10 *282:8 0.000374002
15 *199:10 *282:25 0.000107101
16 *280:8 *282:25 0
17 *280:12 *4320:C 0.000230604
18 *280:12 *282:25 4.95081e-05
19 *281:8 *282:8 0
*RES
1 *4319:Y *282:8 43.075 
2 *282:8 *4321:A2 38.6214 
3 *282:8 *282:25 19.1014 
4 *282:25 *4350:A2 23 
5 *282:25 *4320:C 25.5271 
*END

*D_NET *283 0.00135141
*CONN
*I *4324:A1 I *D sky130_fd_sc_hd__a21o_1
*I *4323:A I *D sky130_fd_sc_hd__nand3_1
*I *4320:X O *D sky130_fd_sc_hd__or3_1
*CAP
1 *4324:A1 0
2 *4323:A 5.18026e-05
3 *4320:X 0.000396303
4 *283:12 5.18026e-05
5 *283:10 0.000396303
6 *4323:A *4324:A2 0.000110197
7 *4323:A *4324:B1 0.000162206
8 *4323:A *284:14 3.91386e-05
9 *283:10 *284:8 0
10 *283:10 *312:10 0.000143655
*RES
1 *4320:X *283:10 44.6493 
2 *283:10 *283:12 15 
3 *283:12 *4323:A 25.5686 
4 *283:12 *4324:A1 23 
*END

*D_NET *284 0.00142971
*CONN
*I *4324:A2 I *D sky130_fd_sc_hd__a21o_1
*I *4323:B I *D sky130_fd_sc_hd__nand3_1
*I *4321:Y O *D sky130_fd_sc_hd__o21ai_1
*CAP
1 *4324:A2 8.53744e-05
2 *4323:B 0
3 *4321:Y 0.000204159
4 *284:14 0.000152505
5 *284:8 0.000271289
6 *4324:A2 *4324:B1 1.22822e-05
7 *284:14 *4323:C 0.00014196
8 *284:14 *4324:B1 0.000228909
9 *4323:A *4324:A2 0.000110197
10 *4323:A *284:14 3.91386e-05
11 *199:10 *284:8 0.000183898
12 *283:10 *284:8 0
*RES
1 *4321:Y *284:8 42.7229 
2 *284:8 *284:14 18.0243 
3 *284:14 *4323:B 23 
4 *284:14 *4324:A2 25.7136 
*END

*D_NET *285 0.00351154
*CONN
*I *4323:C I *D sky130_fd_sc_hd__nand3_1
*I *4324:B1 I *D sky130_fd_sc_hd__a21o_1
*I *4322:Y O *D sky130_fd_sc_hd__o21bai_1
*CAP
1 *4323:C 7.31304e-05
2 *4324:B1 0.000349111
3 *4322:Y 0.000165005
4 *285:12 0.00107038
5 *285:8 0.000813147
6 *285:8 *1007:136 0.000116925
7 *4323:A *4324:B1 0.000162206
8 *4324:A2 *4324:B1 1.22822e-05
9 *194:12 *285:8 0.000378483
10 *284:14 *4323:C 0.00014196
11 *284:14 *4324:B1 0.000228909
*RES
1 *4322:Y *285:8 43.075 
2 *285:8 *285:12 25.15 
3 *285:12 *4324:B1 30.5607 
4 *285:12 *4323:C 25.0507 
*END

*D_NET *286 0.00197166
*CONN
*I *4326:A1 I *D sky130_fd_sc_hd__a21o_1
*I *4355:B1_N I *D sky130_fd_sc_hd__a21bo_1
*I *4325:B I *D sky130_fd_sc_hd__nand3_1
*I *4323:Y O *D sky130_fd_sc_hd__nand3_1
*CAP
1 *4326:A1 0
2 *4355:B1_N 0
3 *4325:B 0
4 *4323:Y 0.000300713
5 *286:34 0.000273499
6 *286:21 0.000447969
7 *286:10 0.00017447
8 *286:8 0.000300713
9 *286:8 *4326:A2 0
10 *286:8 *287:8 0
11 *286:8 *287:12 0
12 *286:21 *4325:C 2.00144e-05
13 *286:34 *4326:A2 0.000189173
14 *199:10 *286:8 0
15 *279:12 *286:21 0.000228909
16 *279:12 *286:34 2.4754e-05
17 *279:20 *286:8 1.14452e-05
18 *279:20 *286:34 0
*RES
1 *4323:Y *286:8 43.075 
2 *286:8 *286:10 15 
3 *286:10 *4325:B 23 
4 *286:10 *286:21 3.99786 
5 *286:21 *4355:B1_N 23 
6 *286:21 *286:34 35.6964 
7 *286:34 *4326:A1 23 
*END

*D_NET *287 0.00288715
*CONN
*I *4326:A2 I *D sky130_fd_sc_hd__a21o_1
*I *4355:A2 I *D sky130_fd_sc_hd__a21bo_1
*I *4325:C I *D sky130_fd_sc_hd__nand3_1
*I *4324:X O *D sky130_fd_sc_hd__a21o_1
*CAP
1 *4326:A2 0.000402246
2 *4355:A2 3.48043e-05
3 *4325:C 0.000175248
4 *4324:X 0.000268276
5 *287:12 0.000227223
6 *287:8 0.000687692
7 *4325:C *984:91 0.000443673
8 *4326:A2 *824:16 5.50049e-05
9 *4355:A2 *984:91 7.27182e-05
10 *277:8 *4326:A2 0
11 *277:8 *287:8 0
12 *279:10 *4325:C 0
13 *279:10 *4355:A2 4.34745e-05
14 *279:12 *4325:C 0.000171725
15 *279:12 *4355:A2 9.5877e-05
16 *279:20 *4326:A2 0
17 *286:8 *4326:A2 0
18 *286:8 *287:8 0
19 *286:8 *287:12 0
20 *286:21 *4325:C 2.00144e-05
21 *286:34 *4326:A2 0.000189173
*RES
1 *4324:X *287:8 42.5468 
2 *287:8 *287:12 15.3211 
3 *287:12 *4325:C 29.2557 
4 *287:12 *4355:A2 24.5743 
5 *287:8 *4326:A2 45.5504 
*END

*D_NET *288 0.00224718
*CONN
*I *4329:A1 I *D sky130_fd_sc_hd__a21oi_1
*I *4328:A I *D sky130_fd_sc_hd__and3_1
*I *4325:Y O *D sky130_fd_sc_hd__nand3_1
*CAP
1 *4329:A1 0.000438045
2 *4328:A 0
3 *4325:Y 0.000244401
4 *288:10 0.000438045
5 *288:8 0.000244401
6 *4329:A1 *4328:C 0.000465908
7 *4329:A1 *824:16 3.78927e-05
8 *288:8 *291:8 0
9 *288:8 *776:8 0
10 *199:10 *288:8 0
11 *279:20 *288:8 0.000378483
*RES
1 *4325:Y *288:8 43.4271 
2 *288:8 *288:10 15 
3 *288:10 *4328:A 23 
4 *288:10 *4329:A1 29.8357 
*END

*D_NET *289 0.00139691
*CONN
*I *4328:B I *D sky130_fd_sc_hd__and3_1
*I *4329:A2 I *D sky130_fd_sc_hd__a21oi_1
*I *4326:X O *D sky130_fd_sc_hd__a21o_1
*CAP
1 *4328:B 2.34823e-05
2 *4329:A2 0.000273878
3 *4326:X 0.000119957
4 *289:6 0.000417316
5 *4329:A2 *4328:C 7.06229e-05
6 *4329:A2 *824:16 0.000266265
7 *289:6 *824:16 0.000225393
*RES
1 *4326:X *289:6 25.5271 
2 *289:6 *4329:A2 28.7586 
3 *289:6 *4328:B 23.4971 
*END

*D_NET *290 0.00179532
*CONN
*I *4328:C I *D sky130_fd_sc_hd__and3_1
*I *4329:B1 I *D sky130_fd_sc_hd__a21oi_1
*I *4327:Y O *D sky130_fd_sc_hd__nand2_1
*CAP
1 *4328:C 0.000193808
2 *4329:B1 0
3 *4327:Y 7.22291e-05
4 *290:12 0.000339586
5 *290:8 0.000218007
6 *4328:C *824:16 0.000131154
7 *4329:A1 *4328:C 0.000465908
8 *4329:A2 *4328:C 7.06229e-05
9 *196:10 *290:8 0.00019747
10 *266:23 *290:8 1.01436e-05
11 *268:8 *290:8 7.80251e-05
12 *268:23 *290:8 1.83667e-05
*RES
1 *4327:Y *290:8 40.61 
2 *290:8 *290:12 17.0507 
3 *290:12 *4329:B1 23 
4 *290:12 *4328:C 29.1729 
*END

*D_NET *291 0.00419032
*CONN
*I *4362:A_N I *D sky130_fd_sc_hd__nand3b_1
*I *4361:A I *D sky130_fd_sc_hd__nand3_1
*I *4331:A1 I *D sky130_fd_sc_hd__o21bai_1
*I *4330:A I *D sky130_fd_sc_hd__or3b_2
*I *4328:X O *D sky130_fd_sc_hd__and3_1
*CAP
1 *4362:A_N 0
2 *4361:A 0
3 *4331:A1 2.34823e-05
4 *4330:A 8.38575e-05
5 *4328:X 0.000184577
6 *291:40 0.000398095
7 *291:32 0.000764178
8 *291:21 0.000445045
9 *291:10 0.000139337
10 *291:8 0.000184577
11 *4330:A *4331:A2 0
12 *4330:A *293:28 0.000137651
13 *4331:A1 *4331:A2 0
14 *291:8 *776:8 4.334e-05
15 *291:8 *776:17 7.45997e-05
16 *291:21 *4331:A2 0.000107622
17 *291:21 *293:28 0.000216471
18 *291:32 *4362:C 3.7877e-05
19 *291:32 *293:28 0.000911263
20 *291:32 *293:41 9.41704e-05
21 *291:32 *324:10 2.72257e-05
22 *291:40 *293:47 6.16531e-05
23 *291:40 *323:20 1.24376e-05
24 *291:40 *323:44 0
25 *291:40 *824:16 0.000193379
26 *4331:B1_N *4330:A 4.57742e-05
27 *4331:B1_N *291:21 3.7122e-06
28 *288:8 *291:8 0
*RES
1 *4328:X *291:8 41.3143 
2 *291:8 *291:10 15 
3 *291:10 *4330:A 25.0714 
4 *291:10 *291:21 2.52714 
5 *291:21 *4331:A1 23.4971 
6 *291:21 *291:32 11.6 
7 *291:32 *291:40 37.5193 
8 *291:40 *4361:A 23 
9 *291:32 *4362:A_N 23 
*END

*D_NET *292 0.00199241
*CONN
*I *4331:A2 I *D sky130_fd_sc_hd__o21bai_1
*I *4330:B I *D sky130_fd_sc_hd__or3b_2
*I *4329:Y O *D sky130_fd_sc_hd__a21oi_1
*CAP
1 *4331:A2 0.000224772
2 *4330:B 0
3 *4329:Y 0.000202963
4 *292:12 0.000469446
5 *292:8 0.000447637
6 *292:8 *293:10 7.03869e-05
7 *292:8 *824:26 0
8 *4330:A *4331:A2 0
9 *4331:A1 *4331:A2 0
10 *4331:B1_N *4331:A2 0.000126914
11 *4331:B1_N *292:12 0.000185428
12 *196:10 *292:8 6.11286e-05
13 *199:10 *292:8 0
14 *268:23 *292:12 9.61128e-05
15 *291:21 *4331:A2 0.000107622
*RES
1 *4329:Y *292:8 42.3707 
2 *292:8 *292:12 18.9564 
3 *292:12 *4330:B 23 
4 *292:12 *4331:A2 27.35 
*END

*D_NET *293 0.00727889
*CONN
*I *4363:A I *D sky130_fd_sc_hd__nor2_1
*I *4364:A I *D sky130_fd_sc_hd__or2_1
*I *4362:B I *D sky130_fd_sc_hd__nand3b_1
*I *4333:A1 I *D sky130_fd_sc_hd__a21o_1
*I *4332:B I *D sky130_fd_sc_hd__and3_1
*I *4330:X O *D sky130_fd_sc_hd__or3b_2
*CAP
1 *4363:A 0.000379499
2 *4364:A 0
3 *4362:B 0
4 *4333:A1 7.37042e-05
5 *4332:B 0
6 *4330:X 0
7 *293:47 0.000253198
8 *293:41 0.000750395
9 *293:34 3.99866e-05
10 *293:28 0.00104655
11 *293:10 0.000411978
12 *293:4 0.00122714
13 *4333:A1 *294:25 0.000116314
14 *4363:A *4362:C 3.71369e-05
15 *4363:A *322:21 0.000159362
16 *293:10 *824:26 0.00035673
17 *293:28 *824:26 5.50049e-05
18 *293:34 *824:16 6.16531e-05
19 *293:41 *4362:C 1.21972e-05
20 *293:47 *322:36 0.00017865
21 *293:47 *323:44 0
22 *293:47 *824:10 9.8139e-05
23 *293:47 *824:16 8.67978e-05
24 *4330:A *293:28 0.000137651
25 *4331:B1_N *293:28 5.61255e-06
26 *196:10 *4333:A1 0.000216051
27 *196:10 *293:10 0.000221193
28 *199:10 *4333:A1 0
29 *199:10 *293:10 0
30 *291:21 *293:28 0.000216471
31 *291:32 *293:28 0.000911263
32 *291:32 *293:41 9.41704e-05
33 *291:40 *293:47 6.16531e-05
34 *292:8 *293:10 7.03869e-05
*RES
1 *4330:X *293:4 23 
2 *293:4 *293:10 21.9186 
3 *293:10 *4332:B 38 
4 *293:10 *4333:A1 40.9621 
5 *293:4 *293:28 14.9143 
6 *293:28 *293:34 30.8493 
7 *293:34 *4362:B 23 
8 *293:28 *293:41 1.57429 
9 *293:41 *293:47 36.1314 
10 *293:47 *4364:A 23 
11 *293:41 *4363:A 29.235 
*END

*D_NET *294 0.00167694
*CONN
*I *4333:A2 I *D sky130_fd_sc_hd__a21o_1
*I *4332:C I *D sky130_fd_sc_hd__and3_1
*I *4331:Y O *D sky130_fd_sc_hd__o21bai_1
*CAP
1 *4333:A2 0
2 *4332:C 3.47049e-05
3 *4331:Y 0.000147813
4 *294:25 8.3186e-05
5 *294:12 0.00054697
6 *294:8 0.000576892
7 *294:8 *776:17 0
8 *294:12 *295:10 0.00010018
9 *294:25 *295:10 4.48671e-05
10 *4333:A1 *294:25 0.000116314
11 *196:10 *294:25 2.60152e-05
12 *199:10 *294:25 0
*RES
1 *4331:Y *294:8 40.61 
2 *294:8 *294:12 22.2914 
3 *294:12 *4332:C 23.4557 
4 *294:12 *294:25 32.2579 
5 *294:25 *4333:A2 23 
*END

*D_NET *295 0.00209146
*CONN
*I *4368:B1 I *D sky130_fd_sc_hd__a21o_1
*I *4334:A_N I *D sky130_fd_sc_hd__nand2b_1
*I *4332:X O *D sky130_fd_sc_hd__and3_1
*CAP
1 *4368:B1 3.62665e-05
2 *4334:A_N 0
3 *4332:X 0.000164135
4 *295:26 0.000348994
5 *295:12 0.000385261
6 *295:10 0.000164135
7 *295:26 *4332:A 2.76611e-06
8 *295:26 *4334:B 0.000228909
9 *295:26 *4368:A1 2.55136e-05
10 *295:26 *298:16 0.000576993
11 *295:26 *823:40 1.34354e-05
12 *182:91 *295:26 0
13 *199:10 *295:10 0
14 *294:12 *295:10 0.00010018
15 *294:25 *295:10 4.48671e-05
*RES
1 *4332:X *295:10 41.0036 
2 *295:10 *295:12 15 
3 *295:12 *295:26 38.8036 
4 *295:26 *4334:A_N 23 
5 *295:12 *4368:B1 23.6214 
*END

*D_NET *296 0.00119017
*CONN
*I *4368:A1 I *D sky130_fd_sc_hd__a21o_1
*I *4334:B I *D sky130_fd_sc_hd__nand2b_1
*I *4333:X O *D sky130_fd_sc_hd__a21o_1
*CAP
1 *4368:A1 0.000192256
2 *4334:B 0.000177217
3 *4333:X 0
4 *296:4 0.000369473
5 *4334:B *298:16 5.41245e-05
6 *4368:A1 *298:16 0.000142677
7 *295:26 *4334:B 0.000228909
8 *295:26 *4368:A1 2.55136e-05
*RES
1 *4333:X *296:4 23 
2 *296:4 *4334:B 27.1273 
3 *296:4 *4368:A1 26.48 
*END

*D_NET *297 0.00104249
*CONN
*I *4336:A I *D sky130_fd_sc_hd__xnor2_1
*I *4334:Y O *D sky130_fd_sc_hd__nand2b_1
*CAP
1 *4336:A 0.000324565
2 *4334:Y 9.79436e-05
3 *297:8 0.000422509
4 *297:8 *972:107 0.00019747
*RES
1 *4334:Y *297:8 40.61 
2 *297:8 *4336:A 43.8621 
*END

*D_NET *298 0.00339328
*CONN
*I *4336:B I *D sky130_fd_sc_hd__xnor2_1
*I *4368:A2 I *D sky130_fd_sc_hd__a21o_1
*I *4335:X O *D sky130_fd_sc_hd__a21bo_1
*CAP
1 *4336:B 0.000139935
2 *4368:A2 0
3 *4335:X 0.000493733
4 *298:16 0.000655734
5 *298:10 0.0012894
6 *298:10 *4308:A 4.06849e-05
7 *4334:B *298:16 5.41245e-05
8 *4368:A1 *298:16 0.000142677
9 *192:12 *4336:B 0
10 *192:12 *298:10 0
11 *295:26 *298:16 0.000576993
*RES
1 *4335:X *298:10 46.99 
2 *298:10 *298:16 29.4586 
3 *298:16 *4368:A2 23 
4 *298:10 *4336:B 40.61 
*END

*D_NET *299 0.000908626
*CONN
*I *4337:A1 I *D sky130_fd_sc_hd__mux2_1
*I *4336:Y O *D sky130_fd_sc_hd__xnor2_1
*CAP
1 *4337:A1 2.01521e-05
2 *4336:Y 0.000335676
3 *299:8 0.000355828
4 *4337:A1 *839:93 9.84851e-05
5 *4337:A1 *1009:42 9.84851e-05
6 *299:8 *823:29 0
7 *299:8 *972:107 0
8 *183:28 *299:8 0
9 *192:12 *299:8 0
*RES
1 *4336:Y *299:8 42.7229 
2 *299:8 *4337:A1 39.0979 
*END

*D_NET *300 0.000509142
*CONN
*I *4338:B I *D sky130_fd_sc_hd__and2_1
*I *4337:X O *D sky130_fd_sc_hd__mux2_1
*CAP
1 *4338:B 0
2 *4337:X 0.000225401
3 *300:10 0.000225401
4 *300:10 *839:93 5.83407e-05
5 *300:10 *844:12 0
*RES
1 *4337:X *300:10 41.48 
2 *300:10 *4338:B 38 
*END

*D_NET *301 0.00296223
*CONN
*I *4373:B1 I *D sky130_fd_sc_hd__a211oi_1
*I *4372:A1 I *D sky130_fd_sc_hd__o211a_1
*I *4341:A I *D sky130_fd_sc_hd__or2_1
*I *4339:X O *D sky130_fd_sc_hd__and4_1
*CAP
1 *4373:B1 0
2 *4372:A1 0
3 *4341:A 0
4 *4339:X 0.000336564
5 *301:31 0.000380827
6 *301:19 0.000555785
7 *301:8 0.000511522
8 *301:8 *4340:A1 0.000181919
9 *301:8 *4341:B 5.3304e-05
10 *301:8 *4343:B 1.41077e-05
11 *301:8 *1003:116 7.27694e-06
12 *301:8 *1005:114 9.69599e-06
13 *301:19 *4343:A 5.50517e-05
14 *301:19 *4343:B 0.000108888
15 *301:19 *4372:C1 0.00014196
16 *301:19 *305:10 0.000169581
17 *301:19 *977:117 0.000207134
18 *301:31 *4372:A2 0.000224573
19 *301:31 *333:10 4.04598e-06
20 *301:31 *1008:31 0
*RES
1 *4339:X *301:8 27.93 
2 *301:8 *4341:A 23 
3 *301:8 *301:19 6.50429 
4 *301:19 *301:31 35.8 
5 *301:31 *4372:A1 23 
6 *301:19 *4373:B1 23 
*END

*D_NET *302 0.000440834
*CONN
*I *4341:B I *D sky130_fd_sc_hd__or2_1
*I *4340:Y O *D sky130_fd_sc_hd__a22oi_1
*CAP
1 *4341:B 2.50949e-05
2 *4340:Y 0.00010694
3 *302:12 0.000132034
4 *4341:B *1005:114 1.39317e-05
5 *302:12 *4344:B 6.35146e-05
6 *302:12 *304:14 1.14452e-05
7 *302:12 *1003:116 2.11157e-05
8 *302:12 *1006:67 1.34542e-05
9 *301:8 *4341:B 5.3304e-05
*RES
1 *4340:Y *302:12 40.4443 
2 *302:12 *4341:B 38.6214 
*END

*D_NET *303 0.00146963
*CONN
*I *4344:A I *D sky130_fd_sc_hd__xor2_1
*I *4343:A I *D sky130_fd_sc_hd__nor2_1
*I *4341:X O *D sky130_fd_sc_hd__or2_1
*CAP
1 *4344:A 0.000362662
2 *4343:A 8.41902e-05
3 *4341:X 0
4 *303:6 0.000446853
5 *4343:A *4343:B 6.01594e-05
6 *4343:A *4344:B 0
7 *4343:A *977:117 6.16531e-05
8 *4344:A *4344:B 9.84794e-05
9 *4344:A *306:10 0.000157834
10 *4344:A *313:10 0.000131304
11 *4344:A *977:117 1.14452e-05
12 *4344:A *1006:73 0
13 *4344:A *1008:55 0
14 *301:19 *4343:A 5.50517e-05
*RES
1 *4341:X *303:6 38 
2 *303:6 *4343:A 39.7918 
3 *303:6 *4344:A 46.555 
*END

*D_NET *304 0.00218856
*CONN
*I *4343:B I *D sky130_fd_sc_hd__nor2_1
*I *4344:B I *D sky130_fd_sc_hd__xor2_1
*I *4342:Y O *D sky130_fd_sc_hd__nand2_1
*CAP
1 *4343:B 0.000127858
2 *4344:B 0.00035286
3 *4342:Y 0.00028796
4 *304:14 0.000768678
5 *4343:B *305:10 1.32314e-05
6 *4343:B *977:117 0
7 *4343:B *1005:114 0.000144067
8 *4344:B *977:117 0
9 *4344:B *1006:73 0
10 *304:14 *4342:A 0.00010018
11 *304:14 *977:117 0
12 *304:14 *1006:67 6.3239e-06
13 *304:14 *1008:31 3.08071e-05
14 *4343:A *4343:B 6.01594e-05
15 *4343:A *4344:B 0
16 *4344:A *4344:B 9.84794e-05
17 *301:8 *4343:B 1.41077e-05
18 *301:19 *4343:B 0.000108888
19 *302:12 *4344:B 6.35146e-05
20 *302:12 *304:14 1.14452e-05
*RES
1 *4342:Y *304:14 43.2511 
2 *304:14 *4344:B 45.0532 
3 *304:14 *4343:B 42.4432 
*END

*D_NET *305 0.00134238
*CONN
*I *4372:A2 I *D sky130_fd_sc_hd__o211a_1
*I *4373:C1 I *D sky130_fd_sc_hd__a211oi_1
*I *4343:Y O *D sky130_fd_sc_hd__nor2_1
*CAP
1 *4372:A2 8.09235e-05
2 *4373:C1 0
3 *4343:Y 9.31372e-05
4 *305:10 0.000174061
5 *4372:A2 *4372:B1 2.90712e-05
6 *4372:A2 *4372:C1 0.000141052
7 *4372:A2 *334:10 2.4754e-05
8 *4372:A2 *1005:114 2.18409e-05
9 *305:10 *4372:C1 3.04516e-05
10 *305:10 *1005:114 0.000339704
11 *4343:B *305:10 1.32314e-05
12 *301:19 *305:10 0.000169581
13 *301:31 *4372:A2 0.000224573
*RES
1 *4343:Y *305:10 27.5986 
2 *305:10 *4373:C1 23 
3 *305:10 *4372:A2 26.5007 
*END

*D_NET *306 0.0016503
*CONN
*I *4353:A I *D sky130_fd_sc_hd__nand3_1
*I *4354:B1 I *D sky130_fd_sc_hd__a21o_1
*I *4393:A1 I *D sky130_fd_sc_hd__a21bo_1
*I *4344:X O *D sky130_fd_sc_hd__xor2_1
*CAP
1 *4353:A 4.5158e-05
2 *4354:B1 5.92313e-05
3 *4393:A1 0
4 *4344:X 0.000304617
5 *306:23 0.000214681
6 *306:10 0.000414909
7 *4353:A *4353:B 5.64664e-05
8 *4353:A *4353:C 6.47312e-05
9 *4353:A *4354:A1 1.72339e-05
10 *4354:B1 *4354:A1 6.81213e-05
11 *4354:B1 *313:27 3.61695e-05
12 *306:10 *313:10 0
13 *306:10 *313:27 0
14 *306:10 *314:18 1.14452e-05
15 *306:10 *1008:55 0
16 *306:23 *4353:C 0
17 *306:23 *313:27 0
18 *306:23 *314:18 0.000199701
19 *4344:A *306:10 0.000157834
*RES
1 *4344:X *306:10 43.4893 
2 *306:10 *4393:A1 38 
3 *306:10 *306:23 18.1071 
4 *306:23 *4354:B1 24.595 
5 *306:23 *4353:A 24.595 
*END

*D_NET *307 0.0017798
*CONN
*I *4349:B1 I *D sky130_fd_sc_hd__o21ai_1
*I *4348:A I *D sky130_fd_sc_hd__or3_1
*I *4388:A1 I *D sky130_fd_sc_hd__o21bai_1
*I *4345:Y O *D sky130_fd_sc_hd__nand2_1
*CAP
1 *4349:B1 0.000126372
2 *4348:A 0
3 *4388:A1 0
4 *4345:Y 6.449e-05
5 *307:21 0.000154733
6 *307:14 0.000146169
7 *307:6 0.00023902
8 *4349:B1 *4349:A2 0.000221992
9 *4349:B1 *311:12 0.000102093
10 *4349:B1 *986:101 2.02872e-05
11 *4349:B1 *1000:97 1.21972e-05
12 *307:6 *4348:C 5.3304e-05
13 *307:6 *4349:A2 5.3304e-05
14 *307:6 *986:84 3.22879e-05
15 *307:6 *986:101 2.32004e-05
16 *307:14 *4349:A2 3.47781e-05
17 *307:14 *308:21 0.000141901
18 *307:14 *309:14 0.000185755
19 *307:14 *986:101 6.7177e-06
20 *307:21 *4348:C 4.2573e-05
21 *307:21 *4349:A2 9.67842e-05
22 *307:21 *986:101 2.18409e-05
*RES
1 *4345:Y *307:6 24.5743 
2 *307:6 *307:14 33.5836 
3 *307:14 *4388:A1 23 
4 *307:6 *307:21 1.09786 
5 *307:21 *4348:A 23 
6 *307:21 *4349:B1 26.48 
*END

*D_NET *308 0.00248908
*CONN
*I *4349:A1 I *D sky130_fd_sc_hd__o21ai_1
*I *4348:B I *D sky130_fd_sc_hd__or3_1
*I *4388:B1_N I *D sky130_fd_sc_hd__o21bai_1
*I *4346:X O *D sky130_fd_sc_hd__and4_1
*CAP
1 *4349:A1 0
2 *4348:B 0
3 *4388:B1_N 0
4 *4346:X 0.000104867
5 *308:34 0.000180991
6 *308:21 0.000537499
7 *308:6 0.000461376
8 *308:6 *309:10 0.000313249
9 *308:6 *999:59 5.41288e-05
10 *308:21 *4349:A2 6.7177e-06
11 *308:21 *309:10 0.000172783
12 *308:21 *310:10 0
13 *308:21 *311:12 2.54046e-05
14 *308:21 *986:101 0.000136486
15 *308:21 *1001:71 0
16 *308:34 *4349:A2 0.000181125
17 *308:34 *310:10 8.62783e-05
18 *308:34 *311:12 8.62783e-05
19 *307:14 *308:21 0.000141901
*RES
1 *4346:X *308:6 26.48 
2 *308:6 *4388:B1_N 23 
3 *308:6 *308:21 37.5193 
4 *308:21 *4348:B 23 
5 *308:21 *308:34 33.2521 
6 *308:34 *4349:A1 23 
*END

*D_NET *309 0.00342358
*CONN
*I *4388:A2 I *D sky130_fd_sc_hd__o21bai_1
*I *4349:A2 I *D sky130_fd_sc_hd__o21ai_1
*I *4348:C I *D sky130_fd_sc_hd__or3_1
*I *4347:Y O *D sky130_fd_sc_hd__a22oi_2
*CAP
1 *4388:A2 0
2 *4349:A2 0.000189389
3 *4348:C 3.28208e-05
4 *4347:Y 0.000553399
5 *309:14 0.000343278
6 *309:10 0.000674467
7 *4348:C *986:101 9.5877e-05
8 *4349:A2 *1001:71 2.04774e-05
9 *309:10 *4346:A 1.5769e-05
10 *309:10 *4346:B 2.65879e-05
11 *309:10 *4346:C 5.14746e-06
12 *309:10 *988:102 6.17437e-06
13 *309:10 *999:59 3.53115e-05
14 *309:14 *1001:71 4.21594e-06
15 *309:14 *1001:77 5.83025e-05
16 *4349:B1 *4349:A2 0.000221992
17 *307:6 *4348:C 5.3304e-05
18 *307:6 *4349:A2 5.3304e-05
19 *307:14 *4349:A2 3.47781e-05
20 *307:14 *309:14 0.000185755
21 *307:21 *4348:C 4.2573e-05
22 *307:21 *4349:A2 9.67842e-05
23 *308:6 *309:10 0.000313249
24 *308:21 *4349:A2 6.7177e-06
25 *308:21 *309:10 0.000172783
26 *308:34 *4349:A2 0.000181125
*RES
1 *4347:Y *309:10 32.5907 
2 *309:10 *309:14 17.61 
3 *309:14 *4348:C 39.0979 
4 *309:14 *4349:A2 42.8057 
5 *309:10 *4388:A2 23 
*END

*D_NET *310 0.00223223
*CONN
*I *4351:A I *D sky130_fd_sc_hd__nand3_1
*I *4352:A1 I *D sky130_fd_sc_hd__a21o_1
*I *4348:X O *D sky130_fd_sc_hd__or3_1
*CAP
1 *4351:A 0.000198006
2 *4352:A1 2.34367e-05
3 *4348:X 0.00051773
4 *310:12 0.000221443
5 *310:10 0.00051773
6 *4351:A *4351:B 3.34247e-05
7 *4351:A *4351:C 0.000141954
8 *4351:A *312:10 2.70917e-05
9 *4351:A *313:10 3.7122e-06
10 *4352:A1 *312:10 5.50049e-05
11 *310:10 *4351:B 6.07611e-06
12 *310:10 *311:12 0.000397574
13 *310:10 *792:39 0
14 *310:10 *1000:93 2.76611e-06
15 *308:21 *310:10 0
16 *308:34 *310:10 8.62783e-05
*RES
1 *4348:X *310:10 48.7507 
2 *310:10 *310:12 15 
3 *310:12 *4352:A1 23.6214 
4 *310:12 *4351:A 27.4743 
*END

*D_NET *311 0.00244277
*CONN
*I *4351:B I *D sky130_fd_sc_hd__nand3_1
*I *4352:A2 I *D sky130_fd_sc_hd__a21o_1
*I *4349:Y O *D sky130_fd_sc_hd__o21ai_1
*CAP
1 *4351:B 0.000333582
2 *4352:A2 0
3 *4349:Y 0.000455725
4 *311:12 0.000789307
5 *4351:B *4351:C 7.1349e-05
6 *4351:B *312:10 0.00014196
7 *4351:B *792:39 0
8 *311:12 *4345:A 0
9 *311:12 *1001:71 0
10 *4349:B1 *311:12 0.000102093
11 *4351:A *4351:B 3.34247e-05
12 *308:21 *311:12 2.54046e-05
13 *308:34 *311:12 8.62783e-05
14 *310:10 *4351:B 6.07611e-06
15 *310:10 *311:12 0.000397574
*RES
1 *4349:Y *311:12 49.4964 
2 *311:12 *4352:A2 38 
3 *311:12 *4351:B 43.3029 
*END

*D_NET *312 0.00181573
*CONN
*I *4351:C I *D sky130_fd_sc_hd__nand3_1
*I *4352:B1 I *D sky130_fd_sc_hd__a21o_1
*I *4350:Y O *D sky130_fd_sc_hd__o21bai_1
*CAP
1 *4351:C 3.05173e-05
2 *4352:B1 0
3 *4350:Y 0.000476646
4 *312:10 0.000507163
5 *4320:C *312:10 0.000187129
6 *4351:A *4351:C 0.000141954
7 *4351:A *312:10 2.70917e-05
8 *4351:B *4351:C 7.1349e-05
9 *4351:B *312:10 0.00014196
10 *4352:A1 *312:10 5.50049e-05
11 *280:12 *312:10 2.18409e-05
12 *282:25 *312:10 1.14154e-05
13 *283:10 *312:10 0.000143655
*RES
1 *4350:Y *312:10 33.6679 
2 *312:10 *4352:B1 23 
3 *312:10 *4351:C 24.5743 
*END

*D_NET *313 0.00267722
*CONN
*I *4353:B I *D sky130_fd_sc_hd__nand3_1
*I *4354:A1 I *D sky130_fd_sc_hd__a21o_1
*I *4393:B1_N I *D sky130_fd_sc_hd__a21bo_1
*I *4351:Y O *D sky130_fd_sc_hd__nand3_1
*CAP
1 *4353:B 0.000101286
2 *4354:A1 1.84558e-05
3 *4393:B1_N 0
4 *4351:Y 0.000726813
5 *313:27 0.000443513
6 *313:10 0.00105058
7 *4353:B *4353:C 2.35625e-05
8 *313:10 *1006:73 0
9 *313:27 *4354:A2 0
10 *313:27 *1006:73 0
11 *4344:A *313:10 0.000131304
12 *4351:A *313:10 3.7122e-06
13 *4353:A *4353:B 5.64664e-05
14 *4353:A *4354:A1 1.72339e-05
15 *4354:B1 *4354:A1 6.81213e-05
16 *4354:B1 *313:27 3.61695e-05
17 *306:10 *313:10 0
18 *306:10 *313:27 0
19 *306:23 *313:27 0
*RES
1 *4351:Y *313:10 47.9221 
2 *313:10 *4393:B1_N 38 
3 *313:10 *313:27 21.235 
4 *313:27 *4354:A1 24.1186 
5 *313:27 *4353:B 25.5479 
*END

*D_NET *314 0.00301562
*CONN
*I *4393:A2 I *D sky130_fd_sc_hd__a21bo_1
*I *4354:A2 I *D sky130_fd_sc_hd__a21o_1
*I *4353:C I *D sky130_fd_sc_hd__nand3_1
*I *4352:X O *D sky130_fd_sc_hd__a21o_1
*CAP
1 *4393:A2 0
2 *4354:A2 6.9203e-05
3 *4353:C 0.000151713
4 *4352:X 9.34236e-05
5 *314:18 0.000325229
6 *314:14 0.000974394
7 *314:8 0.000963504
8 *4354:A2 *1008:55 0
9 *314:8 *792:39 0.000138718
10 *314:18 *1008:55 0
11 *4353:A *4353:C 6.47312e-05
12 *4353:B *4353:C 2.35625e-05
13 *306:10 *314:18 1.14452e-05
14 *306:23 *4353:C 0
15 *306:23 *314:18 0.000199701
16 *313:27 *4354:A2 0
*RES
1 *4352:X *314:8 39.9057 
2 *314:8 *314:14 28.5057 
3 *314:14 *314:18 17.61 
4 *314:18 *4353:C 40.9 
5 *314:18 *4354:A2 38.8493 
6 *314:14 *4393:A2 23 
*END

*D_NET *315 0.00154902
*CONN
*I *4357:A1 I *D sky130_fd_sc_hd__a21o_1
*I *4356:A I *D sky130_fd_sc_hd__nand3_2
*I *4353:Y O *D sky130_fd_sc_hd__nand3_1
*CAP
1 *4357:A1 0.000321283
2 *4356:A 0
3 *4353:Y 0.000264785
4 *315:10 0.000321283
5 *315:8 0.000264785
6 *4357:A1 *4356:B 0.000184527
7 *4357:A1 *4356:C 1.57571e-05
8 *4357:A1 *318:12 5.29672e-05
9 *4357:A1 *318:34 2.53761e-05
10 *315:8 *316:8 0
11 *315:8 *318:12 0
12 *315:8 *320:38 1.19796e-05
13 *315:8 *1008:55 8.62783e-05
*RES
1 *4353:Y *315:8 43.075 
2 *315:8 *315:10 15 
3 *315:10 *4356:A 23 
4 *315:10 *4357:A1 28.2821 
*END

*D_NET *316 0.00105546
*CONN
*I *4356:B I *D sky130_fd_sc_hd__nand3_2
*I *4357:A2 I *D sky130_fd_sc_hd__a21o_1
*I *4354:X O *D sky130_fd_sc_hd__a21o_1
*CAP
1 *4356:B 8.03827e-05
2 *4357:A2 0
3 *4354:X 0.000287568
4 *316:10 8.03827e-05
5 *316:8 0.000287568
6 *4356:B *4356:C 4.88051e-05
7 *4356:B *317:8 1.37232e-05
8 *4356:B *318:12 5.41385e-05
9 *316:8 *318:12 1.83667e-05
10 *316:8 *1006:73 0
11 *4357:A1 *4356:B 0.000184527
12 *315:8 *316:8 0
*RES
1 *4354:X *316:8 43.075 
2 *316:8 *316:10 15 
3 *316:10 *4357:A2 23 
4 *316:10 *4356:B 26.045 
*END

*D_NET *317 0.00244568
*CONN
*I *4357:B1 I *D sky130_fd_sc_hd__a21o_1
*I *4356:C I *D sky130_fd_sc_hd__nand3_2
*I *4355:X O *D sky130_fd_sc_hd__a21bo_1
*CAP
1 *4357:B1 0
2 *4356:C 0.000137832
3 *4355:X 0.000588444
4 *317:8 0.000726276
5 *317:8 *984:91 7.43025e-06
6 *4316:A *317:8 9.84851e-05
7 *4356:B *4356:C 4.88051e-05
8 *4356:B *317:8 1.37232e-05
9 *4357:A1 *4356:C 1.57571e-05
10 *278:23 *317:8 0.000661952
11 *279:10 *317:8 0.000146971
*RES
1 *4355:X *317:8 36.5057 
2 *317:8 *4356:C 26.045 
3 *317:8 *4357:B1 23 
*END

*D_NET *318 0.00302649
*CONN
*I *4399:A1 I *D sky130_fd_sc_hd__a211oi_2
*I *4400:B1 I *D sky130_fd_sc_hd__o211a_1
*I *4358:B I *D sky130_fd_sc_hd__nand3_2
*I *4359:A1 I *D sky130_fd_sc_hd__a21o_1
*I *4356:Y O *D sky130_fd_sc_hd__nand3_2
*CAP
1 *4399:A1 3.65708e-05
2 *4400:B1 0
3 *4358:B 0
4 *4359:A1 0.000147454
5 *4356:Y 0
6 *318:40 0.000112304
7 *318:34 0.000535686
8 *318:12 0.000435766
9 *318:4 0.000675123
10 *4359:A1 *4358:C 0.000188198
11 *4359:A1 *319:14 5.67058e-05
12 *318:12 *319:8 0
13 *318:12 *320:38 0
14 *318:34 *320:38 0.000488055
15 *318:40 *4399:B1 0
16 *318:40 *320:44 0.000114645
17 *318:40 *357:10 0
18 *318:40 *361:10 8.51329e-05
19 *4356:B *318:12 5.41385e-05
20 *4357:A1 *318:12 5.29672e-05
21 *4357:A1 *318:34 2.53761e-05
22 *278:23 *318:12 0
23 *315:8 *318:12 0
24 *316:8 *318:12 1.83667e-05
*RES
1 *4356:Y *318:4 23 
2 *318:4 *318:12 35.4893 
3 *318:12 *4359:A1 26.6457 
4 *318:12 *4358:B 23 
5 *318:4 *318:34 8.88643 
6 *318:34 *318:40 33.3143 
7 *318:40 *4400:B1 23 
8 *318:34 *4399:A1 23.6214 
*END

*D_NET *319 0.0010978
*CONN
*I *4358:C I *D sky130_fd_sc_hd__nand3_2
*I *4359:A2 I *D sky130_fd_sc_hd__a21o_1
*I *4357:X O *D sky130_fd_sc_hd__a21o_1
*CAP
1 *4358:C 9.00182e-05
2 *4359:A2 0
3 *4357:X 5.69925e-05
4 *319:14 0.000163403
5 *319:8 0.000130377
6 *4358:C *772:38 0.000274078
7 *319:14 *772:38 4.95081e-05
8 *4359:A1 *4358:C 0.000188198
9 *4359:A1 *319:14 5.67058e-05
10 *278:23 *319:8 8.85189e-05
11 *318:12 *319:8 0
*RES
1 *4357:X *319:8 39.2014 
2 *319:8 *319:14 16.9471 
3 *319:14 *4359:A2 23 
4 *319:14 *4358:C 26.9979 
*END

*D_NET *320 0.00396578
*CONN
*I *4399:A2 I *D sky130_fd_sc_hd__a211oi_2
*I *4400:C1 I *D sky130_fd_sc_hd__o211a_1
*I *4361:B I *D sky130_fd_sc_hd__nand3_1
*I *4360:A I *D sky130_fd_sc_hd__nand2_1
*I *4358:Y O *D sky130_fd_sc_hd__nand3_2
*CAP
1 *4399:A2 0
2 *4400:C1 0
3 *4361:B 0.000121517
4 *4360:A 0
5 *4358:Y 3.83793e-05
6 *320:44 0.000117559
7 *320:38 0.000869701
8 *320:14 0.00030732
9 *320:6 0.000976325
10 *4361:B *4360:B 9.84851e-05
11 *4361:B *322:10 0.00010018
12 *4361:B *323:20 8.99287e-05
13 *320:6 *772:38 5.67058e-05
14 *320:14 *321:10 0
15 *320:14 *323:20 9.84794e-05
16 *320:38 *772:38 0.000476518
17 *315:8 *320:38 1.19796e-05
18 *318:12 *320:38 0
19 *318:34 *320:38 0.000488055
20 *318:40 *320:44 0.000114645
*RES
1 *4358:Y *320:6 23.6214 
2 *320:6 *320:14 33.3557 
3 *320:14 *4360:A 23 
4 *320:14 *4361:B 26.5007 
5 *320:6 *320:38 44.79 
6 *320:38 *320:44 32.9621 
7 *320:44 *4400:C1 23 
8 *320:38 *4399:A2 23 
*END

*D_NET *321 0.000757265
*CONN
*I *4360:B I *D sky130_fd_sc_hd__nand2_1
*I *4361:C I *D sky130_fd_sc_hd__nand3_1
*I *4359:X O *D sky130_fd_sc_hd__a21o_1
*CAP
1 *4360:B 2.01521e-05
2 *4361:C 0
3 *4359:X 0.000200561
4 *321:12 2.01521e-05
5 *321:10 0.000200561
6 *4360:B *323:20 9.84851e-05
7 *321:10 *323:20 1.86869e-05
8 *321:10 *772:38 0.00010018
9 *4361:B *4360:B 9.84851e-05
10 *320:14 *321:10 0
*RES
1 *4359:X *321:10 41.3557 
2 *321:10 *321:12 15 
3 *321:12 *4361:C 23 
4 *321:12 *4360:B 24.0979 
*END

*D_NET *322 0.00223706
*CONN
*I *4364:B I *D sky130_fd_sc_hd__or2_1
*I *4362:C I *D sky130_fd_sc_hd__nand3b_1
*I *4363:B I *D sky130_fd_sc_hd__nor2_1
*I *4360:Y O *D sky130_fd_sc_hd__nand2_1
*CAP
1 *4364:B 0
2 *4362:C 0.000141868
3 *4363:B 0
4 *4360:Y 0.00019027
5 *322:36 0.000252575
6 *322:21 0.000650873
7 *322:12 0.000256429
8 *322:10 0.00019027
9 *322:10 *323:20 0
10 *322:10 *323:44 0
11 *322:21 *325:8 2.93747e-05
12 *322:36 *323:44 0
13 *4361:B *322:10 0.00010018
14 *4363:A *4362:C 3.71369e-05
15 *4363:A *322:21 0.000159362
16 *291:32 *4362:C 3.7877e-05
17 *293:41 *4362:C 1.21972e-05
18 *293:47 *322:36 0.00017865
*RES
1 *4360:Y *322:10 41.0036 
2 *322:10 *322:12 15 
3 *322:12 *4363:B 23 
4 *322:12 *322:21 5.88286 
5 *322:21 *4362:C 25.5479 
6 *322:21 *322:36 35.075 
7 *322:36 *4364:B 23 
*END

*D_NET *323 0.00524017
*CONN
*I *4365:B I *D sky130_fd_sc_hd__and4_1
*I *4366:A1 I *D sky130_fd_sc_hd__a31o_1
*I *4402:B1 I *D sky130_fd_sc_hd__o21ai_1
*I *4401:A I *D sky130_fd_sc_hd__or3_1
*I *4361:Y O *D sky130_fd_sc_hd__nand3_1
*CAP
1 *4365:B 0.000263004
2 *4366:A1 0
3 *4402:B1 5.29878e-05
4 *4401:A 0
5 *4361:Y 0
6 *323:44 0.000662028
7 *323:26 0.000154286
8 *323:20 0.00128156
9 *323:6 0.00147331
10 *4365:B *4366:A2 1.76557e-05
11 *4365:B *4366:A3 0.000243955
12 *4365:B *4366:B1 9.24795e-06
13 *4402:B1 *4402:A2 0.000272383
14 *4402:B1 *4412:A2 5.67058e-05
15 *4402:B1 *325:27 5.67058e-05
16 *4402:B1 *363:8 8.6949e-05
17 *323:20 *4402:A2 1.41129e-05
18 *323:20 *4412:B1_N 5.50049e-05
19 *323:20 *363:8 0
20 *323:26 *4402:A1 0
21 *323:26 *4402:A2 3.72639e-05
22 *323:26 *360:32 0
23 *323:26 *361:10 6.07611e-06
24 *323:26 *362:10 0.000136486
25 *323:26 *362:21 1.01436e-05
26 *323:44 *4366:B1 3.22879e-05
27 *4360:B *323:20 9.84851e-05
28 *4361:B *323:20 8.99287e-05
29 *291:40 *323:20 1.24376e-05
30 *291:40 *323:44 0
31 *293:47 *323:44 0
32 *320:14 *323:20 9.84794e-05
33 *321:10 *323:20 1.86869e-05
34 *322:10 *323:20 0
35 *322:10 *323:44 0
36 *322:36 *323:44 0
*RES
1 *4361:Y *323:6 38 
2 *323:6 *323:20 35.9629 
3 *323:20 *323:26 32.9621 
4 *323:26 *4401:A 23 
5 *323:20 *4402:B1 26.0036 
6 *323:6 *323:44 22.1257 
7 *323:44 *4366:A1 23 
8 *323:44 *4365:B 27.3293 
*END

*D_NET *324 0.0013391
*CONN
*I *4365:C I *D sky130_fd_sc_hd__and4_1
*I *4366:A2 I *D sky130_fd_sc_hd__a31o_1
*I *4362:Y O *D sky130_fd_sc_hd__nand3b_1
*CAP
1 *4365:C 0
2 *4366:A2 0.00013148
3 *4362:Y 0.000197883
4 *324:12 0.00013148
5 *324:10 0.000197883
6 *4366:A2 *4366:A3 0.000139774
7 *4366:A2 *4366:B1 0.000182832
8 *4366:A2 *328:10 2.02872e-05
9 *4366:A2 *824:35 9.67842e-05
10 *324:10 *328:10 3.2457e-05
11 *324:10 *824:10 5.24393e-05
12 *324:10 *824:16 0.000110922
13 *4365:B *4366:A2 1.76557e-05
14 *291:32 *324:10 2.72257e-05
*RES
1 *4362:Y *324:10 41.3557 
2 *324:10 *324:12 15 
3 *324:12 *4366:A2 26.9771 
4 *324:12 *4365:C 23 
*END

*D_NET *325 0.00273526
*CONN
*I *4404:A I *D sky130_fd_sc_hd__nand3_1
*I *4412:A1 I *D sky130_fd_sc_hd__a21bo_1
*I *4403:B1 I *D sky130_fd_sc_hd__a21o_1
*I *4363:Y O *D sky130_fd_sc_hd__nor2_1
*CAP
1 *4404:A 0
2 *4412:A1 0
3 *4403:B1 0
4 *4363:Y 0.000872398
5 *325:27 0.000147077
6 *325:19 0.000264462
7 *325:8 0.000989782
8 *325:8 *4403:A2 1.37232e-05
9 *325:8 *364:10 3.06338e-05
10 *325:19 *4403:A2 3.48873e-05
11 *325:19 *4404:B 0.000137624
12 *325:27 *4404:B 3.55887e-05
13 *325:27 *362:21 7.03869e-05
14 *325:27 *363:21 5.26204e-05
15 *4402:B1 *325:27 5.67058e-05
16 *322:21 *325:8 2.93747e-05
*RES
1 *4363:Y *325:8 38.4114 
2 *325:8 *4403:B1 23 
3 *325:8 *325:19 3.045 
4 *325:19 *325:27 33.2314 
5 *325:27 *4412:A1 23 
6 *325:19 *4404:A 23 
*END

*D_NET *326 0.00121188
*CONN
*I *4365:D I *D sky130_fd_sc_hd__and4_1
*I *4366:A3 I *D sky130_fd_sc_hd__a31o_1
*I *4364:X O *D sky130_fd_sc_hd__or2_1
*CAP
1 *4365:D 0
2 *4366:A3 0.000165555
3 *4364:X 0.000130822
4 *326:12 0.000165555
5 *326:10 0.000130822
6 *4366:A3 *328:10 1.14762e-05
7 *326:10 *327:10 8.62876e-05
8 *326:10 *369:10 9.67842e-05
9 *326:10 *824:10 4.08537e-05
10 *4365:B *4366:A3 0.000243955
11 *4366:A2 *4366:A3 0.000139774
*RES
1 *4364:X *326:10 40.2993 
2 *326:10 *326:12 15 
3 *326:12 *4366:A3 27.4743 
4 *326:12 *4365:D 23 
*END

*D_NET *327 0.00113442
*CONN
*I *4408:B1 I *D sky130_fd_sc_hd__a21o_1
*I *4367:A_N I *D sky130_fd_sc_hd__nand2b_1
*I *4365:X O *D sky130_fd_sc_hd__and4_1
*CAP
1 *4408:B1 0.000171868
2 *4367:A_N 0
3 *4365:X 0.000123938
4 *327:12 0.000171868
5 *327:10 0.000123938
6 *4408:B1 *4408:A1 0.000264628
7 *4408:B1 *328:14 1.28818e-05
8 *4408:B1 *369:10 2.02872e-05
9 *327:10 *328:10 0.000141758
10 *327:10 *824:10 1.69668e-05
11 *326:10 *327:10 8.62876e-05
*RES
1 *4365:X *327:10 40.5271 
2 *327:10 *327:12 15 
3 *327:12 *4367:A_N 23 
4 *327:12 *4408:B1 27.4743 
*END

*D_NET *328 0.00195602
*CONN
*I *4367:B I *D sky130_fd_sc_hd__nand2b_1
*I *4408:A1 I *D sky130_fd_sc_hd__a21o_1
*I *4366:X O *D sky130_fd_sc_hd__a31o_1
*CAP
1 *4367:B 0
2 *4408:A1 0.000144487
3 *4366:X 0.000426475
4 *328:14 0.000147396
5 *328:10 0.000429384
6 *4408:A1 *369:10 0.000184984
7 *328:10 *4366:B1 4.2573e-05
8 *328:10 *824:10 0
9 *328:10 *824:35 9.67842e-05
10 *328:14 *369:10 4.442e-07
11 *4366:A2 *328:10 2.02872e-05
12 *4366:A3 *328:10 1.14762e-05
13 *4408:B1 *4408:A1 0.000264628
14 *4408:B1 *328:14 1.28818e-05
15 *324:10 *328:10 3.2457e-05
16 *327:10 *328:10 0.000141758
*RES
1 *4366:X *328:10 45.1464 
2 *328:10 *328:14 15.1502 
3 *328:14 *4408:A1 27.5934 
4 *328:14 *4367:B 23 
*END

*D_NET *329 0.001188
*CONN
*I *4369:A I *D sky130_fd_sc_hd__xor2_1
*I *4367:Y O *D sky130_fd_sc_hd__nand2b_1
*CAP
1 *4369:A 0.000177162
2 *4367:Y 0.000141022
3 *329:8 0.000318184
4 *4369:A *331:10 0.000185428
5 *4369:A *1009:63 0.000356724
6 *329:8 *331:10 9.48381e-06
7 *329:8 *824:10 0
*RES
1 *4367:Y *329:8 40.61 
2 *329:8 *4369:A 43.3857 
*END

*D_NET *330 0.00173477
*CONN
*I *4369:B I *D sky130_fd_sc_hd__xor2_1
*I *4408:A2 I *D sky130_fd_sc_hd__a21o_1
*I *4368:X O *D sky130_fd_sc_hd__a21o_1
*CAP
1 *4369:B 0.000105547
2 *4408:A2 0.000225933
3 *4368:X 0.000535903
4 *330:8 0.000867383
5 *4369:B *331:10 0
6 *4369:B *776:17 0
7 *4408:A2 *776:17 0
*RES
1 *4368:X *330:8 44.815 
2 *330:8 *4408:A2 42.205 
3 *330:8 *4369:B 39.9057 
*END

*D_NET *331 0.000758883
*CONN
*I *4370:B I *D sky130_fd_sc_hd__nand2_1
*I *4369:X O *D sky130_fd_sc_hd__xor2_1
*CAP
1 *4370:B 0
2 *4369:X 0.000277554
3 *331:10 0.000277554
4 *331:10 *824:10 0
5 *331:10 *844:52 2.75733e-06
6 *331:10 *844:64 6.10551e-06
7 *331:10 *1009:63 0
8 *4369:A *331:10 0.000185428
9 *4369:B *331:10 0
10 *329:8 *331:10 9.48381e-06
*RES
1 *4369:X *331:10 43.0129 
2 *331:10 *4370:B 38 
*END

*D_NET *332 0.000261281
*CONN
*I *4371:C1 I *D sky130_fd_sc_hd__o211a_1
*I *4370:Y O *D sky130_fd_sc_hd__nand2_1
*CAP
1 *4371:C1 4.8533e-05
2 *4370:Y 4.8533e-05
3 *4371:C1 *4370:A 1.00493e-05
4 *4371:C1 *4371:A2 5.65874e-05
5 *4371:C1 *1010:131 9.75779e-05
*RES
1 *4370:Y *4371:C1 47.595 
*END

*D_NET *333 0.00467686
*CONN
*I *4444:A I *D sky130_fd_sc_hd__nand3_1
*I *4443:A I *D sky130_fd_sc_hd__and3_1
*I *4445:B1 I *D sky130_fd_sc_hd__a21o_1
*I *4374:A I *D sky130_fd_sc_hd__nor2_1
*I *4372:X O *D sky130_fd_sc_hd__o211a_1
*CAP
1 *4444:A 7.10739e-05
2 *4443:A 0
3 *4445:B1 0
4 *4374:A 0
5 *4372:X 0.000344281
6 *333:40 0.000431424
7 *333:32 0.000578972
8 *333:23 0.00118646
9 *333:10 0.00145427
10 *4444:A *4445:A1 4.47666e-05
11 *4444:A *4445:A2 5.70275e-06
12 *4444:A *400:23 7.05345e-06
13 *4444:A *404:10 9.84851e-05
14 *333:10 *334:10 0.000128524
15 *333:10 *353:8 0
16 *333:10 *354:10 4.21594e-06
17 *333:23 *354:10 0.000121861
18 *333:32 *4445:A1 2.45549e-06
19 *333:32 *4445:A2 8.57697e-07
20 *333:32 *404:10 9.84794e-05
21 *333:40 *4442:A1 1.44546e-05
22 *333:40 *4445:A2 2.5343e-05
23 *333:40 *400:10 0
24 *333:40 *400:23 0
25 *333:40 *402:8 5.41385e-05
26 *333:40 *402:27 0
27 *333:40 *849:14 0
28 *301:31 *333:10 4.04598e-06
*RES
1 *4372:X *333:10 44.6493 
2 *333:10 *4374:A 38 
3 *333:10 *333:23 35.3829 
4 *333:23 *4445:B1 23 
5 *333:23 *333:32 1.94714 
6 *333:32 *333:40 37.9336 
7 *333:40 *4443:A 23 
8 *333:32 *4444:A 25.9104 
*END

*D_NET *334 0.00106322
*CONN
*I *4374:B I *D sky130_fd_sc_hd__nor2_1
*I *4373:Y O *D sky130_fd_sc_hd__a211oi_1
*CAP
1 *4374:B 4.01766e-05
2 *4373:Y 0.000292341
3 *334:10 0.000332518
4 *4374:B *335:6 5.37348e-06
5 *334:10 *4372:B1 0.000141954
6 *334:10 *4372:C1 9.75779e-05
7 *334:10 *1008:55 0
8 *4372:A2 *334:10 2.4754e-05
9 *333:10 *334:10 0.000128524
*RES
1 *4373:Y *334:10 45.0014 
2 *334:10 *4374:B 38.6214 
*END

*D_NET *335 0.00326745
*CONN
*I *4397:A I *D sky130_fd_sc_hd__nand3_1
*I *4398:B1 I *D sky130_fd_sc_hd__a21oi_1
*I *4396:A I *D sky130_fd_sc_hd__and3_1
*I *4374:Y O *D sky130_fd_sc_hd__nor2_1
*CAP
1 *4397:A 0.000269035
2 *4398:B1 4.16508e-05
3 *4396:A 2.0432e-05
4 *4374:Y 0.000409985
5 *335:12 0.000392714
6 *335:6 0.00100965
7 *4396:A *4396:C 1.19077e-05
8 *4397:A *355:32 3.8314e-05
9 *4397:A *356:8 0.000208796
10 *4397:A *358:10 7.53384e-06
11 *4398:B1 *4396:C 2.02872e-05
12 *335:6 *356:8 0.000443673
13 *335:12 *4398:A1 7.65883e-06
14 *335:12 *352:8 8.94487e-05
15 *335:12 *353:8 4.18957e-05
16 *335:12 *354:10 0
17 *335:12 *355:8 0.00015965
18 *335:12 *356:14 0
19 *335:12 *359:8 8.94487e-05
20 *4374:B *335:6 5.37348e-06
*RES
1 *4374:Y *335:6 29.3386 
2 *335:6 *335:12 37.1879 
3 *335:12 *4396:A 23.2796 
4 *335:12 *4398:B1 23.6214 
5 *335:6 *4397:A 27.9714 
*END

*D_NET *336 0.000584935
*CONN
*I *4380:A I *D sky130_fd_sc_hd__xnor2_1
*I *4375:Y O *D sky130_fd_sc_hd__nand2_1
*CAP
1 *4380:A 8.77956e-05
2 *4375:Y 8.77956e-05
3 *4380:A *4375:A 9.84851e-05
4 *4380:A *341:10 0.00010018
5 *4380:A *373:12 6.87243e-05
6 *4380:A *979:106 0.000141954
7 *4380:A *1006:59 0
*RES
1 *4375:Y *4380:A 49.5007 
*END

*D_NET *337 0.000999883
*CONN
*I *4425:A I *D sky130_fd_sc_hd__xor2_1
*I *4459:A1 I *D sky130_fd_sc_hd__o21ai_1
*I *4376:Y O *D sky130_fd_sc_hd__nand2_1
*CAP
1 *4425:A 0
2 *4459:A1 0
3 *4376:Y 0.000194835
4 *337:21 0.000116383
5 *337:8 0.000311218
6 *337:8 *4459:A2 3.70071e-06
7 *337:8 *418:12 5.50106e-05
8 *337:21 *4425:B 0.000128583
9 *337:21 *4459:A2 3.7122e-06
10 *337:21 *384:8 9.03784e-05
11 *337:21 *982:12 1.02387e-05
12 *337:21 *997:55 8.58219e-05
*RES
1 *4376:Y *337:8 25.9 
2 *337:8 *4459:A1 23 
3 *337:8 *337:21 33.9357 
4 *337:21 *4425:A 23 
*END

*D_NET *338 0.000864292
*CONN
*I *4413:B1 I *D sky130_fd_sc_hd__a31o_1
*I *4379:A_N I *D sky130_fd_sc_hd__and2b_1
*I *4377:X O *D sky130_fd_sc_hd__and4_1
*CAP
1 *4413:B1 0
2 *4379:A_N 0
3 *4377:X 4.60291e-05
4 *338:14 0.00020235
5 *338:6 0.000248379
6 *338:6 *339:14 7.4416e-05
7 *338:6 *350:10 4.95081e-05
8 *338:6 *1006:67 5.3304e-05
9 *338:14 *977:100 9.84851e-05
10 *338:14 *1003:73 5.70419e-05
11 *338:14 *1006:67 3.47781e-05
*RES
1 *4377:X *338:6 24.5743 
2 *338:6 *338:14 33.7079 
3 *338:14 *4379:A_N 23 
4 *338:6 *4413:B1 23 
*END

*D_NET *339 0.00199311
*CONN
*I *4379:B I *D sky130_fd_sc_hd__and2b_1
*I *4413:A3 I *D sky130_fd_sc_hd__a31o_1
*I *4378:X O *D sky130_fd_sc_hd__a22o_1
*CAP
1 *4379:B 0
2 *4413:A3 0
3 *4378:X 6.10094e-05
4 *339:27 0.000169307
5 *339:14 0.000446575
6 *339:8 0.000338277
7 *339:8 *4377:A 3.70094e-05
8 *339:8 *792:33 3.56537e-05
9 *339:8 *984:59 2.36844e-05
10 *339:14 *4377:C 0.000180224
11 *339:14 *4378:B1 0.00012103
12 *339:14 *350:10 2.07355e-05
13 *339:14 *979:106 9.84851e-05
14 *339:14 *1006:59 2.87566e-05
15 *339:14 *1006:67 2.80512e-05
16 *339:27 *4413:A1 0
17 *339:27 *979:106 4.6595e-05
18 *339:27 *1006:59 9.84794e-05
19 *339:27 *1006:67 0
20 *339:27 *1008:14 0.000184816
21 *338:6 *339:14 7.4416e-05
*RES
1 *4378:X *339:8 39.5536 
2 *339:8 *339:14 21.8357 
3 *339:14 *4413:A3 23 
4 *339:14 *339:27 33.7079 
5 *339:27 *4379:B 23 
*END

*D_NET *340 0.000882753
*CONN
*I *4380:B I *D sky130_fd_sc_hd__xnor2_1
*I *4379:X O *D sky130_fd_sc_hd__and2b_1
*CAP
1 *4380:B 6.63098e-05
2 *4379:X 7.93466e-05
3 *340:8 0.000145656
4 *4380:B *373:12 0.000223698
5 *4380:B *979:106 3.34247e-05
6 *4380:B *1006:59 0.000137651
7 *340:8 *977:117 6.33511e-05
8 *340:8 *1008:14 0.000133316
*RES
1 *4379:X *340:8 39.9057 
2 *340:8 *4380:B 40.5271 
*END

*D_NET *341 0.00253018
*CONN
*I *4391:A I *D sky130_fd_sc_hd__nand3_1
*I *4392:B1 I *D sky130_fd_sc_hd__a21o_1
*I *4434:A1 I *D sky130_fd_sc_hd__a21bo_1
*I *4380:Y O *D sky130_fd_sc_hd__xnor2_1
*CAP
1 *4391:A 2.35037e-05
2 *4392:B1 0
3 *4434:A1 0
4 *4380:Y 0.000566005
5 *341:23 0.000294422
6 *341:10 0.000836923
7 *4391:A *4391:B 5.67058e-05
8 *4391:A *4391:C 0.000111911
9 *4391:A *4392:A1 4.04206e-05
10 *341:10 *350:14 2.5415e-05
11 *341:10 *350:27 2.04774e-05
12 *341:10 *351:20 0
13 *341:10 *373:12 0.000213404
14 *341:10 *394:8 2.5415e-05
15 *341:23 *4391:C 5.50106e-05
16 *341:23 *4392:A1 2.93845e-05
17 *341:23 *350:27 0.000130999
18 *341:23 *351:35 0
19 *4380:A *341:10 0.00010018
*RES
1 *4380:Y *341:10 47.1971 
2 *341:10 *4434:A1 38 
3 *341:10 *341:23 21.4007 
4 *341:23 *4392:B1 23 
5 *341:23 *4391:A 24.5743 
*END

*D_NET *342 0.00332691
*CONN
*I *4387:B1 I *D sky130_fd_sc_hd__o21ai_1
*I *4386:A I *D sky130_fd_sc_hd__or3_1
*I *4385:A I *D sky130_fd_sc_hd__nor3_1
*I *4381:Y O *D sky130_fd_sc_hd__nand2_1
*CAP
1 *4387:B1 7.10994e-05
2 *4386:A 0.000188659
3 *4385:A 0.000149438
4 *4381:Y 0.000374791
5 *342:17 0.000259758
6 *342:6 0.000524229
7 *4385:A *344:22 4.5051e-05
8 *4385:A *345:17 0.000228903
9 *4385:A *858:10 9.75779e-05
10 *4386:A *4386:C 0.000205218
11 *4386:A *4387:A2 2.71291e-05
12 *4386:A *390:12 0.000139352
13 *4386:A *857:12 2.4754e-05
14 *4386:A *999:42 0.000244526
15 *4386:A *999:59 2.46345e-05
16 *4387:B1 *4387:A2 6.22372e-05
17 *4387:B1 *999:59 0.000166513
18 *342:6 *4381:B 0.000484551
19 *342:6 *344:22 8.48502e-06
20 *199:10 *4387:B1 0
*RES
1 *4381:Y *342:6 28.8621 
2 *342:6 *4385:A 26.9771 
3 *342:6 *342:17 15 
4 *342:17 *4386:A 43.2407 
5 *342:17 *4387:B1 40.2579 
*END

*D_NET *343 0.00172749
*CONN
*I *4429:B1 I *D sky130_fd_sc_hd__o21ai_1
*I *4428:A I *D sky130_fd_sc_hd__or3_4
*I *4477:A1 I *D sky130_fd_sc_hd__o21bai_1
*I *4382:Y O *D sky130_fd_sc_hd__nand2_1
*CAP
1 *4429:B1 5.45091e-05
2 *4428:A 1.83025e-05
3 *4477:A1 0
4 *4382:Y 0
5 *343:21 0.000227752
6 *343:12 0.000157793
7 *343:4 0.000312734
8 *4428:A *4428:C 4.00259e-06
9 *4429:B1 *4429:A1 0.000258245
10 *4429:B1 *4429:A2 0.000151601
11 *343:12 *4919:A 1.61361e-05
12 *343:12 *386:8 1.14452e-05
13 *343:12 *772:54 2.34364e-05
14 *343:12 *988:55 0.000110913
15 *343:12 *995:68 0.000168744
16 *343:21 *4382:B 1.21972e-05
17 *343:21 *4428:C 5.41288e-05
18 *343:21 *4429:A1 9.5877e-05
19 *343:21 *4429:A2 2.32101e-05
20 *343:21 *4919:A 6.17437e-06
21 *343:21 *781:35 2.02872e-05
*RES
1 *4382:Y *343:4 23 
2 *343:4 *343:12 33.3557 
3 *343:12 *4477:A1 23 
4 *343:4 *343:21 3.37643 
5 *343:21 *4428:A 23.4971 
6 *343:21 *4429:B1 26.0036 
*END

*D_NET *344 0.00174875
*CONN
*I *5114:A I *D sky130_fd_sc_hd__dlymetal6s2s_1
*I *4386:B I *D sky130_fd_sc_hd__or3_1
*I *5115:A I *D sky130_fd_sc_hd__dlygate4sd1_1
*I *4385:B I *D sky130_fd_sc_hd__nor3_1
*I *4383:X O *D sky130_fd_sc_hd__and4_1
*CAP
1 *5114:A 0
2 *4386:B 0
3 *5115:A 0
4 *4385:B 0
5 *4383:X 0.000138597
6 *344:28 5.86628e-05
7 *344:22 0.000248743
8 *344:15 0.000289234
9 *344:6 0.000237751
10 *344:6 *345:8 0.000228001
11 *344:6 *345:17 2.4754e-05
12 *344:15 *345:8 0
13 *344:15 *345:17 6.9805e-05
14 *344:22 *4381:B 2.64616e-05
15 *344:22 *345:17 0.000185428
16 *344:28 *857:8 4.58924e-05
17 *344:28 *999:42 0.000141879
18 *4385:A *344:22 4.5051e-05
19 *342:6 *344:22 8.48502e-06
*RES
1 *4383:X *344:6 26.0036 
2 *344:6 *4385:B 23 
3 *344:6 *344:15 2.07143 
4 *344:15 *5115:A 23 
5 *344:15 *344:22 3.95643 
6 *344:22 *344:28 31.9057 
7 *344:28 *4386:B 23 
8 *344:22 *5114:A 23 
*END

*D_NET *345 0.00349347
*CONN
*I *4387:A2 I *D sky130_fd_sc_hd__o21ai_1
*I *4386:C I *D sky130_fd_sc_hd__or3_1
*I *4385:C I *D sky130_fd_sc_hd__nor3_1
*I *4384:Y O *D sky130_fd_sc_hd__a22oi_2
*CAP
1 *4387:A2 9.62822e-05
2 *4386:C 0.000198211
3 *4385:C 0
4 *4384:Y 0.000322668
5 *345:17 0.000398739
6 *345:8 0.000426914
7 *4386:C *390:12 4.66047e-05
8 *4386:C *857:12 0.000184527
9 *4386:C *999:42 7.76364e-06
10 *4387:A2 *858:10 0.000138718
11 *345:8 *4383:A 0.000262858
12 *345:8 *4383:C 0.000264559
13 *345:8 *4384:B2 1.56665e-05
14 *345:8 *859:16 5.50106e-05
15 *345:8 *859:29 4.34745e-05
16 *4385:A *345:17 0.000228903
17 *4386:A *4386:C 0.000205218
18 *4386:A *4387:A2 2.71291e-05
19 *4387:B1 *4387:A2 6.22372e-05
20 *199:10 *4386:C 0
21 *199:10 *4387:A2 0
22 *344:6 *345:8 0.000228001
23 *344:6 *345:17 2.4754e-05
24 *344:15 *345:8 0
25 *344:15 *345:17 6.9805e-05
26 *344:22 *345:17 0.000185428
*RES
1 *4384:Y *345:8 31.7414 
2 *345:8 *4385:C 23 
3 *345:8 *345:17 18.9564 
4 *345:17 *4386:C 43.365 
5 *345:17 *4387:A2 40.61 
*END

*D_NET *346 0.000694125
*CONN
*I *4430:A2 I *D sky130_fd_sc_hd__o211ai_2
*I *4431:C1 I *D sky130_fd_sc_hd__a211o_1
*I *4385:Y O *D sky130_fd_sc_hd__nor3_1
*CAP
1 *4430:A2 0
2 *4431:C1 0.000108058
3 *4385:Y 6.70461e-05
4 *346:8 0.000175104
5 *4431:C1 *4430:C1 9.63918e-05
6 *4431:C1 *389:10 4.6318e-06
7 *346:8 *4430:C1 2.70366e-05
8 *346:8 *865:10 3.28979e-05
9 *199:10 *4431:C1 9.53499e-05
10 *199:10 *346:8 8.76088e-05
*RES
1 *4385:Y *346:8 40.2579 
2 *346:8 *4431:C1 40.61 
3 *346:8 *4430:A2 38 
*END

*D_NET *347 0.00210053
*CONN
*I *4390:A1 I *D sky130_fd_sc_hd__a21o_1
*I *4389:A I *D sky130_fd_sc_hd__nand3_1
*I *4386:X O *D sky130_fd_sc_hd__or3_1
*CAP
1 *4390:A1 0
2 *4389:A 0.000211581
3 *4386:X 0.000467625
4 *347:12 0.000211581
5 *347:10 0.000467625
6 *4389:A *4389:B 0.000102389
7 *4389:A *4389:C 0.000128723
8 *4389:A *349:12 5.67058e-05
9 *4389:A *350:10 7.53384e-06
10 *4389:A *1001:77 2.4754e-05
11 *347:10 *348:10 0.000169674
12 *347:10 *349:8 1.14452e-05
13 *347:10 *351:8 0
14 *347:10 *390:12 9.84851e-05
15 *347:10 *986:101 0
16 *347:10 *997:55 0.000142408
17 *347:10 *999:59 0
18 *347:10 *1000:93 0
*RES
1 *4386:X *347:10 46.99 
2 *347:10 *347:12 15 
3 *347:12 *4389:A 28.0957 
4 *347:12 *4390:A1 23 
*END

*D_NET *348 0.00210322
*CONN
*I *4389:B I *D sky130_fd_sc_hd__nand3_1
*I *4390:A2 I *D sky130_fd_sc_hd__a21o_1
*I *4387:Y O *D sky130_fd_sc_hd__o21ai_1
*CAP
1 *4389:B 0.000125897
2 *4390:A2 0
3 *4387:Y 0.000335379
4 *348:12 0.000125897
5 *348:10 0.000335379
6 *4389:B *4389:C 0.000141954
7 *4389:B *349:12 5.50106e-05
8 *4389:B *1001:77 0.000353214
9 *348:10 *977:100 0.000358425
10 *348:10 *999:59 0
11 *4389:A *4389:B 0.000102389
12 *347:10 *348:10 0.000169674
*RES
1 *4387:Y *348:10 44.2143 
2 *348:10 *348:12 15 
3 *348:12 *4390:A2 23 
4 *348:12 *4389:B 27.4536 
*END

*D_NET *349 0.0010211
*CONN
*I *4389:C I *D sky130_fd_sc_hd__nand3_1
*I *4390:B1 I *D sky130_fd_sc_hd__a21o_1
*I *4388:Y O *D sky130_fd_sc_hd__o21bai_1
*CAP
1 *4389:C 2.45644e-05
2 *4390:B1 0
3 *4388:Y 0.000229307
4 *349:12 3.54275e-05
5 *349:8 0.00024017
6 *349:8 *986:101 0
7 *349:8 *999:59 0
8 *349:8 *1001:77 9.77972e-05
9 *4389:A *4389:C 0.000128723
10 *4389:A *349:12 5.67058e-05
11 *4389:B *4389:C 0.000141954
12 *4389:B *349:12 5.50106e-05
13 *347:10 *349:8 1.14452e-05
*RES
1 *4388:Y *349:8 42.7229 
2 *349:8 *349:12 15.6214 
3 *349:12 *4390:B1 23 
4 *349:12 *4389:C 24.5743 
*END

*D_NET *350 0.0066897
*CONN
*I *4391:B I *D sky130_fd_sc_hd__nand3_1
*I *4392:A1 I *D sky130_fd_sc_hd__a21o_1
*I *4434:B1_N I *D sky130_fd_sc_hd__a21bo_1
*I *4389:Y O *D sky130_fd_sc_hd__nand3_1
*CAP
1 *4391:B 6.66453e-05
2 *4392:A1 0.000142336
3 *4434:B1_N 5.45426e-05
4 *4389:Y 0.00161076
5 *350:27 0.00045635
6 *350:14 0.000466498
7 *350:10 0.00177534
8 *4391:B *4391:C 2.4754e-05
9 *4392:A1 *4391:C 1.57571e-05
10 *350:10 *4378:B1 0.000394994
11 *350:10 *373:12 0.00101946
12 *350:10 *792:39 1.76557e-05
13 *350:10 *1001:77 5.72091e-05
14 *350:10 *1006:59 6.51746e-05
15 *350:10 *1006:67 0.000141052
16 *350:14 *379:12 0
17 *350:14 *394:8 0
18 *4389:A *350:10 7.53384e-06
19 *4391:A *4391:B 5.67058e-05
20 *4391:A *4392:A1 4.04206e-05
21 *338:6 *350:10 4.95081e-05
22 *339:14 *350:10 2.07355e-05
23 *341:10 *350:14 2.5415e-05
24 *341:10 *350:27 2.04774e-05
25 *341:23 *4392:A1 2.93845e-05
26 *341:23 *350:27 0.000130999
*RES
1 *4389:Y *350:10 49.9907 
2 *350:10 *350:14 17.9621 
3 *350:14 *4434:B1_N 38.6214 
4 *350:14 *350:27 20.7793 
5 *350:27 *4392:A1 25.0507 
6 *350:27 *4391:B 24.595 
*END

*D_NET *351 0.00744579
*CONN
*I *4391:C I *D sky130_fd_sc_hd__nand3_1
*I *4392:A2 I *D sky130_fd_sc_hd__a21o_1
*I *4434:A2 I *D sky130_fd_sc_hd__a21bo_1
*I *4390:X O *D sky130_fd_sc_hd__a21o_1
*CAP
1 *4391:C 0.000269145
2 *4392:A2 0
3 *4434:A2 0.000100387
4 *4390:X 5.58952e-05
5 *351:35 0.000631799
6 *351:20 0.000692699
7 *351:16 0.00165764
8 *351:8 0.00148387
9 *351:8 *986:101 8.62876e-05
10 *351:16 *4435:B 0.000187129
11 *351:16 *393:14 0.000353309
12 *351:16 *977:100 0.00139953
13 *351:20 *4436:B1 1.01436e-05
14 *351:20 *394:8 0.000310526
15 *351:20 *1005:114 0
16 *351:35 *1005:114 0
17 *4391:A *4391:C 0.000111911
18 *4391:B *4391:C 2.4754e-05
19 *4392:A1 *4391:C 1.57571e-05
20 *341:10 *351:20 0
21 *341:23 *4391:C 5.50106e-05
22 *341:23 *351:35 0
23 *347:10 *351:8 0
*RES
1 *4390:X *351:8 39.2014 
2 *351:8 *351:16 40.5614 
3 *351:16 *351:20 20.075 
4 *351:20 *4434:A2 39.5743 
5 *351:20 *351:35 21.8771 
6 *351:35 *4392:A2 23 
7 *351:35 *4391:C 29.7114 
*END

*D_NET *352 0.00185066
*CONN
*I *4394:A I *D sky130_fd_sc_hd__nand3_2
*I *4395:A1 I *D sky130_fd_sc_hd__a21o_1
*I *4391:Y O *D sky130_fd_sc_hd__nand3_1
*CAP
1 *4394:A 3.13482e-05
2 *4395:A1 0.000259311
3 *4391:Y 0.000338071
4 *352:10 0.000290659
5 *352:8 0.000338071
6 *4394:A *355:32 5.67058e-05
7 *4394:A *356:8 5.41385e-05
8 *4395:A1 *4394:B 2.32101e-05
9 *4395:A1 *4394:C 1.76557e-05
10 *4395:A1 *4395:A2 0.000157378
11 *4395:A1 *355:32 0
12 *4395:A1 *356:8 1.95009e-05
13 *352:8 *353:8 0.000172394
14 *352:8 *355:40 0
15 *352:8 *356:14 2.76611e-06
16 *335:12 *352:8 8.94487e-05
*RES
1 *4391:Y *352:8 45.8921 
2 *352:8 *352:10 15 
3 *352:10 *4395:A1 27.3293 
4 *352:10 *4394:A 24.0979 
*END

*D_NET *353 0.00146764
*CONN
*I *4394:B I *D sky130_fd_sc_hd__nand3_2
*I *4395:A2 I *D sky130_fd_sc_hd__a21o_1
*I *4392:X O *D sky130_fd_sc_hd__a21o_1
*CAP
1 *4394:B 1.86599e-05
2 *4395:A2 4.82469e-05
3 *4392:X 0.000413956
4 *353:10 6.69068e-05
5 *353:8 0.000413956
6 *4394:B *356:8 2.93845e-05
7 *4395:A2 *4394:C 5.36126e-05
8 *4395:A2 *356:8 2.80394e-05
9 *353:8 *354:10 0
10 *4395:A1 *4394:B 2.32101e-05
11 *4395:A1 *4395:A2 0.000157378
12 *333:10 *353:8 0
13 *335:12 *353:8 4.18957e-05
14 *352:8 *353:8 0.000172394
*RES
1 *4392:X *353:8 46.5964 
2 *353:8 *353:10 15 
3 *353:10 *4395:A2 25.5686 
4 *353:10 *4394:B 23.6214 
*END

*D_NET *354 0.00193066
*CONN
*I *4395:B1 I *D sky130_fd_sc_hd__a21o_1
*I *4394:C I *D sky130_fd_sc_hd__nand3_2
*I *4393:X O *D sky130_fd_sc_hd__a21bo_1
*CAP
1 *4395:B1 0
2 *4394:C 7.73948e-05
3 *4393:X 0.000695699
4 *354:12 7.73948e-05
5 *354:10 0.000695699
6 *4394:C *356:8 0.000187129
7 *4395:A1 *4394:C 1.76557e-05
8 *4395:A2 *4394:C 5.36126e-05
9 *333:10 *354:10 4.21594e-06
10 *333:23 *354:10 0.000121861
11 *335:12 *354:10 0
12 *353:8 *354:10 0
*RES
1 *4393:X *354:10 47.6736 
2 *354:10 *354:12 15 
3 *354:12 *4394:C 26.045 
4 *354:12 *4395:B1 23 
*END

*D_NET *355 0.00329357
*CONN
*I *4397:B I *D sky130_fd_sc_hd__nand3_1
*I *4442:B1 I *D sky130_fd_sc_hd__o211ai_2
*I *4440:A1 I *D sky130_fd_sc_hd__a211o_1
*I *4398:A1 I *D sky130_fd_sc_hd__a21oi_1
*I *4396:B I *D sky130_fd_sc_hd__and3_1
*I *4394:Y O *D sky130_fd_sc_hd__nand3_2
*CAP
1 *4397:B 0
2 *4442:B1 0
3 *4440:A1 0
4 *4398:A1 6.59953e-05
5 *4396:B 0.000143533
6 *4394:Y 0
7 *355:46 7.6895e-05
8 *355:40 0.000697282
9 *355:32 0.00074391
10 *355:8 0.000371007
11 *355:4 0.000285002
12 *4396:B *4396:C 9.91798e-05
13 *4398:A1 *4396:C 5.50106e-05
14 *4398:A1 *356:14 4.18957e-05
15 *4398:A1 *359:8 6.38845e-05
16 *355:8 *356:14 0.000160692
17 *355:32 *356:8 2.35625e-05
18 *355:40 *356:14 6.07611e-06
19 *355:46 *4440:A2 9.74235e-05
20 *355:46 *4442:A2 9.3813e-05
21 *355:46 *399:10 6.07611e-06
22 *4394:A *355:32 5.67058e-05
23 *4395:A1 *355:32 0
24 *4397:A *355:32 3.8314e-05
25 *335:12 *4398:A1 7.65883e-06
26 *335:12 *355:8 0.00015965
27 *352:8 *355:40 0
*RES
1 *4394:Y *355:4 23 
2 *355:4 *355:8 19.3707 
3 *355:8 *4396:B 40.0507 
4 *355:8 *4398:A1 39.8229 
5 *355:4 *355:32 2.54786 
6 *355:32 *355:40 39.6529 
7 *355:40 *355:46 32.61 
8 *355:46 *4440:A1 23 
9 *355:40 *4442:B1 23 
10 *355:32 *4397:B 23 
*END

*D_NET *356 0.00273617
*CONN
*I *4397:C I *D sky130_fd_sc_hd__nand3_1
*I *4398:A2 I *D sky130_fd_sc_hd__a21oi_1
*I *4396:C I *D sky130_fd_sc_hd__and3_1
*I *4395:X O *D sky130_fd_sc_hd__a21o_1
*CAP
1 *4397:C 0
2 *4398:A2 0
3 *4396:C 0.000201807
4 *4395:X 0.000182733
5 *356:14 0.000483608
6 *356:8 0.000464534
7 *356:14 *360:14 1.14452e-05
8 *4394:A *356:8 5.41385e-05
9 *4394:B *356:8 2.93845e-05
10 *4394:C *356:8 0.000187129
11 *4395:A1 *356:8 1.95009e-05
12 *4395:A2 *356:8 2.80394e-05
13 *4396:A *4396:C 1.19077e-05
14 *4396:B *4396:C 9.91798e-05
15 *4397:A *356:8 0.000208796
16 *4398:A1 *4396:C 5.50106e-05
17 *4398:A1 *356:14 4.18957e-05
18 *4398:B1 *4396:C 2.02872e-05
19 *335:6 *356:8 0.000443673
20 *335:12 *356:14 0
21 *352:8 *356:14 2.76611e-06
22 *355:8 *356:14 0.000160692
23 *355:32 *356:8 2.35625e-05
24 *355:40 *356:14 6.07611e-06
*RES
1 *4395:X *356:8 30.6643 
2 *356:8 *356:14 35.7793 
3 *356:14 *4396:C 27.5779 
4 *356:14 *4398:A2 23 
5 *356:8 *4397:C 23 
*END

*D_NET *357 0.000870045
*CONN
*I *4399:B1 I *D sky130_fd_sc_hd__a211oi_2
*I *4400:A1 I *D sky130_fd_sc_hd__o211a_1
*I *4396:X O *D sky130_fd_sc_hd__and3_1
*CAP
1 *4399:B1 0.000144881
2 *4400:A1 2.71027e-05
3 *4396:X 0.00015267
4 *357:10 0.000324654
5 *4399:B1 *4399:C1 0
6 *4399:B1 *360:32 0
7 *4399:B1 *361:10 8.51329e-05
8 *4400:A1 *4400:A2 9.84794e-05
9 *4400:A1 *361:10 3.71251e-05
10 *357:10 *359:8 0
11 *318:40 *4399:B1 0
12 *318:40 *357:10 0
*RES
1 *4396:X *357:10 40.5271 
2 *357:10 *4400:A1 39.0979 
3 *357:10 *4399:B1 41.3143 
*END

*D_NET *358 0.00144572
*CONN
*I *4442:C1 I *D sky130_fd_sc_hd__o211ai_2
*I *4440:A2 I *D sky130_fd_sc_hd__a211o_1
*I *4397:Y O *D sky130_fd_sc_hd__nand3_1
*CAP
1 *4442:C1 0
2 *4440:A2 0.00017413
3 *4397:Y 0.000467897
4 *358:10 0.000642027
5 *4440:A2 *400:6 5.67058e-05
6 *4397:A *358:10 7.53384e-06
7 *355:46 *4440:A2 9.74235e-05
*RES
1 *4397:Y *358:10 44.4629 
2 *358:10 *4440:A2 41.9357 
3 *358:10 *4442:C1 38 
*END

*D_NET *359 0.00148581
*CONN
*I *4399:C1 I *D sky130_fd_sc_hd__a211oi_2
*I *4400:A2 I *D sky130_fd_sc_hd__o211a_1
*I *4398:Y O *D sky130_fd_sc_hd__a21oi_1
*CAP
1 *4399:C1 0.000219137
2 *4400:A2 0.000221868
3 *4398:Y 0.00014275
4 *359:8 0.000583755
5 *4399:C1 *360:8 5.50049e-05
6 *4399:C1 *360:14 0
7 *4400:A2 *361:10 1.14876e-05
8 *359:8 *360:14 0
9 *4398:A1 *359:8 6.38845e-05
10 *4399:B1 *4399:C1 0
11 *4400:A1 *4400:A2 9.84794e-05
12 *335:12 *359:8 8.94487e-05
13 *357:10 *359:8 0
*RES
1 *4398:Y *359:8 40.9621 
2 *359:8 *4400:A2 41.9771 
3 *359:8 *4399:C1 41.9357 
*END

*D_NET *360 0.00413383
*CONN
*I *4402:A1 I *D sky130_fd_sc_hd__o21ai_1
*I *4401:B I *D sky130_fd_sc_hd__or3_1
*I *4447:B1 I *D sky130_fd_sc_hd__a21o_1
*I *4446:A I *D sky130_fd_sc_hd__nand3_1
*I *4399:Y O *D sky130_fd_sc_hd__a211oi_2
*CAP
1 *4402:A1 0.000203825
2 *4401:B 0.000198735
3 *4447:B1 0
4 *4446:A 0.000147657
5 *4399:Y 0.000184794
6 *360:32 0.000621456
7 *360:14 0.000852786
8 *360:8 0.00110882
9 *4401:B *362:10 0.000141052
10 *4401:B *772:38 0.000453393
11 *4402:A1 *4402:A2 6.17437e-06
12 *4402:A1 *372:6 1.5769e-05
13 *4402:A1 *372:12 0
14 *4402:A1 *412:24 0
15 *4446:A *4446:C 7.44517e-05
16 *4446:A *4447:A1 5.84672e-05
17 *360:32 *361:10 0
18 *360:32 *372:12 0
19 *4399:B1 *360:32 0
20 *4399:C1 *360:8 5.50049e-05
21 *4399:C1 *360:14 0
22 *323:26 *4402:A1 0
23 *323:26 *360:32 0
24 *356:14 *360:14 1.14452e-05
25 *359:8 *360:14 0
*RES
1 *4399:Y *360:8 41.0036 
2 *360:8 *360:14 27.8429 
3 *360:14 *4446:A 26.7493 
4 *360:14 *4447:B1 23 
5 *360:8 *360:32 4.01857 
6 *360:32 *4401:B 43.4064 
7 *360:32 *4402:A1 41.2314 
*END

*D_NET *361 0.00223136
*CONN
*I *4402:A2 I *D sky130_fd_sc_hd__o21ai_1
*I *4401:C I *D sky130_fd_sc_hd__or3_1
*I *4400:X O *D sky130_fd_sc_hd__o211a_1
*CAP
1 *4402:A2 0.000387652
2 *4401:C 0
3 *4400:X 0.000307844
4 *361:10 0.000695496
5 *4402:A2 *4412:B1_N 5.50049e-05
6 *4402:A2 *362:10 8.85189e-05
7 *4402:A2 *372:6 0.000141954
8 *4399:B1 *361:10 8.51329e-05
9 *4400:A1 *361:10 3.71251e-05
10 *4400:A2 *361:10 1.14876e-05
11 *4402:A1 *4402:A2 6.17437e-06
12 *4402:B1 *4402:A2 0.000272383
13 *318:40 *361:10 8.51329e-05
14 *323:20 *4402:A2 1.41129e-05
15 *323:26 *4402:A2 3.72639e-05
16 *323:26 *361:10 6.07611e-06
17 *360:32 *361:10 0
*RES
1 *4400:X *361:10 44.2971 
2 *361:10 *4401:C 38 
3 *361:10 *4402:A2 45.6643 
*END

*D_NET *362 0.00179674
*CONN
*I *4404:B I *D sky130_fd_sc_hd__nand3_1
*I *4403:A1 I *D sky130_fd_sc_hd__a21o_1
*I *4412:B1_N I *D sky130_fd_sc_hd__a21bo_1
*I *4401:X O *D sky130_fd_sc_hd__or3_1
*CAP
1 *4404:B 0.000209114
2 *4403:A1 0
3 *4412:B1_N 1.50079e-05
4 *4401:X 0.000190519
5 *362:21 0.000322196
6 *362:10 0.000318609
7 *4404:B *4403:A2 1.14876e-05
8 *4401:B *362:10 0.000141052
9 *4402:A2 *4412:B1_N 5.50049e-05
10 *4402:A2 *362:10 8.85189e-05
11 *323:20 *4412:B1_N 5.50049e-05
12 *323:26 *362:10 0.000136486
13 *323:26 *362:21 1.01436e-05
14 *325:19 *4404:B 0.000137624
15 *325:27 *4404:B 3.55887e-05
16 *325:27 *362:21 7.03869e-05
*RES
1 *4401:X *362:10 41.48 
2 *362:10 *4412:B1_N 38.6214 
3 *362:10 *362:21 2.25786 
4 *362:21 *4403:A1 38 
5 *362:21 *4404:B 41.9771 
*END

*D_NET *363 0.00111855
*CONN
*I *4404:C I *D sky130_fd_sc_hd__nand3_1
*I *4403:A2 I *D sky130_fd_sc_hd__a21o_1
*I *4412:A2 I *D sky130_fd_sc_hd__a21bo_1
*I *4402:Y O *D sky130_fd_sc_hd__o21ai_1
*CAP
1 *4404:C 0
2 *4403:A2 0.000206513
3 *4412:A2 2.53983e-05
4 *4402:Y 6.42149e-05
5 *363:21 0.000341477
6 *363:8 0.000224577
7 *4402:B1 *4412:A2 5.67058e-05
8 *4402:B1 *363:8 8.6949e-05
9 *4404:B *4403:A2 1.14876e-05
10 *323:20 *363:8 0
11 *325:8 *4403:A2 1.37232e-05
12 *325:19 *4403:A2 3.48873e-05
13 *325:27 *363:21 5.26204e-05
*RES
1 *4402:Y *363:8 24.595 
2 *363:8 *4412:A2 23.6214 
3 *363:8 *363:21 32.2579 
4 *363:21 *4403:A2 26.3971 
5 *363:21 *4404:C 23 
*END

*D_NET *364 0.00128423
*CONN
*I *4405:B I *D sky130_fd_sc_hd__and3_1
*I *4406:A1 I *D sky130_fd_sc_hd__a21o_1
*I *4403:X O *D sky130_fd_sc_hd__a21o_1
*CAP
1 *4405:B 0.000222978
2 *4406:A1 0
3 *4403:X 0.000308151
4 *364:10 0.000531129
5 *4405:B *4405:A 4.95081e-05
6 *4405:B *365:8 0
7 *4405:B *366:8 9.84851e-05
8 *4405:B *825:25 4.334e-05
9 *364:10 *365:8 0
10 *364:10 *412:8 0
11 *325:8 *364:10 3.06338e-05
*RES
1 *4403:X *364:10 43.1164 
2 *364:10 *4406:A1 38 
3 *364:10 *4405:B 41.9564 
*END

*D_NET *365 0.0012703
*CONN
*I *4405:C I *D sky130_fd_sc_hd__and3_1
*I *4406:A2 I *D sky130_fd_sc_hd__a21o_1
*I *4404:Y O *D sky130_fd_sc_hd__nand3_1
*CAP
1 *4405:C 0
2 *4406:A2 0.000129284
3 *4404:Y 0.000236845
4 *365:12 0.000337058
5 *365:8 0.000444619
6 *4406:A2 *4405:A 5.92727e-05
7 *4406:A2 *4407:A_N 0
8 *365:12 *4405:A 4.37555e-05
9 *365:12 *779:39 1.94693e-05
10 *4405:B *365:8 0
11 *364:10 *365:8 0
*RES
1 *4404:Y *365:8 42.0186 
2 *365:8 *365:12 18.0864 
3 *365:12 *4406:A2 25.3407 
4 *365:12 *4405:C 23 
*END

*D_NET *366 0.00146415
*CONN
*I *4407:A_N I *D sky130_fd_sc_hd__and2b_1
*I *4452:B1 I *D sky130_fd_sc_hd__a21oi_2
*I *4405:X O *D sky130_fd_sc_hd__and3_1
*CAP
1 *4407:A_N 0.000221412
2 *4452:B1 0
3 *4405:X 0.000150547
4 *366:8 0.000371959
5 *4407:A_N *4405:A 3.91386e-05
6 *4407:A_N *4407:B 6.89881e-05
7 *4407:A_N *4452:A2 5.67058e-05
8 *4407:A_N *367:6 0.000274078
9 *366:8 *4405:A 0.000182832
10 *366:8 *4407:B 0
11 *4405:B *366:8 9.84851e-05
12 *4406:A2 *4407:A_N 0
*RES
1 *4405:X *366:8 26.9771 
2 *366:8 *4452:B1 23 
3 *366:8 *4407:A_N 29.38 
*END

*D_NET *367 0.000904134
*CONN
*I *4452:A1 I *D sky130_fd_sc_hd__a21oi_2
*I *4407:B I *D sky130_fd_sc_hd__and2b_1
*I *4406:X O *D sky130_fd_sc_hd__a21o_1
*CAP
1 *4452:A1 0
2 *4407:B 0.000162569
3 *4406:X 6.46894e-05
4 *367:6 0.000227259
5 *4407:B *4452:A2 0.00010655
6 *4407:A_N *4407:B 6.89881e-05
7 *4407:A_N *367:6 0.000274078
8 *366:8 *4407:B 0
*RES
1 *4406:X *367:6 25.5271 
2 *367:6 *4407:B 26.9979 
3 *367:6 *4452:A1 23 
*END

*D_NET *368 0.000949057
*CONN
*I *4409:A I *D sky130_fd_sc_hd__xnor2_1
*I *4407:X O *D sky130_fd_sc_hd__and2b_1
*CAP
1 *4409:A 0.000211261
2 *4407:X 0.000126229
3 *368:8 0.00033749
4 *4409:A *1009:63 0.000274078
5 *368:8 *369:16 0
*RES
1 *4407:X *368:8 40.2579 
2 *368:8 *4409:A 42.9093 
*END

*D_NET *369 0.00272511
*CONN
*I *4452:A2 I *D sky130_fd_sc_hd__a21oi_2
*I *4409:B I *D sky130_fd_sc_hd__xnor2_1
*I *4408:X O *D sky130_fd_sc_hd__a21o_1
*CAP
1 *4452:A2 0.000343165
2 *4409:B 0
3 *4408:X 0.000629462
4 *369:16 0.00015705
5 *369:10 0.00112968
6 *4407:A_N *4452:A2 5.67058e-05
7 *4407:B *4452:A2 0.00010655
8 *4408:A1 *369:10 0.000184984
9 *4408:B1 *369:10 2.02872e-05
10 *326:10 *369:10 9.67842e-05
11 *328:14 *369:10 4.442e-07
12 *368:8 *369:16 0
*RES
1 *4408:X *369:10 34.745 
2 *369:10 *369:16 32.9621 
3 *369:16 *4409:B 23 
4 *369:10 *4452:A2 30.2914 
*END

*D_NET *370 0.000283899
*CONN
*I *4410:B I *D sky130_fd_sc_hd__nand2_1
*I *4409:Y O *D sky130_fd_sc_hd__xnor2_1
*CAP
1 *4410:B 0
2 *4409:Y 0.000112934
3 *370:8 0.000112934
4 *370:8 *1009:65 5.80303e-05
*RES
1 *4409:Y *370:8 39.9057 
2 *370:8 *4410:B 38 
*END

*D_NET *371 0.00028527
*CONN
*I *4411:C1 I *D sky130_fd_sc_hd__o211a_1
*I *4410:Y O *D sky130_fd_sc_hd__nand2_1
*CAP
1 *4411:C1 5.59251e-05
2 *4410:Y 5.59251e-05
3 *4411:C1 *1009:80 7.58422e-05
4 *4411:C1 *1010:142 9.75779e-05
*RES
1 *4410:Y *4411:C1 47.595 
*END

*D_NET *372 0.00265961
*CONN
*I *4449:B1 I *D sky130_fd_sc_hd__a21o_1
*I *4457:A1 I *D sky130_fd_sc_hd__a21bo_1
*I *4448:A I *D sky130_fd_sc_hd__nand3_1
*I *4412:X O *D sky130_fd_sc_hd__a21bo_1
*CAP
1 *4449:B1 0
2 *4457:A1 0.000137485
3 *4448:A 0
4 *4412:X 0.00041107
5 *372:23 0.000436765
6 *372:12 0.000123012
7 *372:6 0.000833363
8 *4457:A1 *4457:A2 5.67058e-05
9 *4457:A1 *406:12 5.50106e-05
10 *4457:A1 *406:25 5.31444e-05
11 *4457:A1 *407:14 2.61699e-05
12 *372:6 *412:24 5.50049e-05
13 *372:12 *407:14 0
14 *372:23 *412:24 0.000314157
15 *372:23 *772:28 0
16 *4402:A1 *372:6 1.5769e-05
17 *4402:A1 *372:12 0
18 *4402:A2 *372:6 0.000141954
19 *360:32 *372:12 0
*RES
1 *4412:X *372:6 28.8621 
2 *372:6 *372:12 32.2579 
3 *372:12 *4448:A 23 
4 *372:6 *372:23 20.7379 
5 *372:23 *4457:A1 41.2314 
6 *372:23 *4449:B1 38 
*END

*D_NET *373 0.00343288
*CONN
*I *4420:A I *D sky130_fd_sc_hd__nand2_1
*I *4421:A I *D sky130_fd_sc_hd__xor2_1
*I *4413:X O *D sky130_fd_sc_hd__a31o_1
*CAP
1 *4420:A 0.000183958
2 *4421:A 0
3 *4413:X 0.000560844
4 *373:12 0.000744802
5 *4420:A *4420:B 0.000198545
6 *4420:A *381:10 4.95081e-05
7 *373:12 *4375:A 5.41385e-05
8 *373:12 *4420:B 3.91386e-05
9 *373:12 *979:106 9.24795e-06
10 *373:12 *1006:59 6.74169e-05
11 *4380:A *373:12 6.87243e-05
12 *4380:B *373:12 0.000223698
13 *341:10 *373:12 0.000213404
14 *350:10 *373:12 0.00101946
*RES
1 *4413:X *373:12 41.4357 
2 *373:12 *4421:A 23 
3 *373:12 *4420:A 27.4743 
*END

*D_NET *374 0.00223507
*CONN
*I *4458:A I *D sky130_fd_sc_hd__nor2_1
*I *4415:A I *D sky130_fd_sc_hd__inv_2
*I *4414:X O *D sky130_fd_sc_hd__and4_1
*CAP
1 *4458:A 0.000155302
2 *4415:A 0
3 *4414:X 7.33859e-05
4 *374:18 0.000163021
5 *374:12 0.000406669
6 *374:8 0.000161732
7 *4458:A *4418:A1_N 0.000340499
8 *4458:A *4458:B 7.93617e-05
9 *4458:A *376:22 0.00035673
10 *374:8 *376:22 1.83667e-05
11 *374:8 *377:12 0
12 *374:8 *979:76 3.56433e-05
13 *374:12 *4418:A1_N 0.000137651
14 *374:12 *376:14 2.02872e-05
15 *374:12 *376:22 9.67842e-05
16 *374:18 *375:10 3.71198e-05
17 *374:18 *376:22 2.71291e-05
18 *374:18 *796:55 2.15048e-05
19 *374:18 *979:76 0
20 *374:18 *1003:45 0
21 *374:18 *1003:54 0
22 *161:82 *374:18 0.000103886
*RES
1 *4414:X *374:8 39.5536 
2 *374:8 *374:12 17.0507 
3 *374:12 *374:18 33.6664 
4 *374:18 *4415:A 23 
5 *374:12 *4458:A 28.8829 
*END

*D_NET *375 0.00173302
*CONN
*I *4418:A1_N I *D sky130_fd_sc_hd__o2bb2a_1
*I *4417:B I *D sky130_fd_sc_hd__and4b_1
*I *4415:Y O *D sky130_fd_sc_hd__inv_2
*CAP
1 *4418:A1_N 0.000142598
2 *4417:B 0
3 *4415:Y 0.000166556
4 *375:12 0.000142598
5 *375:10 0.000166556
6 *4418:A1_N *4418:B2 1.708e-05
7 *4418:A1_N *4458:B 0.000143377
8 *4418:A1_N *376:14 5.3304e-05
9 *4418:A1_N *377:6 5.6241e-05
10 *4418:A1_N *796:55 0.000127538
11 *375:10 *376:10 0.000136486
12 *375:10 *376:22 3.47781e-05
13 *375:10 *418:14 3.06338e-05
14 *375:10 *979:76 0
15 *4458:A *4418:A1_N 0.000340499
16 *374:12 *4418:A1_N 0.000137651
17 *374:18 *375:10 3.71198e-05
*RES
1 *4415:Y *375:10 41.3557 
2 *375:10 *375:12 15 
3 *375:12 *4417:B 23 
4 *375:12 *4418:A1_N 28.4013 
*END

*D_NET *376 0.00195936
*CONN
*I *4417:C I *D sky130_fd_sc_hd__and4b_1
*I *4418:A2_N I *D sky130_fd_sc_hd__o2bb2a_1
*I *4416:X O *D sky130_fd_sc_hd__a22o_1
*CAP
1 *4417:C 0
2 *4418:A2_N 0
3 *4416:X 0.000134147
4 *376:22 0.000362427
5 *376:14 0.000409257
6 *376:10 0.000180976
7 *376:10 *418:14 3.06338e-05
8 *376:10 *979:76 4.83778e-05
9 *376:14 *4418:B2 4.96717e-05
10 *376:22 *979:76 0
11 *4418:A1_N *376:14 5.3304e-05
12 *4458:A *376:22 0.00035673
13 *374:8 *376:22 1.83667e-05
14 *374:12 *376:14 2.02872e-05
15 *374:12 *376:22 9.67842e-05
16 *374:18 *376:22 2.71291e-05
17 *375:10 *376:10 0.000136486
18 *375:10 *376:22 3.47781e-05
*RES
1 *4416:X *376:10 41.0036 
2 *376:10 *376:14 16.0979 
3 *376:14 *376:22 36.1107 
4 *376:22 *4418:A2_N 23 
5 *376:14 *4417:C 23 
*END

*D_NET *377 0.00155517
*CONN
*I *4458:B I *D sky130_fd_sc_hd__nor2_1
*I *4419:A I *D sky130_fd_sc_hd__nor2_1
*I *4417:X O *D sky130_fd_sc_hd__and4b_1
*CAP
1 *4458:B 0.000192215
2 *4419:A 0
3 *4417:X 7.2411e-05
4 *377:12 0.000221849
5 *377:6 0.000486475
6 *4458:B *417:8 3.22879e-05
7 *377:6 *4418:B2 0.000139346
8 *377:6 *796:55 5.67058e-05
9 *377:12 *378:8 0
10 *377:12 *796:55 7.49001e-05
11 *4418:A1_N *4458:B 0.000143377
12 *4418:A1_N *377:6 5.6241e-05
13 *4458:A *4458:B 7.93617e-05
14 *374:8 *377:12 0
*RES
1 *4417:X *377:6 25.0507 
2 *377:6 *377:12 33.3143 
3 *377:12 *4419:A 23 
4 *377:6 *4458:B 27.9507 
*END

*D_NET *378 0.000487163
*CONN
*I *4419:B I *D sky130_fd_sc_hd__nor2_1
*I *4418:X O *D sky130_fd_sc_hd__o2bb2a_1
*CAP
1 *4419:B 6.1801e-05
2 *4418:X 0.000110804
3 *378:8 0.000172605
4 *181:50 *4419:B 0.000141954
5 *377:12 *378:8 0
*RES
1 *4418:X *378:8 39.9057 
2 *378:8 *4419:B 39.5743 
*END

*D_NET *379 0.00262656
*CONN
*I *4420:B I *D sky130_fd_sc_hd__nand2_1
*I *4421:B I *D sky130_fd_sc_hd__xor2_1
*I *4419:Y O *D sky130_fd_sc_hd__nor2_1
*CAP
1 *4420:B 7.13173e-05
2 *4421:B 0
3 *4419:Y 0.000462431
4 *379:12 0.000501855
5 *379:8 0.000892968
6 *4420:B *381:10 5.67058e-05
7 *379:12 *396:10 0
8 *4420:A *4420:B 0.000198545
9 *181:50 *379:8 0.000403599
10 *350:14 *379:12 0
11 *373:12 *4420:B 3.91386e-05
*RES
1 *4419:Y *379:8 45.7679 
2 *379:8 *379:12 22.54 
3 *379:12 *4421:B 23 
4 *379:12 *4420:B 25.5479 
*END

*D_NET *380 0.00257208
*CONN
*I *4492:B1 I *D sky130_fd_sc_hd__o21ai_1
*I *4491:C I *D sky130_fd_sc_hd__or3_4
*I *4420:Y O *D sky130_fd_sc_hd__nand2_1
*CAP
1 *4492:B1 0.000188086
2 *4491:C 0
3 *4420:Y 0.000493447
4 *380:12 7.42541e-05
5 *380:6 0.000755787
6 *4492:B1 *4492:A1 5.41385e-05
7 *4492:B1 *4492:A2 5.50106e-05
8 *4492:B1 *449:6 5.50049e-05
9 *380:6 *4490:A2 9.67842e-05
10 *380:6 *4490:B1 1.03836e-05
11 *380:6 *4490:C1 2.32101e-05
12 *380:6 *381:10 0.000358425
13 *380:6 *395:40 1.76557e-05
14 *380:6 *398:12 9.91798e-05
15 *380:12 *4490:A1 9.63918e-05
16 *380:12 *4492:A1 0.000182873
17 *380:12 *447:10 1.14452e-05
*RES
1 *4420:Y *380:6 32.6736 
2 *380:6 *380:12 32.61 
3 *380:12 *4491:C 23 
4 *380:6 *4492:B1 26.5007 
*END

*D_NET *381 0.00270332
*CONN
*I *4437:A I *D sky130_fd_sc_hd__and3_1
*I *4439:B1 I *D sky130_fd_sc_hd__a21oi_1
*I *4438:A I *D sky130_fd_sc_hd__nand3_1
*I *4421:X O *D sky130_fd_sc_hd__xor2_1
*CAP
1 *4437:A 0.000168361
2 *4439:B1 4.01095e-05
3 *4438:A 0
4 *4421:X 0.000373312
5 *381:16 0.000130916
6 *381:10 0.00063248
7 *4437:A *4437:B 9.94675e-05
8 *4437:A *4437:C 5.50049e-05
9 *4437:A *395:40 3.70187e-05
10 *4437:A *395:49 5.24393e-05
11 *4437:A *396:10 0
12 *4439:B1 *4439:A2 0.000141052
13 *4439:B1 *399:10 5.41385e-05
14 *381:10 *395:34 7.76364e-06
15 *381:10 *395:40 0.000385726
16 *381:10 *396:10 0
17 *381:10 *398:8 1.47563e-05
18 *381:16 *4439:A2 4.61404e-05
19 *4420:A *381:10 4.95081e-05
20 *4420:B *381:10 5.67058e-05
21 *380:6 *381:10 0.000358425
*RES
1 *4421:X *381:10 48.6886 
2 *381:10 *381:16 16.595 
3 *381:16 *4438:A 23 
4 *381:16 *4439:B1 24.5743 
5 *381:10 *4437:A 41.2314 
*END

*D_NET *382 0.00147122
*CONN
*I *4459:B1 I *D sky130_fd_sc_hd__o21ai_1
*I *4424:A I *D sky130_fd_sc_hd__nand2_1
*I *4422:Y O *D sky130_fd_sc_hd__nand4_1
*CAP
1 *4459:B1 0.000150745
2 *4424:A 0
3 *4422:Y 0.000303109
4 *382:10 0.000453854
5 *4459:B1 *384:8 0.000168744
6 *4459:B1 *793:23 0
7 *4459:B1 *982:12 3.92407e-05
8 *4459:B1 *997:55 0
9 *382:10 *793:23 0
10 *382:10 *983:87 0.000271476
11 *382:10 *985:105 8.4047e-05
12 *382:10 *997:42 0
13 *382:10 *997:55 0
*RES
1 *4422:Y *382:10 43.2614 
2 *382:10 *4424:A 38 
3 *382:10 *4459:B1 40.9621 
*END

*D_NET *383 0.000181912
*CONN
*I *4424:B I *D sky130_fd_sc_hd__nand2_1
*I *4423:X O *D sky130_fd_sc_hd__a22o_1
*CAP
1 *4424:B 3.93666e-05
2 *4423:X 3.93666e-05
3 *4424:B *781:35 5.67058e-05
4 *4424:B *985:105 4.64729e-05
*RES
1 *4423:X *4424:B 47.4707 
*END

*D_NET *384 0.00094924
*CONN
*I *4425:B I *D sky130_fd_sc_hd__xor2_1
*I *4459:A2 I *D sky130_fd_sc_hd__o21ai_1
*I *4424:Y O *D sky130_fd_sc_hd__nand2_1
*CAP
1 *4425:B 6.22841e-05
2 *4459:A2 5.70238e-05
3 *4424:Y 0.000110795
4 *384:8 0.000230103
5 *4425:B *982:12 6.68793e-05
6 *384:8 *982:12 2.70366e-05
7 *384:8 *997:55 0
8 *4459:B1 *384:8 0.000168744
9 *337:8 *4459:A2 3.70071e-06
10 *337:21 *4425:B 0.000128583
11 *337:21 *4459:A2 3.7122e-06
12 *337:21 *384:8 9.03784e-05
*RES
1 *4424:Y *384:8 40.9621 
2 *384:8 *4459:A2 38.6214 
3 *384:8 *4425:B 39.9057 
*END

*D_NET *385 0.0025664
*CONN
*I *4482:A2 I *D sky130_fd_sc_hd__a21bo_1
*I *4433:B1 I *D sky130_fd_sc_hd__a21o_1
*I *4432:A I *D sky130_fd_sc_hd__nand3_1
*I *4425:X O *D sky130_fd_sc_hd__xor2_1
*CAP
1 *4482:A2 9.16184e-05
2 *4433:B1 1.17411e-05
3 *4432:A 0
4 *4425:X 0.000202702
5 *385:21 0.000179489
6 *385:12 7.6129e-05
7 *385:10 0.000202702
8 *4482:A2 *4482:A1 7.06229e-05
9 *4482:A2 *4482:B1_N 0.000119313
10 *4482:A2 *392:6 0.000445374
11 *385:10 *391:22 6.16531e-05
12 *385:10 *792:33 7.80251e-05
13 *385:10 *793:23 0
14 *385:10 *982:12 9.76261e-05
15 *385:10 *982:23 0.000237623
16 *385:10 *1000:93 0
17 *385:21 *4482:B1_N 5.41385e-05
18 *385:21 *390:12 3.91386e-05
19 *385:21 *390:16 5.81643e-05
20 *385:21 *392:6 0.000184527
21 *181:40 *385:10 0.000355817
*RES
1 *4425:X *385:10 44.9186 
2 *385:10 *385:12 15 
3 *385:12 *4432:A 23 
4 *385:12 *385:21 2.54786 
5 *385:21 *4433:B1 23.4971 
6 *385:21 *4482:A2 27.9093 
*END

*D_NET *386 0.00310782
*CONN
*I *4429:A1 I *D sky130_fd_sc_hd__o21ai_1
*I *4428:B I *D sky130_fd_sc_hd__or3_4
*I *4477:A2 I *D sky130_fd_sc_hd__o21bai_1
*I *4426:Y O *D sky130_fd_sc_hd__a21oi_1
*CAP
1 *4429:A1 0.000137174
2 *4428:B 0
3 *4477:A2 0
4 *4426:Y 0.000136595
5 *386:25 0.000281004
6 *386:12 0.0001671
7 *386:8 0.000159865
8 *4429:A1 *4429:A2 4.67269e-05
9 *4429:A1 *781:35 0.000549706
10 *386:8 *772:54 0.000345295
11 *386:8 *993:70 3.72639e-05
12 *386:8 *995:68 0.000208843
13 *386:12 *782:29 5.3304e-05
14 *386:12 *988:55 5.3304e-05
15 *386:25 *4477:B1_N 3.7122e-06
16 *386:25 *387:10 9.03784e-05
17 *386:25 *387:23 9.85378e-05
18 *386:25 *781:23 8.4047e-05
19 *386:25 *782:29 0.000124306
20 *386:25 *973:41 3.61397e-05
21 *386:25 *988:55 0.000128948
22 *4429:B1 *4429:A1 0.000258245
23 *343:12 *386:8 1.14452e-05
24 *343:21 *4429:A1 9.5877e-05
*RES
1 *4426:Y *386:8 42.7229 
2 *386:8 *386:12 15.6214 
3 *386:12 *4477:A2 23 
4 *386:12 *386:25 34.1843 
5 *386:25 *4428:B 23 
6 *386:25 *4429:A1 29.235 
*END

*D_NET *387 0.00241272
*CONN
*I *4429:A2 I *D sky130_fd_sc_hd__o21ai_1
*I *4428:C I *D sky130_fd_sc_hd__or3_4
*I *4477:B1_N I *D sky130_fd_sc_hd__o21bai_1
*I *4427:X O *D sky130_fd_sc_hd__and3_1
*CAP
1 *4429:A2 0.000190512
2 *4428:C 6.90329e-05
3 *4477:B1_N 5.43868e-05
4 *4427:X 0.000327445
5 *387:23 0.000405004
6 *387:10 0.000527291
7 *4428:C *4382:B 3.91386e-05
8 *4429:A2 *388:10 5.67058e-05
9 *4429:A2 *389:10 5.67058e-05
10 *4429:A2 *781:35 1.4345e-05
11 *4477:B1_N *782:29 9.88574e-06
12 *387:10 *865:10 0
13 *387:10 *988:55 0.00016276
14 *387:23 *865:10 0
15 *387:23 *973:41 2.72055e-05
16 *4428:A *4428:C 4.00259e-06
17 *4429:A1 *4429:A2 4.67269e-05
18 *4429:B1 *4429:A2 0.000151601
19 *199:10 *387:10 0
20 *343:21 *4428:C 5.41288e-05
21 *343:21 *4429:A2 2.32101e-05
22 *386:25 *4477:B1_N 3.7122e-06
23 *386:25 *387:10 9.03784e-05
24 *386:25 *387:23 9.85378e-05
*RES
1 *4427:X *387:10 44.4007 
2 *387:10 *4477:B1_N 38.6214 
3 *387:10 *387:23 17.61 
4 *387:23 *4428:C 24.595 
5 *387:23 *4429:A2 27.93 
*END

*D_NET *388 0.00151266
*CONN
*I *4430:B1 I *D sky130_fd_sc_hd__o211ai_2
*I *4431:A2 I *D sky130_fd_sc_hd__a211o_1
*I *4428:X O *D sky130_fd_sc_hd__or3_4
*CAP
1 *4430:B1 0.000165812
2 *4431:A2 0
3 *4428:X 0.000233175
4 *388:10 0.000398987
5 *4430:B1 *4430:C1 5.3304e-05
6 *4430:B1 *865:10 0.000222104
7 *4430:B1 *973:41 0
8 *388:10 *865:10 0.000382574
9 *388:10 *973:41 0
10 *4429:A2 *388:10 5.67058e-05
*RES
1 *4428:X *388:10 43.6964 
2 *388:10 *4431:A2 38 
3 *388:10 *4430:B1 42.0807 
*END

*D_NET *389 0.00184567
*CONN
*I *4430:C1 I *D sky130_fd_sc_hd__o211ai_2
*I *4431:A1 I *D sky130_fd_sc_hd__a211o_1
*I *4429:Y O *D sky130_fd_sc_hd__o21ai_1
*CAP
1 *4430:C1 0.000201616
2 *4431:A1 3.21736e-05
3 *4429:Y 0.000235075
4 *389:10 0.000468864
5 *4430:C1 *865:10 0.000234373
6 *4431:A1 *391:6 2.64616e-05
7 *389:10 *865:10 0.000382574
8 *4429:A2 *389:10 5.67058e-05
9 *4430:B1 *4430:C1 5.3304e-05
10 *4431:C1 *4430:C1 9.63918e-05
11 *4431:C1 *389:10 4.6318e-06
12 *181:40 *4431:A1 2.64616e-05
13 *199:10 *389:10 0
14 *346:8 *4430:C1 2.70366e-05
*RES
1 *4429:Y *389:10 43.6964 
2 *389:10 *4431:A1 38.6214 
3 *389:10 *4430:C1 42.8886 
*END

*D_NET *390 0.00310307
*CONN
*I *4432:B I *D sky130_fd_sc_hd__nand3_1
*I *4482:B1_N I *D sky130_fd_sc_hd__a21bo_1
*I *4433:A1 I *D sky130_fd_sc_hd__a21o_1
*I *4430:Y O *D sky130_fd_sc_hd__o211ai_2
*CAP
1 *4432:B 0
2 *4482:B1_N 6.86444e-05
3 *4433:A1 0
4 *4430:Y 0.000818404
5 *390:16 0.000163182
6 *390:12 0.000912941
7 *4482:B1_N *4482:A1 0.000300817
8 *390:12 *4430:A1 5.47808e-05
9 *390:12 *391:16 2.98648e-05
10 *390:12 *857:12 4.58593e-05
11 *390:16 *4482:A1 5.3304e-05
12 *390:16 *391:16 0.000100077
13 *4386:A *390:12 0.000139352
14 *4386:C *390:12 4.66047e-05
15 *4482:A2 *4482:B1_N 0.000119313
16 *347:10 *390:12 9.84851e-05
17 *385:21 *4482:B1_N 5.41385e-05
18 *385:21 *390:12 3.91386e-05
19 *385:21 *390:16 5.81643e-05
*RES
1 *4430:Y *390:12 38.1007 
2 *390:12 *390:16 2.07143 
3 *390:16 *4433:A1 23 
4 *390:16 *4482:B1_N 26.48 
5 *390:12 *4432:B 23 
*END

*D_NET *391 0.00528665
*CONN
*I *4432:C I *D sky130_fd_sc_hd__nand3_1
*I *4482:A1 I *D sky130_fd_sc_hd__a21bo_1
*I *4433:A2 I *D sky130_fd_sc_hd__a21o_1
*I *4431:X O *D sky130_fd_sc_hd__a211o_1
*CAP
1 *4432:C 0
2 *4482:A1 0.000399166
3 *4433:A2 0
4 *4431:X 0.00112373
5 *391:22 2.55549e-05
6 *391:16 0.000603536
7 *391:12 0.00029155
8 *391:6 0.00123646
9 *391:6 *857:29 0.000354122
10 *391:6 *982:12 0.000226306
11 *391:6 *982:23 5.67058e-05
12 *391:12 *982:23 5.21127e-05
13 *391:12 *1000:93 0
14 *391:22 *792:33 6.16531e-05
15 *4431:A1 *391:6 2.64616e-05
16 *4482:A2 *4482:A1 7.06229e-05
17 *4482:B1_N *4482:A1 0.000300817
18 *181:40 *391:6 0.000212956
19 *385:10 *391:22 6.16531e-05
20 *390:12 *391:16 2.98648e-05
21 *390:16 *4482:A1 5.3304e-05
22 *390:16 *391:16 0.000100077
*RES
1 *4431:X *391:6 39.3436 
2 *391:6 *391:12 31.5536 
3 *391:12 *391:16 2.54786 
4 *391:16 *391:22 30.8493 
5 *391:22 *4433:A2 23 
6 *391:16 *4482:A1 29.7114 
7 *391:12 *4432:C 23 
*END

*D_NET *392 0.00467448
*CONN
*I *4435:A I *D sky130_fd_sc_hd__nand3_2
*I *4436:A1 I *D sky130_fd_sc_hd__a21o_1
*I *4432:Y O *D sky130_fd_sc_hd__nand3_1
*CAP
1 *4435:A 0.000131254
2 *4436:A1 0
3 *4432:Y 0.000655021
4 *392:12 0.000374681
5 *392:6 0.000898448
6 *4435:A *4435:B 8.01689e-05
7 *4435:A *4436:B1 0.00010018
8 *4435:A *396:8 5.67058e-05
9 *392:6 *393:8 0.000662746
10 *392:12 *979:89 0
11 *4482:A2 *392:6 0.000445374
12 *181:50 *392:6 0.00108537
13 *385:21 *392:6 0.000184527
*RES
1 *4432:Y *392:6 42.2021 
2 *392:6 *392:12 34.3707 
3 *392:12 *4436:A1 23 
4 *392:12 *4435:A 26.5214 
*END

*D_NET *393 0.00442535
*CONN
*I *4435:B I *D sky130_fd_sc_hd__nand3_2
*I *4436:A2 I *D sky130_fd_sc_hd__a21o_1
*I *4433:X O *D sky130_fd_sc_hd__a21o_1
*CAP
1 *4435:B 0.000113855
2 *4436:A2 0
3 *4433:X 0.000426445
4 *393:14 0.000632325
5 *393:8 0.000944914
6 *4435:B *4435:C 0.000181098
7 *4435:B *4436:B1 9.84794e-05
8 *4435:B *396:8 3.53115e-05
9 *393:14 *977:100 0.000137651
10 *393:14 *1003:73 0.000219383
11 *393:14 *1008:14 0.000352538
12 *4435:A *4435:B 8.01689e-05
13 *351:16 *4435:B 0.000187129
14 *351:16 *393:14 0.000353309
15 *392:6 *393:8 0.000662746
*RES
1 *4433:X *393:8 45.2914 
2 *393:8 *393:14 28.4436 
3 *393:14 *4436:A2 23 
4 *393:14 *4435:B 27.9507 
*END

*D_NET *394 0.00166863
*CONN
*I *4435:C I *D sky130_fd_sc_hd__nand3_2
*I *4436:B1 I *D sky130_fd_sc_hd__a21o_1
*I *4434:X O *D sky130_fd_sc_hd__a21bo_1
*CAP
1 *4435:C 0.000143707
2 *4436:B1 8.48904e-05
3 *4434:X 0.000181296
4 *394:8 0.000409894
5 *4435:C *395:8 5.67058e-05
6 *4435:C *396:8 6.62899e-05
7 *4435:A *4436:B1 0.00010018
8 *4435:B *4435:C 0.000181098
9 *4435:B *4436:B1 9.84794e-05
10 *341:10 *394:8 2.5415e-05
11 *350:14 *394:8 0
12 *351:20 *4436:B1 1.01436e-05
13 *351:20 *394:8 0.000310526
*RES
1 *4434:X *394:8 42.3707 
2 *394:8 *4436:B1 39.9471 
3 *394:8 *4435:C 41.9979 
*END

*D_NET *395 0.00580221
*CONN
*I *4490:B1 I *D sky130_fd_sc_hd__o211a_1
*I *4437:B I *D sky130_fd_sc_hd__and3_1
*I *4439:A1 I *D sky130_fd_sc_hd__a21oi_1
*I *4438:B I *D sky130_fd_sc_hd__nand3_1
*I *4488:A1 I *D sky130_fd_sc_hd__a211oi_1
*I *4489:A1 I *D sky130_fd_sc_hd__a211o_1
*I *4435:Y O *D sky130_fd_sc_hd__nand3_2
*CAP
1 *4490:B1 0.000165942
2 *4437:B 0.000101339
3 *4439:A1 0.00018837
4 *4438:B 0
5 *4488:A1 0
6 *4489:A1 0
7 *4435:Y 0.000538128
8 *395:49 0.000315127
9 *395:40 0.000212991
10 *395:34 0.000508811
11 *395:20 4.73886e-05
12 *395:14 0.000325572
13 *395:8 0.000971606
14 *4437:B *399:10 0.000111138
15 *4439:A1 *4439:A2 0.000269781
16 *4490:B1 *4490:A2 4.07999e-05
17 *4490:B1 *4490:C1 5.50106e-05
18 *4490:B1 *398:12 0.000127821
19 *395:8 *396:8 0.000255829
20 *395:14 *4488:A2 4.58924e-05
21 *395:14 *396:10 0
22 *395:14 *398:16 7.75329e-06
23 *395:20 *4488:A2 0.000141879
24 *395:20 *398:16 1.14452e-05
25 *395:20 *444:19 0.000141879
26 *395:34 *396:10 0
27 *395:34 *398:8 3.47781e-05
28 *395:34 *398:16 7.06228e-05
29 *395:40 *398:8 0.000330144
30 *395:40 *398:12 5.3304e-05
31 *395:40 *399:10 3.20914e-05
32 *395:49 *399:10 2.96051e-05
33 *4435:C *395:8 5.67058e-05
34 *4437:A *4437:B 9.94675e-05
35 *4437:A *395:40 3.70187e-05
36 *4437:A *395:49 5.24393e-05
37 *380:6 *4490:B1 1.03836e-05
38 *380:6 *395:40 1.76557e-05
39 *381:10 *395:34 7.76364e-06
40 *381:10 *395:40 0.000385726
*RES
1 *4435:Y *395:8 49.5793 
2 *395:8 *395:14 19.3086 
3 *395:14 *395:20 31.9057 
4 *395:20 *4489:A1 23 
5 *395:14 *4488:A1 23 
6 *395:8 *395:34 18.3143 
7 *395:34 *395:40 21.525 
8 *395:40 *4438:B 38 
9 *395:40 *395:49 0.849286 
10 *395:49 *4439:A1 41.0036 
11 *395:49 *4437:B 40.9621 
12 *395:34 *4490:B1 26.5007 
*END

*D_NET *396 0.00463147
*CONN
*I *4437:C I *D sky130_fd_sc_hd__and3_1
*I *4439:A2 I *D sky130_fd_sc_hd__a21oi_1
*I *4438:C I *D sky130_fd_sc_hd__nand3_1
*I *4436:X O *D sky130_fd_sc_hd__a21o_1
*CAP
1 *4437:C 0.000367355
2 *4439:A2 0.000210561
3 *4438:C 0
4 *4436:X 0.000635004
5 *396:14 0.000326585
6 *396:10 0.00100711
7 *396:8 0.00115874
8 *4435:A *396:8 5.67058e-05
9 *4435:B *396:8 3.53115e-05
10 *4435:C *396:8 6.62899e-05
11 *4437:A *4437:C 5.50049e-05
12 *4437:A *396:10 0
13 *4439:A1 *4439:A2 0.000269781
14 *4439:B1 *4439:A2 0.000141052
15 *379:12 *396:10 0
16 *381:10 *396:10 0
17 *381:16 *4439:A2 4.61404e-05
18 *395:8 *396:8 0.000255829
19 *395:14 *396:10 0
20 *395:34 *396:10 0
*RES
1 *4436:X *396:8 48.15 
2 *396:8 *396:10 9.65286 
3 *396:10 *396:14 17.0507 
4 *396:14 *4438:C 23 
5 *396:14 *4439:A2 28.4271 
6 *396:10 *4437:C 42.9921 
*END

*D_NET *397 0.00115966
*CONN
*I *4442:A1 I *D sky130_fd_sc_hd__o211ai_2
*I *4440:C1 I *D sky130_fd_sc_hd__a211o_1
*I *4437:X O *D sky130_fd_sc_hd__and3_1
*CAP
1 *4442:A1 0.00013221
2 *4440:C1 6.1801e-05
3 *4437:X 0.000307616
4 *397:10 0.000501627
5 *4440:C1 *400:6 0.000141954
6 *4442:A1 *4442:A2 0
7 *4442:A1 *400:10 0
8 *397:10 *4442:A2 0
9 *397:10 *399:10 0
10 *397:10 *403:12 0
11 *333:40 *4442:A1 1.44546e-05
*RES
1 *4437:X *397:10 42.3086 
2 *397:10 *4440:C1 39.5743 
3 *397:10 *4442:A1 40.61 
*END

*D_NET *398 0.00200833
*CONN
*I *4490:C1 I *D sky130_fd_sc_hd__o211a_1
*I *4489:A2 I *D sky130_fd_sc_hd__a211o_1
*I *4488:A2 I *D sky130_fd_sc_hd__a211oi_1
*I *4438:Y O *D sky130_fd_sc_hd__nand3_1
*CAP
1 *4490:C1 1.42646e-05
2 *4489:A2 0
3 *4488:A2 7.23363e-05
4 *4438:Y 0.00017261
5 *398:16 0.000194253
6 *398:12 0.000192432
7 *398:8 0.000228861
8 *4488:A2 *444:19 1.37246e-05
9 *398:16 *4490:A1 0
10 *398:16 *4490:A2 0.000104051
11 *4490:B1 *4490:C1 5.50106e-05
12 *4490:B1 *398:12 0.000127821
13 *380:6 *4490:C1 2.32101e-05
14 *380:6 *398:12 9.91798e-05
15 *381:10 *398:8 1.47563e-05
16 *395:14 *4488:A2 4.58924e-05
17 *395:14 *398:16 7.75329e-06
18 *395:20 *4488:A2 0.000141879
19 *395:20 *398:16 1.14452e-05
20 *395:34 *398:8 3.47781e-05
21 *395:34 *398:16 7.06228e-05
22 *395:40 *398:8 0.000330144
23 *395:40 *398:12 5.3304e-05
*RES
1 *4438:Y *398:8 42.7229 
2 *398:8 *398:12 17.0507 
3 *398:12 *398:16 18.3143 
4 *398:16 *4488:A2 40.2579 
5 *398:16 *4489:A2 38 
6 *398:12 *4490:C1 23.6214 
*END

*D_NET *399 0.00139246
*CONN
*I *4442:A2 I *D sky130_fd_sc_hd__o211ai_2
*I *4440:B1 I *D sky130_fd_sc_hd__a211o_1
*I *4439:Y O *D sky130_fd_sc_hd__a21oi_1
*CAP
1 *4442:A2 0.000148461
2 *4440:B1 0
3 *4439:Y 0.000384339
4 *399:10 0.0005328
5 *4437:B *399:10 0.000111138
6 *4439:B1 *399:10 5.41385e-05
7 *4442:A1 *4442:A2 0
8 *355:46 *4442:A2 9.3813e-05
9 *355:46 *399:10 6.07611e-06
10 *395:40 *399:10 3.20914e-05
11 *395:49 *399:10 2.96051e-05
12 *397:10 *4442:A2 0
13 *397:10 *399:10 0
*RES
1 *4439:Y *399:10 45.5814 
2 *399:10 *4440:B1 38 
3 *399:10 *4442:A2 41.2314 
*END

*D_NET *400 0.00308958
*CONN
*I *4441:A I *D sky130_fd_sc_hd__inv_2
*I *4444:B I *D sky130_fd_sc_hd__nand3_1
*I *4445:A1 I *D sky130_fd_sc_hd__a21o_1
*I *4443:B I *D sky130_fd_sc_hd__and3_1
*I *4440:X O *D sky130_fd_sc_hd__a211o_1
*CAP
1 *4441:A 0.000172326
2 *4444:B 2.35993e-05
3 *4445:A1 0.000105638
4 *4443:B 0
5 *4440:X 0.000405988
6 *400:23 0.00033239
7 *400:10 0.000430399
8 *400:6 0.00080556
9 *4441:A *401:10 7.44257e-05
10 *4444:B *4445:A2 5.20504e-06
11 *4445:A1 *4445:A2 1.04009e-05
12 *400:10 *402:27 6.48142e-05
13 *400:10 *403:12 8.51432e-05
14 *400:10 *849:14 1.84226e-05
15 *400:23 *402:27 0.00030233
16 *4440:A2 *400:6 5.67058e-05
17 *4440:C1 *400:6 0.000141954
18 *4442:A1 *400:10 0
19 *4444:A *4445:A1 4.47666e-05
20 *4444:A *400:23 7.05345e-06
21 *333:32 *4445:A1 2.45549e-06
22 *333:40 *400:10 0
23 *333:40 *400:23 0
*RES
1 *4440:X *400:6 30.7679 
2 *400:6 *400:10 19.0186 
3 *400:10 *4443:B 38 
4 *400:10 *400:23 19.64 
5 *400:23 *4445:A1 24.5743 
6 *400:23 *4444:B 23.4971 
7 *400:6 *4441:A 26.0243 
*END

*D_NET *401 0.00232981
*CONN
*I *4493:A1 I *D sky130_fd_sc_hd__o211a_1
*I *4494:B1 I *D sky130_fd_sc_hd__a211o_1
*I *4441:Y O *D sky130_fd_sc_hd__inv_2
*CAP
1 *4493:A1 0.000166549
2 *4494:B1 6.70247e-05
3 *4441:Y 0.000206368
4 *401:10 0.000439941
5 *4493:A1 *4493:A2 8.33304e-05
6 *4493:A1 *4493:C1 0.000272383
7 *4493:A1 *772:6 0.00022295
8 *4493:A1 *772:114 7.42621e-05
9 *4494:B1 *4494:C1 0.000141869
10 *4494:B1 *403:12 9.26098e-05
11 *4494:B1 *849:14 0.000222104
12 *401:10 *403:12 0.000129504
13 *401:10 *849:14 0.000136486
14 *4441:A *401:10 7.44257e-05
*RES
1 *4441:Y *401:10 41.9564 
2 *401:10 *4494:B1 40.9621 
3 *401:10 *4493:A1 44.3593 
*END

*D_NET *402 0.00205108
*CONN
*I *4445:A2 I *D sky130_fd_sc_hd__a21o_1
*I *4444:C I *D sky130_fd_sc_hd__nand3_1
*I *4443:C I *D sky130_fd_sc_hd__and3_1
*I *4442:Y O *D sky130_fd_sc_hd__o211ai_2
*CAP
1 *4445:A2 0.000198986
2 *4444:C 0
3 *4443:C 5.36796e-05
4 *4442:Y 0.000266873
5 *402:27 0.000365769
6 *402:8 0.000487336
7 *4445:A2 *849:14 1.34542e-05
8 *402:27 *849:14 0.000196188
9 *4444:A *4445:A2 5.70275e-06
10 *4444:B *4445:A2 5.20504e-06
11 *4445:A1 *4445:A2 1.04009e-05
12 *333:32 *4445:A2 8.57697e-07
13 *333:40 *4445:A2 2.5343e-05
14 *333:40 *402:8 5.41385e-05
15 *333:40 *402:27 0
16 *400:10 *402:27 6.48142e-05
17 *400:23 *402:27 0.00030233
*RES
1 *4442:Y *402:8 27.93 
2 *402:8 *4443:C 24.3464 
3 *402:8 *402:27 20.6964 
4 *402:27 *4444:C 38 
5 *402:27 *4445:A2 41.2366 
*END

*D_NET *403 0.00243409
*CONN
*I *4493:A2 I *D sky130_fd_sc_hd__o211a_1
*I *4494:C1 I *D sky130_fd_sc_hd__a211o_1
*I *4443:X O *D sky130_fd_sc_hd__and3_1
*CAP
1 *4493:A2 0.00047269
2 *4494:C1 7.87325e-05
3 *4443:X 0.000224227
4 *403:12 0.000775649
5 *4493:A2 *4493:C1 0.000148698
6 *4493:A2 *772:6 2.92911e-06
7 *403:12 *849:14 0.00019871
8 *4493:A1 *4493:A2 8.33304e-05
9 *4494:B1 *4494:C1 0.000141869
10 *4494:B1 *403:12 9.26098e-05
11 *397:10 *403:12 0
12 *400:10 *403:12 8.51432e-05
13 *401:10 *403:12 0.000129504
*RES
1 *4443:X *403:12 44.5457 
2 *403:12 *4494:C1 39.9057 
3 *403:12 *4493:A2 44.7114 
*END

*D_NET *404 0.00112927
*CONN
*I *4447:A1 I *D sky130_fd_sc_hd__a21o_1
*I *4446:B I *D sky130_fd_sc_hd__nand3_1
*I *4444:Y O *D sky130_fd_sc_hd__nand3_1
*CAP
1 *4447:A1 0.000111353
2 *4446:B 0
3 *4444:Y 0.000275058
4 *404:12 0.000111353
5 *404:10 0.000275058
6 *4447:A1 *4446:C 1.57925e-05
7 *404:10 *4447:A2 4.43717e-05
8 *404:10 *405:8 4.08537e-05
9 *404:10 *849:14 0
10 *4444:A *404:10 9.84851e-05
11 *4446:A *4447:A1 5.84672e-05
12 *333:32 *404:10 9.84794e-05
*RES
1 *4444:Y *404:10 42.3086 
2 *404:10 *404:12 15 
3 *404:12 *4446:B 23 
4 *404:12 *4447:A1 25.5686 
*END

*D_NET *405 0.000836856
*CONN
*I *4447:A2 I *D sky130_fd_sc_hd__a21o_1
*I *4446:C I *D sky130_fd_sc_hd__nand3_1
*I *4445:X O *D sky130_fd_sc_hd__a21o_1
*CAP
1 *4447:A2 6.16162e-05
2 *4446:C 0.00020353
3 *4445:X 6.55472e-05
4 *405:8 0.000330693
5 *4446:A *4446:C 7.44517e-05
6 *4447:A1 *4446:C 1.57925e-05
7 *404:10 *4447:A2 4.43717e-05
8 *404:10 *405:8 4.08537e-05
*RES
1 *4445:X *405:8 39.2014 
2 *405:8 *4446:C 41.2521 
3 *405:8 *4447:A2 39.2014 
*END

*D_NET *406 0.00184367
*CONN
*I *4449:A1 I *D sky130_fd_sc_hd__a21o_1
*I *4448:B I *D sky130_fd_sc_hd__nand3_1
*I *4457:B1_N I *D sky130_fd_sc_hd__a21bo_1
*I *4446:Y O *D sky130_fd_sc_hd__nand3_1
*CAP
1 *4449:A1 0
2 *4448:B 0.000170603
3 *4457:B1_N 4.71124e-05
4 *4446:Y 0.000297437
5 *406:25 0.000227887
6 *406:12 0.000268442
7 *406:8 0.000461482
8 *4448:B *4448:C 2.93747e-05
9 *4448:B *772:38 4.75087e-05
10 *4457:B1_N *4457:A2 6.17437e-06
11 *406:8 *407:8 0
12 *406:8 *407:14 0
13 *406:8 *849:14 0
14 *406:12 *4457:A2 6.51843e-05
15 *406:12 *416:8 2.45549e-06
16 *406:25 *407:14 0.000111852
17 *4457:A1 *406:12 5.50106e-05
18 *4457:A1 *406:25 5.31444e-05
*RES
1 *4446:Y *406:8 43.4271 
2 *406:8 *406:12 18.0036 
3 *406:12 *4457:B1_N 23.6214 
4 *406:12 *406:25 31.5536 
5 *406:25 *4448:B 25.5479 
6 *406:25 *4449:A1 23 
*END

*D_NET *407 0.00138819
*CONN
*I *4457:A2 I *D sky130_fd_sc_hd__a21bo_1
*I *4449:A2 I *D sky130_fd_sc_hd__a21o_1
*I *4448:C I *D sky130_fd_sc_hd__nand3_1
*I *4447:X O *D sky130_fd_sc_hd__a21o_1
*CAP
1 *4457:A2 8.30697e-05
2 *4449:A2 0
3 *4448:C 1.80505e-05
4 *4447:X 0.000249138
5 *407:14 0.000186653
6 *407:8 0.00050081
7 *4448:C *772:38 5.50049e-05
8 *4448:B *4448:C 2.93747e-05
9 *4457:A1 *4457:A2 5.67058e-05
10 *4457:A1 *407:14 2.61699e-05
11 *4457:B1_N *4457:A2 6.17437e-06
12 *372:12 *407:14 0
13 *406:8 *407:8 0
14 *406:8 *407:14 0
15 *406:12 *4457:A2 6.51843e-05
16 *406:25 *407:14 0.000111852
*RES
1 *4447:X *407:8 42.7229 
2 *407:8 *407:14 18.5836 
3 *407:14 *4448:C 23.6214 
4 *407:14 *4449:A2 23 
5 *407:8 *4457:A2 40.0507 
*END

*D_NET *408 0.00137108
*CONN
*I *4450:B I *D sky130_fd_sc_hd__and3_1
*I *4451:A1 I *D sky130_fd_sc_hd__a21oi_1
*I *4448:Y O *D sky130_fd_sc_hd__nand3_1
*CAP
1 *4450:B 0
2 *4451:A1 0.000111854
3 *4448:Y 0.000302511
4 *408:6 0.000414364
5 *4451:A1 *4450:A 1.32939e-05
6 *4451:A1 *4450:C 0
7 *4451:A1 *4451:A2 2.4754e-05
8 *4451:A1 *410:10 0.000162739
9 *4451:A1 *772:38 9.84794e-05
10 *408:6 *772:38 0.000243083
*RES
1 *4448:Y *408:6 27.9093 
2 *408:6 *4451:A1 26.3971 
3 *408:6 *4450:B 23 
*END

*D_NET *409 0.000589179
*CONN
*I *4451:A2 I *D sky130_fd_sc_hd__a21oi_1
*I *4450:C I *D sky130_fd_sc_hd__and3_1
*I *4449:X O *D sky130_fd_sc_hd__a21o_1
*CAP
1 *4451:A2 2.06437e-05
2 *4450:C 2.34685e-05
3 *4449:X 2.81374e-05
4 *409:6 7.22495e-05
5 *4450:C *4450:A 3.22076e-05
6 *4451:A2 *4450:A 6.99571e-05
7 *4451:A2 *772:38 0.00010018
8 *409:6 *4450:A 7.39261e-05
9 *409:6 *772:38 0.000143655
10 *4451:A1 *4450:C 0
11 *4451:A1 *4451:A2 2.4754e-05
*RES
1 *4449:X *409:6 24.5743 
2 *409:6 *4450:C 23.725 
3 *409:6 *4451:A2 24.5743 
*END

*D_NET *410 0.0029478
*CONN
*I *4454:A1 I *D sky130_fd_sc_hd__o21ai_1
*I *4500:B1_N I *D sky130_fd_sc_hd__o21bai_2
*I *4453:A I *D sky130_fd_sc_hd__or3_1
*I *4450:X O *D sky130_fd_sc_hd__and3_1
*CAP
1 *4454:A1 0
2 *4500:B1_N 5.25641e-05
3 *4453:A 0
4 *4450:X 0.000223761
5 *410:26 0.000566447
6 *410:10 0.000737644
7 *4500:B1_N *4453:C 9.84385e-05
8 *4500:B1_N *412:37 0
9 *4500:B1_N *459:14 0.00020996
10 *410:10 *4450:A 2.83349e-05
11 *410:10 *411:6 4.95081e-05
12 *410:10 *412:28 0.000138444
13 *410:10 *826:27 0.00018282
14 *410:26 *4450:A 0
15 *410:26 *4453:C 0.000336993
16 *410:26 *412:28 6.9805e-05
17 *410:26 *412:37 5.98917e-05
18 *410:26 *459:14 3.04516e-05
19 *4451:A1 *410:10 0.000162739
*RES
1 *4450:X *410:10 28.7793 
2 *410:10 *410:26 10.6679 
3 *410:26 *4453:A 23 
4 *410:26 *4500:B1_N 26.8114 
5 *410:10 *4454:A1 23 
*END

*D_NET *411 0.00190075
*CONN
*I *4453:B I *D sky130_fd_sc_hd__or3_1
*I *4500:A1 I *D sky130_fd_sc_hd__o21bai_2
*I *4454:A2 I *D sky130_fd_sc_hd__o21ai_1
*I *4451:Y O *D sky130_fd_sc_hd__a21oi_1
*CAP
1 *4453:B 0.000282815
2 *4500:A1 0
3 *4454:A2 0
4 *4451:Y 0.000164805
5 *411:23 4.7176e-05
6 *411:17 0.000443294
7 *411:6 0.000278107
8 *4453:B *4453:C 4.73234e-05
9 *4453:B *412:37 4.5051e-05
10 *4453:B *459:14 0.000143655
11 *411:6 *412:28 0.000178517
12 *411:17 *412:28 8.60475e-05
13 *411:17 *412:37 3.50723e-05
14 *411:17 *459:14 0
15 *411:23 *414:8 6.07611e-06
16 *411:23 *772:14 6.96146e-05
17 *411:23 *838:124 2.36844e-05
18 *410:10 *411:6 4.95081e-05
*RES
1 *4451:Y *411:6 26.0036 
2 *411:6 *4454:A2 23 
3 *411:6 *411:17 2.21643 
4 *411:17 *411:23 31.2014 
5 *411:23 *4500:A1 23 
6 *411:17 *4453:B 27.4329 
*END

*D_NET *412 0.0064314
*CONN
*I *4500:A2 I *D sky130_fd_sc_hd__o21bai_2
*I *4453:C I *D sky130_fd_sc_hd__or3_1
*I *4454:B1 I *D sky130_fd_sc_hd__o21ai_1
*I *4452:Y O *D sky130_fd_sc_hd__a21oi_2
*CAP
1 *4500:A2 0
2 *4453:C 8.77151e-05
3 *4454:B1 0
4 *4452:Y 7.99533e-05
5 *412:37 0.000150199
6 *412:28 0.000143083
7 *412:24 0.00108327
8 *412:14 0.0020816
9 *412:8 0.00115889
10 *4453:C *459:14 1.76557e-05
11 *412:24 *772:28 0
12 *412:24 *849:14 0.000164291
13 *412:37 *459:14 0
14 *4402:A1 *412:24 0
15 *4453:B *4453:C 4.73234e-05
16 *4453:B *412:37 4.5051e-05
17 *4500:B1_N *4453:C 9.84385e-05
18 *4500:B1_N *412:37 0
19 *364:10 *412:8 0
20 *372:6 *412:24 5.50049e-05
21 *372:23 *412:24 0.000314157
22 *410:10 *412:28 0.000138444
23 *410:26 *4453:C 0.000336993
24 *410:26 *412:28 6.9805e-05
25 *410:26 *412:37 5.98917e-05
26 *411:6 *412:28 0.000178517
27 *411:17 *412:28 8.60475e-05
28 *411:17 *412:37 3.50723e-05
*RES
1 *4452:Y *412:8 39.2014 
2 *412:8 *412:14 43.9614 
3 *412:14 *412:24 49.5957 
4 *412:24 *412:28 18.0036 
5 *412:28 *4454:B1 23 
6 *412:28 *412:37 2.07143 
7 *412:37 *4453:C 27.4743 
8 *412:37 *4500:A2 23 
*END

*D_NET *413 0.000874745
*CONN
*I *4455:A1 I *D sky130_fd_sc_hd__a21bo_1
*I *4453:X O *D sky130_fd_sc_hd__or3_1
*CAP
1 *4455:A1 0.00025716
2 *4453:X 0.000113423
3 *413:8 0.000370584
4 *4455:A1 *832:29 5.72217e-05
5 *4455:A1 *832:44 7.63554e-05
6 *413:8 *4503:A 0
*RES
1 *4453:X *413:8 39.9057 
2 *413:8 *4455:A1 43.4064 
*END

*D_NET *414 0.00056907
*CONN
*I *4455:A2 I *D sky130_fd_sc_hd__a21bo_1
*I *4454:Y O *D sky130_fd_sc_hd__o21ai_1
*CAP
1 *4455:A2 0.000130885
2 *4454:Y 5.50318e-05
3 *414:8 0.000185917
4 *4455:A2 *832:29 5.37348e-06
5 *414:8 *772:14 4.16764e-05
6 *414:8 *838:124 0.00014411
7 *411:23 *414:8 6.07611e-06
*RES
1 *4454:Y *414:8 39.9057 
2 *414:8 *4455:A2 40.0507 
*END

*D_NET *415 0.00177833
*CONN
*I *4456:C1 I *D sky130_fd_sc_hd__o211a_1
*I *4455:X O *D sky130_fd_sc_hd__a21bo_1
*CAP
1 *4456:C1 0.000291075
2 *4455:X 0.000175888
3 *415:8 0.000466963
4 *4456:C1 *4456:A2 5.67058e-05
5 *4456:C1 *826:12 9.84851e-05
6 *4456:C1 *826:27 5.50049e-05
7 *4456:C1 *832:14 9.84794e-05
8 *4456:C1 *845:26 0.000171097
9 *415:8 *772:14 0.000114083
10 *415:8 *832:29 4.07715e-05
11 *415:8 *832:61 8.92944e-05
12 *415:8 *838:124 0.000120477
*RES
1 *4455:X *415:8 43.075 
2 *415:8 *4456:C1 44.3386 
*END

*D_NET *416 0.0080305
*CONN
*I *4496:A I *D sky130_fd_sc_hd__xor2_1
*I *4537:A1 I *D sky130_fd_sc_hd__a21o_1
*I *4580:A1 I *D sky130_fd_sc_hd__a21o_1
*I *4649:A2 I *D sky130_fd_sc_hd__a211o_1
*I *4457:X O *D sky130_fd_sc_hd__a21bo_1
*CAP
1 *4496:A 0
2 *4537:A1 0
3 *4580:A1 0.00020261
4 *4649:A2 1.49546e-05
5 *4457:X 0.000775043
6 *416:24 0.000653885
7 *416:22 0.000852055
8 *416:16 0.000904597
9 *416:10 0.000787206
10 *416:8 0.00107339
11 *4580:A1 *4580:A2 0.000196849
12 *4580:A1 *4580:B1 1.76557e-05
13 *4580:A1 *536:6 1.22822e-05
14 *4649:A2 *4580:A2 3.91386e-05
15 *416:10 *454:18 3.92407e-05
16 *416:10 *772:14 0.000301137
17 *416:16 *4537:A2 7.88926e-05
18 *416:16 *454:18 0.000671554
19 *416:16 *772:14 0.000291435
20 *416:22 *4495:B 0.000140671
21 *416:22 *4537:B1 0.000136029
22 *416:22 *4578:D 9.74235e-05
23 *416:22 *4579:A1 2.95125e-05
24 *416:22 *450:36 0
25 *416:22 *452:17 0.000201361
26 *416:22 *454:8 0
27 *416:22 *454:18 0
28 *416:22 *493:23 0.000114092
29 *416:24 *4579:A1 0.00014196
30 *416:24 *536:6 0.000255074
31 *406:12 *416:8 2.45549e-06
*RES
1 *4457:X *416:8 47.6736 
2 *416:8 *416:10 7.89214 
3 *416:10 *416:16 26.9729 
4 *416:16 *416:22 41.7657 
5 *416:22 *416:24 8.72071 
6 *416:24 *4649:A2 23.4971 
7 *416:24 *4580:A1 26.5007 
8 *416:16 *4537:A1 23 
9 *416:10 *4496:A 38 
*END

*D_NET *417 0.00121392
*CONN
*I *4465:A_N I *D sky130_fd_sc_hd__nand2b_1
*I *4466:A I *D sky130_fd_sc_hd__xnor2_1
*I *4458:Y O *D sky130_fd_sc_hd__nor2_1
*CAP
1 *4465:A_N 6.95854e-05
2 *4466:A 0
3 *4458:Y 0.000378858
4 *417:8 0.000448443
5 *4465:A_N *4465:B 0.000230604
6 *4465:A_N *425:8 3.22879e-05
7 *417:8 *4465:B 2.18506e-05
8 *4458:B *417:8 3.22879e-05
*RES
1 *4458:Y *417:8 29.8357 
2 *417:8 *4466:A 23 
3 *417:8 *4465:A_N 25.5271 
*END

*D_NET *418 0.00463187
*CONN
*I *4463:B I *D sky130_fd_sc_hd__nand2b_1
*I *4464:A I *D sky130_fd_sc_hd__xnor2_1
*I *4459:Y O *D sky130_fd_sc_hd__o21ai_1
*CAP
1 *4463:B 5.19528e-05
2 *4464:A 0
3 *4459:Y 0.00106447
4 *418:22 9.72277e-05
5 *418:14 0.000821182
6 *418:12 0.00173647
7 *4463:B *4463:A_N 1.32314e-05
8 *418:12 *979:61 5.30121e-05
9 *418:12 *979:76 8.48502e-06
10 *418:12 *1000:89 0.000441065
11 *418:14 *4463:A_N 5.50106e-05
12 *418:14 *979:76 2.93845e-05
13 *418:22 *4463:A_N 0.00014411
14 *418:22 *423:10 0
15 *337:8 *418:12 5.50106e-05
16 *375:10 *418:14 3.06338e-05
17 *376:10 *418:14 3.06338e-05
*RES
1 *4459:Y *418:12 41.4357 
2 *418:12 *418:14 11.5793 
3 *418:14 *418:22 32.4029 
4 *418:22 *4464:A 23 
5 *418:14 *4463:B 24.2687 
*END

*D_NET *419 0.000685326
*CONN
*I *4462:A I *D sky130_fd_sc_hd__or2_1
*I *4460:X O *D sky130_fd_sc_hd__o2bb2a_1
*CAP
1 *4462:A 0.000198338
2 *4460:X 6.85935e-05
3 *419:8 0.000266931
4 *4462:A *421:10 2.7237e-05
5 *419:8 *977:64 0
6 *419:8 *1003:30 1.01436e-05
7 *161:82 *419:8 0.000114083
*RES
1 *4460:X *419:8 39.5536 
2 *419:8 *4462:A 41.0036 
*END

*D_NET *420 0.00157874
*CONN
*I *4462:B I *D sky130_fd_sc_hd__or2_1
*I *4511:A I *D sky130_fd_sc_hd__xor2_1
*I *4546:A1 I *D sky130_fd_sc_hd__a21oi_1
*I *4461:X O *D sky130_fd_sc_hd__and4b_1
*CAP
1 *4462:B 0
2 *4511:A 0
3 *4546:A1 0
4 *4461:X 0
5 *420:32 0.000164711
6 *420:14 0.000103507
7 *420:8 0.000456309
8 *420:4 0.000517513
9 *420:14 *4511:B 0.0002129
10 *420:14 *468:10 1.14452e-05
11 *420:14 *503:8 8.51329e-05
12 *420:32 *421:10 2.72257e-05
13 *420:32 *503:8 0
14 *420:32 *796:55 0
*RES
1 *4461:X *420:4 23 
2 *420:4 *420:8 6.235 
3 *420:8 *420:14 33.3143 
4 *420:14 *4546:A1 23 
5 *420:8 *4511:A 23 
6 *420:4 *420:32 32.6514 
7 *420:32 *4462:B 23 
*END

*D_NET *421 0.0016971
*CONN
*I *4463:A_N I *D sky130_fd_sc_hd__nand2b_1
*I *4464:B I *D sky130_fd_sc_hd__xnor2_1
*I *4462:X O *D sky130_fd_sc_hd__or2_1
*CAP
1 *4463:A_N 0.000186885
2 *4464:B 0
3 *4462:X 0.000528258
4 *421:10 0.000715143
5 *4463:A_N *423:10 0
6 *4462:A *421:10 2.7237e-05
7 *4463:B *4463:A_N 1.32314e-05
8 *418:14 *4463:A_N 5.50106e-05
9 *418:22 *4463:A_N 0.00014411
10 *420:32 *421:10 2.72257e-05
*RES
1 *4462:X *421:10 45.2914 
2 *421:10 *4464:B 38 
3 *421:10 *4463:A_N 41.5836 
*END

*D_NET *422 0.0041562
*CONN
*I *4533:B1 I *D sky130_fd_sc_hd__o211a_1
*I *4532:A1 I *D sky130_fd_sc_hd__a211oi_2
*I *4463:Y O *D sky130_fd_sc_hd__nand2b_1
*CAP
1 *4533:B1 0
2 *4532:A1 0
3 *4463:Y 0.00160172
4 *422:16 0.000160645
5 *422:8 0.00176236
6 *422:8 *4486:B 0.000269775
7 *422:8 *4530:A1 4.79641e-05
8 *422:8 *4530:B1 3.17209e-05
9 *422:8 *4533:A2 1.14154e-05
10 *422:8 *488:8 3.80755e-05
11 *422:16 *4532:C1 7.75329e-06
12 *422:16 *4533:A1 3.31127e-05
13 *422:16 *424:16 0.000111148
14 *422:16 *488:23 8.05114e-05
15 *11:9 *422:16 0
*RES
1 *4463:Y *422:8 44.9571 
2 *422:8 *422:16 33.9357 
3 *422:16 *4532:A1 23 
4 *422:8 *4533:B1 23 
*END

*D_NET *423 0.00144648
*CONN
*I *4465:B I *D sky130_fd_sc_hd__nand2b_1
*I *4466:B I *D sky130_fd_sc_hd__xnor2_1
*I *4464:Y O *D sky130_fd_sc_hd__xnor2_1
*CAP
1 *4465:B 0.000155282
2 *4466:B 0
3 *4464:Y 0.000403075
4 *423:12 0.000155282
5 *423:10 0.000403075
6 *4465:B *425:8 2.00852e-05
7 *423:10 *442:6 5.72217e-05
8 *4463:A_N *423:10 0
9 *4465:A_N *4465:B 0.000230604
10 *417:8 *4465:B 2.18506e-05
11 *418:22 *423:10 0
*RES
1 *4464:Y *423:10 44.7736 
2 *423:10 *423:12 15 
3 *423:12 *4466:B 23 
4 *423:12 *4465:B 27.1273 
*END

*D_NET *424 0.00228782
*CONN
*I *4532:A2 I *D sky130_fd_sc_hd__a211oi_2
*I *4533:C1 I *D sky130_fd_sc_hd__o211a_1
*I *4465:Y O *D sky130_fd_sc_hd__nand2b_1
*CAP
1 *4532:A2 0
2 *4533:C1 0
3 *4465:Y 0.000657904
4 *424:16 9.17038e-05
5 *424:10 0.000749608
6 *424:10 *4485:C 8.48502e-06
7 *424:10 *4487:B1 9.21795e-05
8 *424:10 *425:8 7.97636e-05
9 *424:10 *425:12 5.41288e-05
10 *424:10 *425:20 5.46603e-06
11 *424:10 *443:23 0.000140259
12 *424:10 *443:40 0.000198007
13 *424:16 *4530:B1 3.70094e-05
14 *11:9 *424:16 6.21538e-05
15 *422:16 *424:16 0.000111148
*RES
1 *4465:Y *424:10 37.1271 
2 *424:10 *424:16 32.9621 
3 *424:16 *4533:C1 23 
4 *424:10 *4532:A2 23 
*END

*D_NET *425 0.00184286
*CONN
*I *4485:A I *D sky130_fd_sc_hd__and3_1
*I *4487:B1 I *D sky130_fd_sc_hd__a21oi_1
*I *4486:A I *D sky130_fd_sc_hd__nand3_1
*I *4466:Y O *D sky130_fd_sc_hd__xnor2_1
*CAP
1 *4485:A 0
2 *4487:B1 3.36555e-05
3 *4486:A 0
4 *4466:Y 0.000370848
5 *425:20 0.000194928
6 *425:12 0.000292656
7 *425:8 0.00043492
8 *4487:B1 *4485:C 0.000126832
9 *425:8 *4485:C 0
10 *425:12 *4485:C 0
11 *425:20 *442:41 0
12 *425:20 *443:23 5.61207e-05
13 *425:20 *443:40 0
14 *425:20 *445:14 3.70094e-05
15 *425:20 *446:8 1.19796e-05
16 *4465:A_N *425:8 3.22879e-05
17 *4465:B *425:8 2.00852e-05
18 *424:10 *4487:B1 9.21795e-05
19 *424:10 *425:8 7.97636e-05
20 *424:10 *425:12 5.41288e-05
21 *424:10 *425:20 5.46603e-06
*RES
1 *4466:Y *425:8 28.8829 
2 *425:8 *425:12 1.595 
3 *425:12 *425:20 33.4593 
4 *425:20 *4486:A 23 
5 *425:12 *4487:B1 24.5743 
6 *425:8 *4485:A 23 
*END

*D_NET *426 0.000374621
*CONN
*I *4471:A I *D sky130_fd_sc_hd__xnor2_2
*I *4467:Y O *D sky130_fd_sc_hd__nand2_1
*CAP
1 *4471:A 0.000129239
2 *4467:Y 0.000129239
3 *4471:A *430:10 1.32314e-05
4 *4471:A *463:16 7.06229e-05
5 *4471:A *978:104 3.22879e-05
*RES
1 *4467:Y *4471:A 49.0243 
*END

*D_NET *427 0.0017499
*CONN
*I *4470:A_N I *D sky130_fd_sc_hd__and2b_1
*I *4505:B1 I *D sky130_fd_sc_hd__a31o_1
*I *4468:X O *D sky130_fd_sc_hd__and4_1
*CAP
1 *4470:A_N 0.00013654
2 *4505:B1 0.000117557
3 *4468:X 0.000179297
4 *427:12 0.000254097
5 *427:10 0.000179297
6 *4470:A_N *4470:B 0.000226306
7 *4470:A_N *4505:A1 0.00013961
8 *4470:A_N *979:57 7.88926e-05
9 *4505:B1 *4470:B 5.3304e-05
10 *4505:B1 *4505:A1 6.99492e-05
11 *427:10 *4470:B 3.70094e-05
12 *427:10 *428:10 0.000135557
13 *427:10 *984:59 4.66036e-05
14 *427:10 *1004:137 9.5877e-05
*RES
1 *4468:X *427:10 41.3557 
2 *427:10 *427:12 15 
3 *427:12 *4505:B1 25.0507 
4 *427:12 *4470:A_N 27.4329 
*END

*D_NET *428 0.00225414
*CONN
*I *4470:B I *D sky130_fd_sc_hd__and2b_1
*I *4505:A3 I *D sky130_fd_sc_hd__a31o_1
*I *4469:X O *D sky130_fd_sc_hd__a22o_1
*CAP
1 *4470:B 0.000175786
2 *4505:A3 0
3 *4469:X 0.000282984
4 *428:10 0.00045877
5 *4470:B *1000:89 5.24393e-05
6 *428:10 *478:12 0.000219383
7 *428:10 *984:57 0.00022109
8 *428:10 *984:59 0
9 *428:10 *1000:43 0.000318411
10 *428:10 *1000:76 6.16531e-05
11 *428:10 *1000:89 1.14452e-05
12 *4470:A_N *4470:B 0.000226306
13 *4505:B1 *4470:B 5.3304e-05
14 *427:10 *4470:B 3.70094e-05
15 *427:10 *428:10 0.000135557
*RES
1 *4469:X *428:10 45.6021 
2 *428:10 *4505:A3 38 
3 *428:10 *4470:B 41.8529 
*END

*D_NET *429 0.000425284
*CONN
*I *4471:B I *D sky130_fd_sc_hd__xnor2_2
*I *4470:X O *D sky130_fd_sc_hd__and2b_1
*CAP
1 *4471:B 1.97605e-05
2 *4470:X 8.51565e-05
3 *429:8 0.000104917
4 *4471:B *430:10 1.94812e-05
5 *4471:B *463:16 5.50106e-05
6 *429:8 *984:59 0.000140958
*RES
1 *4470:X *429:8 39.9057 
2 *429:8 *4471:B 38.6214 
*END

*D_NET *430 0.00188911
*CONN
*I *4525:A1 I *D sky130_fd_sc_hd__a21bo_1
*I *4480:A I *D sky130_fd_sc_hd__nand3_2
*I *4481:B1 I *D sky130_fd_sc_hd__a21o_1
*I *4471:Y O *D sky130_fd_sc_hd__xnor2_2
*CAP
1 *4525:A1 0
2 *4480:A 0
3 *4481:B1 4.56956e-05
4 *4471:Y 0.000441542
5 *430:20 0.000278192
6 *430:12 0.000232496
7 *430:10 0.000441542
8 *4481:B1 *4480:B 0.000139352
9 *4481:B1 *438:18 7.44257e-05
10 *430:10 *463:16 6.52772e-05
11 *430:10 *979:57 0
12 *430:10 *984:59 0
13 *430:20 *439:8 1.19692e-05
14 *430:20 *965:10 0
15 *430:20 *984:59 0.000125904
16 *4471:A *430:10 1.32314e-05
17 *4471:B *430:10 1.94812e-05
*RES
1 *4471:Y *430:10 44.3386 
2 *430:10 *430:12 15 
3 *430:12 *430:20 34.8886 
4 *430:20 *4481:B1 24.5743 
5 *430:20 *4480:A 23 
6 *430:12 *4525:A1 23 
*END

*D_NET *431 0.00297688
*CONN
*I *4476:B I *D sky130_fd_sc_hd__or4bb_4
*I *4475:A1_N I *D sky130_fd_sc_hd__a2bb2o_1
*I *4517:A I *D sky130_fd_sc_hd__or3b_1
*I *5105:A I *D sky130_fd_sc_hd__dlymetal6s4s_1
*I *5104:A I *D sky130_fd_sc_hd__dlygate4sd1_1
*I *4472:X O *D sky130_fd_sc_hd__and3_4
*CAP
1 *4476:B 9.97249e-05
2 *4475:A1_N 2.34823e-05
3 *4517:A 0
4 *5105:A 0
5 *5104:A 2.53983e-05
6 *4472:X 0
7 *431:37 0.00035759
8 *431:12 0.000118753
9 *431:8 0.000221326
10 *431:6 0.000362354
11 *4476:B *4476:A 0.000196652
12 *4476:B *4476:D_N 1.40958e-05
13 *4476:B *985:59 0.000384365
14 *5104:A *4518:A2_N 5.67058e-05
15 *431:8 *432:8 7.09277e-05
16 *431:8 *993:34 0
17 *431:8 *993:93 6.48142e-05
18 *431:12 *4518:A2_N 7.28526e-05
19 *431:12 *432:8 4.68476e-05
20 *431:12 *475:10 0.000141888
21 *431:12 *862:12 0
22 *431:12 *993:34 0
23 *431:37 *4476:A 2.4754e-05
24 *431:37 *4476:D_N 9.24795e-06
25 *431:37 *432:42 5.70419e-05
26 *431:37 *985:51 0.000227208
27 *431:37 *985:59 0.000228909
28 *431:37 *993:93 0.00016046
29 *431:37 *995:110 1.14876e-05
*RES
1 *4472:X *431:6 38 
2 *431:6 *431:8 2.96214 
3 *431:8 *431:12 17.9621 
4 *431:12 *5104:A 23.6214 
5 *431:12 *5105:A 23 
6 *431:8 *4517:A 38 
7 *431:6 *431:37 22.1671 
8 *431:37 *4475:A1_N 23.4971 
9 *431:37 *4476:B 27.4329 
*END

*D_NET *432 0.00440906
*CONN
*I *4476:A I *D sky130_fd_sc_hd__or4bb_4
*I *4475:A2_N I *D sky130_fd_sc_hd__a2bb2o_1
*I *4517:B I *D sky130_fd_sc_hd__or3b_1
*I *4518:A2_N I *D sky130_fd_sc_hd__a2bb2o_1
*I *4473:Y O *D sky130_fd_sc_hd__o21ai_2
*CAP
1 *4476:A 0.000115352
2 *4475:A2_N 0
3 *4517:B 0
4 *4518:A2_N 0.000371364
5 *4473:Y 0
6 *432:42 0.000328798
7 *432:8 0.000592465
8 *432:4 0.000434547
9 *4476:A *4476:D_N 0.000361856
10 *4518:A2_N *4518:A1_N 0.000271476
11 *4518:A2_N *4518:B2 0.000227208
12 *4518:A2_N *475:10 7.76364e-06
13 *4518:A2_N *862:12 1.76557e-05
14 *4518:A2_N *985:38 7.80251e-05
15 *4518:A2_N *995:40 1.01436e-05
16 *432:8 *985:38 4.32475e-05
17 *432:8 *985:51 0.00020394
18 *432:8 *993:53 0
19 *432:8 *993:93 0.000277714
20 *432:42 *4476:D_N 5.70419e-05
21 *432:42 *985:51 0.000170529
22 *432:42 *993:93 0
23 *432:42 *995:110 0.000314157
24 *432:42 *999:29 0
25 *4476:B *4476:A 0.000196652
26 *5104:A *4518:A2_N 5.67058e-05
27 *431:8 *432:8 7.09277e-05
28 *431:12 *4518:A2_N 7.28526e-05
29 *431:12 *432:8 4.68476e-05
30 *431:37 *4476:A 2.4754e-05
31 *431:37 *432:42 5.70419e-05
*RES
1 *4473:Y *432:4 23 
2 *432:4 *432:8 22.1879 
3 *432:8 *4518:A2_N 47.5493 
4 *432:8 *4517:B 38 
5 *432:4 *432:42 36.4629 
6 *432:42 *4475:A2_N 23 
7 *432:42 *4476:A 27.93 
*END

*D_NET *433 0.00164313
*CONN
*I *4519:A3 I *D sky130_fd_sc_hd__a31o_1
*I *4554:B1 I *D sky130_fd_sc_hd__a21oi_2
*I *4474:X O *D sky130_fd_sc_hd__o21a_1
*CAP
1 *4519:A3 1.50079e-05
2 *4554:B1 0.000345669
3 *4474:X 0.000219627
4 *433:8 0.000580304
5 *4519:A3 *4519:B1 5.50049e-05
6 *4519:A3 *995:40 5.50049e-05
7 *4554:B1 *4554:A1 0
8 *4554:B1 *477:8 0.00014411
9 *4554:B1 *841:118 0
10 *4554:B1 *979:10 0
11 *4554:B1 *979:36 5.50106e-05
12 *4554:B1 *995:48 6.07611e-06
13 *433:8 *985:38 0
14 *433:8 *985:51 0
15 *433:8 *995:48 0.000167319
*RES
1 *4474:X *433:8 42.7229 
2 *433:8 *4554:B1 44.4007 
3 *433:8 *4519:A3 38.6214 
*END

*D_NET *434 0.00113987
*CONN
*I *4478:A I *D sky130_fd_sc_hd__nand3_1
*I *4479:A2 I *D sky130_fd_sc_hd__a21o_1
*I *4475:X O *D sky130_fd_sc_hd__a2bb2o_1
*CAP
1 *4478:A 0.000240789
2 *4479:A2 0
3 *4475:X 8.33391e-05
4 *434:10 0.000240789
5 *434:8 8.33391e-05
6 *4478:A *4478:B 2.98648e-05
7 *4478:A *4478:C 0.000141052
8 *4478:A *4479:A1 1.41077e-05
9 *4478:A *436:14 5.50106e-05
10 *4478:A *437:6 5.37348e-06
11 *4478:A *438:10 0.000102093
12 *434:8 *999:29 0.00014411
*RES
1 *4475:X *434:8 39.9057 
2 *434:8 *434:10 15 
3 *434:10 *4479:A2 23 
4 *434:10 *4478:A 28.4271 
*END

*D_NET *435 0.000937798
*CONN
*I *4478:B I *D sky130_fd_sc_hd__nand3_1
*I *4479:A1 I *D sky130_fd_sc_hd__a21o_1
*I *4476:X O *D sky130_fd_sc_hd__or4bb_4
*CAP
1 *4478:B 0.000202411
2 *4479:A1 8.39789e-05
3 *4476:X 4.50565e-05
4 *435:10 0.00028639
5 *435:8 4.50565e-05
6 *4478:B *4478:C 6.82514e-05
7 *4478:B *436:14 6.17437e-06
8 *4479:A1 *436:14 2.93747e-05
9 *435:8 *997:27 8.62783e-05
10 *435:8 *999:29 4.08537e-05
11 *4478:A *4478:B 2.98648e-05
12 *4478:A *4479:A1 1.41077e-05
*RES
1 *4476:X *435:8 39.2014 
2 *435:8 *435:10 15 
3 *435:10 *4479:A1 24.0979 
4 *435:10 *4478:B 26.0243 
*END

*D_NET *436 0.00362153
*CONN
*I *4478:C I *D sky130_fd_sc_hd__nand3_1
*I *4479:B1 I *D sky130_fd_sc_hd__a21o_1
*I *4477:Y O *D sky130_fd_sc_hd__o21bai_1
*CAP
1 *4478:C 3.78109e-05
2 *4479:B1 0
3 *4477:Y 0.000714901
4 *436:14 0.000190189
5 *436:8 0.000867279
6 *436:8 *782:29 0.000914085
7 *436:8 *998:67 1.24376e-05
8 *436:14 *4422:C 2.24608e-05
9 *436:14 *997:27 0.000179938
10 *436:14 *999:29 0.000382564
11 *4478:A *4478:C 0.000141052
12 *4478:A *436:14 5.50106e-05
13 *4478:B *4478:C 6.82514e-05
14 *4478:B *436:14 6.17437e-06
15 *4479:A1 *436:14 2.93747e-05
*RES
1 *4477:Y *436:8 49.1029 
2 *436:8 *436:14 20.6964 
3 *436:14 *4479:B1 23 
4 *436:14 *4478:C 24.5743 
*END

*D_NET *437 0.00314879
*CONN
*I *4525:B1_N I *D sky130_fd_sc_hd__a21bo_1
*I *4480:B I *D sky130_fd_sc_hd__nand3_2
*I *4481:A2 I *D sky130_fd_sc_hd__a21o_1
*I *4478:Y O *D sky130_fd_sc_hd__nand3_1
*CAP
1 *4525:B1_N 0.000196248
2 *4480:B 0.000251908
3 *4481:A2 0
4 *4478:Y 0.000626977
5 *437:12 0.000369228
6 *437:6 0.000940544
7 *4480:B *438:18 7.10949e-05
8 *4525:B1_N *438:10 5.27215e-06
9 *437:6 *438:10 6.7617e-05
10 *437:12 *4481:A1 5.55911e-05
11 *437:12 *438:10 0.000114083
12 *437:12 *984:59 0
13 *437:12 *1000:89 0.0003055
14 *4478:A *437:6 5.37348e-06
15 *4481:B1 *4480:B 0.000139352
*RES
1 *4478:Y *437:6 30.7679 
2 *437:6 *437:12 34.0186 
3 *437:12 *4481:A2 23 
4 *437:12 *4480:B 27.9507 
5 *437:6 *4525:B1_N 25.5271 
*END

*D_NET *438 0.00311194
*CONN
*I *4481:A1 I *D sky130_fd_sc_hd__a21o_1
*I *5101:A I *D sky130_fd_sc_hd__buf_2
*I *4480:C I *D sky130_fd_sc_hd__nand3_2
*I *4479:X O *D sky130_fd_sc_hd__a21o_1
*CAP
1 *4481:A1 1.63083e-05
2 *5101:A 5.89398e-05
3 *4480:C 0
4 *4479:X 0.000860689
5 *438:18 0.000365604
6 *438:10 0.00118366
7 *4481:A1 *984:59 2.22183e-05
8 *5101:A *965:10 5.29672e-05
9 *438:10 *984:59 3.31683e-05
10 *438:18 *965:10 2.82066e-05
11 *4478:A *438:10 0.000102093
12 *4480:B *438:18 7.10949e-05
13 *4481:B1 *438:18 7.44257e-05
14 *4525:B1_N *438:10 5.27215e-06
15 *437:6 *438:10 6.7617e-05
16 *437:12 *4481:A1 5.55911e-05
17 *437:12 *438:10 0.000114083
*RES
1 *4479:X *438:10 49.7036 
2 *438:10 *438:18 20.9036 
3 *438:18 *4480:C 23 
4 *438:18 *5101:A 24.5743 
5 *438:10 *4481:A1 38.8493 
*END

*D_NET *439 0.000915821
*CONN
*I *4484:A2 I *D sky130_fd_sc_hd__a21o_1
*I *4483:A I *D sky130_fd_sc_hd__nand3_2
*I *4480:Y O *D sky130_fd_sc_hd__nand3_2
*CAP
1 *4484:A2 1.49804e-05
2 *4483:A 0
3 *4480:Y 0.000380552
4 *439:10 1.49804e-05
5 *439:8 0.000380552
6 *4484:A2 *4483:C 5.50106e-05
7 *4484:A2 *4484:A1 5.50106e-05
8 *439:8 *440:8 0
9 *439:8 *441:8 2.76611e-06
10 *439:8 *979:57 0
11 *439:8 *984:59 0
12 *430:20 *439:8 1.19692e-05
*RES
1 *4480:Y *439:8 44.1314 
2 *439:8 *439:10 15 
3 *439:10 *4483:A 23 
4 *439:10 *4484:A2 23.6214 
*END

*D_NET *440 0.00139213
*CONN
*I *4484:A1 I *D sky130_fd_sc_hd__a21o_1
*I *4483:B I *D sky130_fd_sc_hd__nand3_2
*I *4481:X O *D sky130_fd_sc_hd__a21o_1
*CAP
1 *4484:A1 7.24546e-05
2 *4483:B 0
3 *4481:X 0.000203483
4 *440:10 7.24546e-05
5 *440:8 0.000203483
6 *4484:A1 *4483:C 0.000130729
7 *4484:A1 *781:35 0.000274078
8 *440:8 *984:59 0.000380435
9 *4484:A2 *4484:A1 5.50106e-05
10 *439:8 *440:8 0
*RES
1 *4481:X *440:8 43.075 
2 *440:8 *440:10 15 
3 *440:10 *4483:B 23 
4 *440:10 *4484:A1 26.5007 
*END

*D_NET *441 0.00180138
*CONN
*I *4484:B1 I *D sky130_fd_sc_hd__a21o_1
*I *4483:C I *D sky130_fd_sc_hd__nand3_2
*I *4482:X O *D sky130_fd_sc_hd__a21bo_1
*CAP
1 *4484:B1 1.43661e-05
2 *4483:C 0.000180491
3 *4482:X 0.000381267
4 *441:10 0.000194857
5 *441:8 0.000381267
6 *4483:C *442:6 0.000184527
7 *4483:C *781:35 2.44795e-05
8 *4484:B1 *442:6 2.4754e-05
9 *4484:B1 *781:35 2.93845e-05
10 *441:8 *977:68 0
11 *441:8 *977:83 0
12 *441:8 *984:59 0
13 *441:8 *1008:14 0
14 *4484:A1 *4483:C 0.000130729
15 *4484:A2 *4483:C 5.50106e-05
16 *181:46 *441:8 0.000197479
17 *439:8 *441:8 2.76611e-06
*RES
1 *4482:X *441:8 45.54 
2 *441:8 *441:10 15 
3 *441:10 *4483:C 27.9507 
4 *441:10 *4484:B1 23.6214 
*END

*D_NET *442 0.0075931
*CONN
*I *4485:C I *D sky130_fd_sc_hd__and3_1
*I *4487:A1 I *D sky130_fd_sc_hd__a21oi_1
*I *4530:A1 I *D sky130_fd_sc_hd__a211oi_4
*I *4486:B I *D sky130_fd_sc_hd__nand3_1
*I *4531:B1 I *D sky130_fd_sc_hd__o211a_1
*I *4483:Y O *D sky130_fd_sc_hd__nand3_2
*CAP
1 *4485:C 0.000220252
2 *4487:A1 0
3 *4530:A1 6.79592e-05
4 *4486:B 8.27655e-05
5 *4531:B1 5.57265e-05
6 *4483:Y 0
7 *442:41 0.000432301
8 *442:23 0.000150725
9 *442:21 0.000488972
10 *442:6 0.00139414
11 *442:4 0.00106149
12 *4485:C *443:40 8.28708e-05
13 *4485:C *446:8 1.12487e-05
14 *4486:B *4530:A2 4.79641e-05
15 *4486:B *445:8 2.93747e-05
16 *4531:B1 *4531:A2 5.90675e-06
17 *442:6 *443:6 0.00234093
18 *442:6 *781:35 6.24237e-05
19 *442:6 *977:64 0.000164518
20 *442:21 *4531:A1 6.17437e-06
21 *442:21 *4531:A2 1.57571e-05
22 *442:21 *443:10 0
23 *442:21 *445:14 0
24 *442:21 *487:10 6.25829e-05
25 *442:21 *487:27 0
26 *442:41 *443:40 8.9458e-05
27 *442:41 *445:14 0
28 *4483:C *442:6 0.000184527
29 *4484:B1 *442:6 2.4754e-05
30 *4487:B1 *4485:C 0.000126832
31 *422:8 *4486:B 0.000269775
32 *422:8 *4530:A1 4.79641e-05
33 *423:10 *442:6 5.72217e-05
34 *424:10 *4485:C 8.48502e-06
35 *425:8 *4485:C 0
36 *425:12 *4485:C 0
37 *425:20 *442:41 0
*RES
1 *4483:Y *442:4 23 
2 *442:4 *442:6 31.5893 
3 *442:6 *4531:B1 24.4707 
4 *442:6 *442:21 19.5364 
5 *442:21 *442:23 15 
6 *442:23 *4486:B 26.0036 
7 *442:23 *4530:A1 24.595 
8 *442:21 *442:41 3.66643 
9 *442:41 *4487:A1 38 
10 *442:41 *4485:C 41.8529 
*END

*D_NET *443 0.00740869
*CONN
*I *4487:A2 I *D sky130_fd_sc_hd__a21oi_1
*I *4485:B I *D sky130_fd_sc_hd__and3_1
*I *4486:C I *D sky130_fd_sc_hd__nand3_1
*I *4484:X O *D sky130_fd_sc_hd__a21o_1
*CAP
1 *4487:A2 0
2 *4485:B 0
3 *4486:C 0
4 *4484:X 0.00154481
5 *443:40 0.000248945
6 *443:23 0.000469878
7 *443:10 0.000413628
8 *443:6 0.0017375
9 *443:10 *445:14 0
10 *443:23 *445:14 0
11 *443:40 *446:8 8.62783e-05
12 *4485:C *443:40 8.28708e-05
13 *424:10 *443:23 0.000140259
14 *424:10 *443:40 0.000198007
15 *425:20 *443:23 5.61207e-05
16 *425:20 *443:40 0
17 *442:6 *443:6 0.00234093
18 *442:21 *443:10 0
19 *442:41 *443:40 8.9458e-05
*RES
1 *4484:X *443:6 48.8721 
2 *443:6 *443:10 18.3143 
3 *443:10 *4486:C 38 
4 *443:10 *443:23 19.1843 
5 *443:23 *4485:B 23 
6 *443:23 *443:40 35.1993 
7 *443:40 *4487:A2 23 
*END

*D_NET *444 0.00220407
*CONN
*I *4490:A2 I *D sky130_fd_sc_hd__o211a_1
*I *4489:B1 I *D sky130_fd_sc_hd__a211o_1
*I *4488:B1 I *D sky130_fd_sc_hd__a211oi_1
*I *4485:X O *D sky130_fd_sc_hd__and3_1
*CAP
1 *4490:A2 0.000166276
2 *4489:B1 3.80122e-05
3 *4488:B1 6.07859e-05
4 *4485:X 0.000165965
5 *444:19 0.000302681
6 *444:8 0.000325145
7 *4488:B1 *4488:C1 6.17437e-06
8 *4489:B1 *448:6 5.3304e-05
9 *4490:A2 *4490:A1 0.000100533
10 *4490:A2 *446:21 1.01436e-05
11 *444:8 *446:8 0.000299178
12 *444:19 *446:8 6.48142e-05
13 *444:19 *446:21 0.00021382
14 *4488:A2 *444:19 1.37246e-05
15 *4490:B1 *4490:A2 4.07999e-05
16 *380:6 *4490:A2 9.67842e-05
17 *395:20 *444:19 0.000141879
18 *398:16 *4490:A2 0.000104051
*RES
1 *4485:X *444:8 42.0186 
2 *444:8 *4488:B1 38.6214 
3 *444:8 *444:19 3.66643 
4 *444:19 *4489:B1 38.6214 
5 *444:19 *4490:A2 42.5571 
*END

*D_NET *445 0.000672077
*CONN
*I *4530:A2 I *D sky130_fd_sc_hd__a211oi_4
*I *4531:C1 I *D sky130_fd_sc_hd__o211a_1
*I *4486:Y O *D sky130_fd_sc_hd__nand3_1
*CAP
1 *4530:A2 4.61734e-05
2 *4531:C1 0
3 *4486:Y 6.04059e-05
4 *445:14 0.000172285
5 *445:8 0.000278864
6 *4486:B *4530:A2 4.79641e-05
7 *4486:B *445:8 2.93747e-05
8 *425:20 *445:14 3.70094e-05
9 *442:21 *445:14 0
10 *442:41 *445:14 0
11 *443:10 *445:14 0
12 *443:23 *445:14 0
*RES
1 *4486:Y *445:8 24.1186 
2 *445:8 *445:14 32.9621 
3 *445:14 *4531:C1 23 
4 *445:8 *4530:A2 24.0979 
*END

*D_NET *446 0.00222583
*CONN
*I *4490:A1 I *D sky130_fd_sc_hd__o211a_1
*I *4489:C1 I *D sky130_fd_sc_hd__a211o_1
*I *4488:C1 I *D sky130_fd_sc_hd__a211oi_1
*I *4487:Y O *D sky130_fd_sc_hd__a21oi_1
*CAP
1 *4490:A1 0.000179312
2 *4489:C1 0
3 *4488:C1 4.00201e-05
4 *4487:Y 0.000298896
5 *446:21 0.000315752
6 *446:8 0.000475355
7 *4490:A1 *4492:A1 1.59312e-05
8 *446:21 *447:10 0
9 *4485:C *446:8 1.12487e-05
10 *4488:B1 *4488:C1 6.17437e-06
11 *4490:A2 *4490:A1 0.000100533
12 *4490:A2 *446:21 1.01436e-05
13 *380:12 *4490:A1 9.63918e-05
14 *398:16 *4490:A1 0
15 *425:20 *446:8 1.19796e-05
16 *443:40 *446:8 8.62783e-05
17 *444:8 *446:8 0.000299178
18 *444:19 *446:8 6.48142e-05
19 *444:19 *446:21 0.00021382
*RES
1 *4487:Y *446:8 44.1314 
2 *446:8 *4488:C1 38.6214 
3 *446:8 *446:21 3.58357 
4 *446:21 *4489:C1 38 
5 *446:21 *4490:A1 41.9357 
*END

*D_NET *447 0.001056
*CONN
*I *4492:A1 I *D sky130_fd_sc_hd__o21ai_1
*I *4491:B I *D sky130_fd_sc_hd__or3_4
*I *4488:Y O *D sky130_fd_sc_hd__a211oi_1
*CAP
1 *4492:A1 0.000163149
2 *4491:B 0
3 *4488:Y 0.000187563
4 *447:10 0.000350713
5 *4492:A1 *449:12 8.41115e-05
6 *4492:A1 *849:14 0
7 *447:10 *449:12 6.07611e-06
8 *4490:A1 *4492:A1 1.59312e-05
9 *4492:B1 *4492:A1 5.41385e-05
10 *11:9 *447:10 0
11 *380:12 *4492:A1 0.000182873
12 *380:12 *447:10 1.14452e-05
13 *446:21 *447:10 0
*RES
1 *4488:Y *447:10 41.3557 
2 *447:10 *4491:B 38 
3 *447:10 *4492:A1 42.4121 
*END

*D_NET *448 0.00237713
*CONN
*I *4534:B1 I *D sky130_fd_sc_hd__o211ai_2
*I *4535:A2 I *D sky130_fd_sc_hd__a211o_1
*I *4489:X O *D sky130_fd_sc_hd__a211o_1
*CAP
1 *4534:B1 4.85701e-05
2 *4535:A2 0
3 *4489:X 0.000615297
4 *448:12 0.000194392
5 *448:6 0.00085826
6 *4534:B1 *849:20 2.93845e-05
7 *448:6 *4534:C1 0.000185434
8 *448:6 *450:10 0.000102301
9 *448:6 *849:20 0.000238617
10 *448:12 *4534:A1 4.73585e-05
11 *448:12 *4534:A2 0
12 *448:12 *4535:A1 0
13 *448:12 *450:25 0
14 *448:12 *490:31 4.21594e-06
15 *448:12 *493:10 0
16 *4489:B1 *448:6 5.3304e-05
17 *11:9 *448:12 0
*RES
1 *4489:X *448:6 36.0086 
2 *448:6 *448:12 32.9621 
3 *448:12 *4535:A2 23 
4 *448:6 *4534:B1 24.1186 
*END

*D_NET *449 0.000573643
*CONN
*I *4492:A2 I *D sky130_fd_sc_hd__o21ai_1
*I *4491:A I *D sky130_fd_sc_hd__or3_4
*I *4490:X O *D sky130_fd_sc_hd__o211a_1
*CAP
1 *4492:A2 3.3552e-05
2 *4491:A 0
3 *4490:X 4.25104e-05
4 *449:12 9.02305e-05
5 *449:6 0.000166293
6 *449:12 *849:14 4.08537e-05
7 *4492:A1 *449:12 8.41115e-05
8 *4492:B1 *4492:A2 5.50106e-05
9 *4492:B1 *449:6 5.50049e-05
10 *11:9 *449:12 0
11 *447:10 *449:12 6.07611e-06
*RES
1 *4490:X *449:6 23.6214 
2 *449:6 *449:12 32.2579 
3 *449:12 *4491:A 23 
4 *449:6 *4492:A2 23.6214 
*END

*D_NET *450 0.00367563
*CONN
*I *4493:B1 I *D sky130_fd_sc_hd__o211a_1
*I *4494:A2 I *D sky130_fd_sc_hd__a211o_1
*I *4534:C1 I *D sky130_fd_sc_hd__o211ai_2
*I *4535:A1 I *D sky130_fd_sc_hd__a211o_1
*I *4491:X O *D sky130_fd_sc_hd__or3_4
*CAP
1 *4493:B1 0.000160232
2 *4494:A2 0.000158345
3 *4534:C1 3.04956e-05
4 *4535:A1 0.000246747
5 *4491:X 0.000230406
6 *450:36 0.000678794
7 *450:25 0.000458433
8 *450:10 0.000544873
9 *4493:B1 *4493:C1 0
10 *4493:B1 *4495:B 0
11 *4494:A2 *453:8 0.0002263
12 *4534:C1 *849:20 0.000185434
13 *4535:A1 *493:10 0.000141052
14 *450:36 *4578:D 0
15 *11:9 *4493:B1 4.98543e-05
16 *11:9 *4535:A1 3.56433e-05
17 *11:9 *450:25 3.64189e-05
18 *11:9 *450:36 0.000204868
19 *416:22 *450:36 0
20 *448:6 *4534:C1 0.000185434
21 *448:6 *450:10 0.000102301
22 *448:12 *4535:A1 0
23 *448:12 *450:25 0
*RES
1 *4491:X *450:10 41.5007 
2 *450:10 *4535:A1 43.0543 
3 *450:10 *450:25 1.55357 
4 *450:25 *4534:C1 40.0507 
5 *450:25 *450:36 8.24429 
6 *450:36 *4494:A2 41.48 
7 *450:36 *4493:B1 40.61 
*END

*D_NET *451 0.00167463
*CONN
*I *4493:C1 I *D sky130_fd_sc_hd__o211a_1
*I *4494:A1 I *D sky130_fd_sc_hd__a211o_1
*I *4492:Y O *D sky130_fd_sc_hd__o21ai_1
*CAP
1 *4493:C1 0.00016224
2 *4494:A1 0
3 *4492:Y 0.000178011
4 *451:8 0.000340251
5 *4493:C1 *849:14 0.000185095
6 *451:8 *849:14 0.000387957
7 *4493:A1 *4493:C1 0.000272383
8 *4493:A2 *4493:C1 0.000148698
9 *4493:B1 *4493:C1 0
10 *11:9 *4493:C1 0
11 *11:9 *451:8 0
*RES
1 *4492:Y *451:8 43.075 
2 *451:8 *4494:A1 38 
3 *451:8 *4493:C1 43.6136 
*END

*D_NET *452 0.00235324
*CONN
*I *4537:B1 I *D sky130_fd_sc_hd__a21o_1
*I *4578:A_N I *D sky130_fd_sc_hd__and4b_1
*I *4579:A1 I *D sky130_fd_sc_hd__a21bo_1
*I *4495:A_N I *D sky130_fd_sc_hd__and2b_1
*I *4493:X O *D sky130_fd_sc_hd__o211a_1
*CAP
1 *4537:B1 0.000145844
2 *4578:A_N 2.35907e-05
3 *4579:A1 0.00017062
4 *4495:A_N 0
5 *4493:X 0.000168515
6 *452:17 0.000420323
7 *452:15 0.000405716
8 *452:6 0.000202273
9 *4537:B1 *494:10 0
10 *4578:A_N *4578:D 5.50049e-05
11 *4578:A_N *493:23 2.64616e-05
12 *4579:A1 *4536:A 0
13 *4579:A1 *492:19 0
14 *4579:A1 *493:23 0.000138718
15 *452:6 *772:114 7.33805e-05
16 *452:15 *772:114 1.39317e-05
17 *452:17 *494:10 0
18 *416:22 *4537:B1 0.000136029
19 *416:22 *4579:A1 2.95125e-05
20 *416:22 *452:17 0.000201361
21 *416:24 *4579:A1 0.00014196
*RES
1 *4493:X *452:6 26.0036 
2 *452:6 *4495:A_N 23 
3 *452:6 *452:15 15.6214 
4 *452:15 *452:17 5.42714 
5 *452:17 *4579:A1 42.1843 
6 *452:17 *4578:A_N 38.6214 
7 *452:15 *4537:B1 41.6664 
*END

*D_NET *453 0.00224857
*CONN
*I *4495:B I *D sky130_fd_sc_hd__and2b_1
*I *4578:D I *D sky130_fd_sc_hd__and4b_1
*I *4494:X O *D sky130_fd_sc_hd__a211o_1
*CAP
1 *4495:B 0.000152415
2 *4578:D 0.000323679
3 *4494:X 0.000325993
4 *453:8 0.000802087
5 *4495:B *454:8 6.07611e-06
6 *4578:D *4536:A 6.61099e-05
7 *4578:D *4536:B 2.4754e-05
8 *4578:D *493:23 2.80512e-05
9 *4493:B1 *4495:B 0
10 *4494:A2 *453:8 0.0002263
11 *4578:A_N *4578:D 5.50049e-05
12 *416:22 *4495:B 0.000140671
13 *416:22 *4578:D 9.74235e-05
14 *450:36 *4578:D 0
*RES
1 *4494:X *453:8 44.3386 
2 *453:8 *4578:D 44.6959 
3 *453:8 *4495:B 41.6664 
*END

*D_NET *454 0.00202323
*CONN
*I *4537:A2 I *D sky130_fd_sc_hd__a21o_1
*I *4496:B I *D sky130_fd_sc_hd__xor2_1
*I *4495:X O *D sky130_fd_sc_hd__and2b_1
*CAP
1 *4537:A2 5.69576e-05
2 *4496:B 0
3 *4495:X 0.000145583
4 *454:18 0.000400956
5 *454:10 0.000457914
6 *454:8 0.000145583
7 *454:8 *772:14 0
8 *454:18 *772:14 2.04774e-05
9 *4495:B *454:8 6.07611e-06
10 *416:10 *454:18 3.92407e-05
11 *416:16 *4537:A2 7.88926e-05
12 *416:16 *454:18 0.000671554
13 *416:22 *454:8 0
14 *416:22 *454:18 0
*RES
1 *4495:X *454:8 40.61 
2 *454:8 *454:10 15 
3 *454:10 *454:18 40.6471 
4 *454:18 *4496:B 23 
5 *454:10 *4537:A2 24.5743 
*END

*D_NET *455 0.000967753
*CONN
*I *4498:B I *D sky130_fd_sc_hd__or2_1
*I *4497:B I *D sky130_fd_sc_hd__and2_1
*I *4496:X O *D sky130_fd_sc_hd__xor2_1
*CAP
1 *4498:B 0
2 *4497:B 0
3 *4496:X 0.000194324
4 *455:21 0.000142116
5 *455:8 0.00033644
6 *455:8 *4504:B1 5.90675e-06
7 *455:8 *827:34 3.61695e-05
8 *455:21 *4504:B1 1.24376e-05
9 *455:21 *827:34 0.000240358
*RES
1 *4496:X *455:8 26.9771 
2 *455:8 *4497:B 23 
3 *455:8 *455:21 33.3557 
4 *455:21 *4498:B 23 
*END

*D_NET *456 0.000436313
*CONN
*I *4499:A_N I *D sky130_fd_sc_hd__nand2b_1
*I *4504:B1 I *D sky130_fd_sc_hd__a21oi_2
*I *4497:X O *D sky130_fd_sc_hd__and2_1
*CAP
1 *4499:A_N 0
2 *4504:B1 7.07746e-05
3 *4497:X 0
4 *456:19 0.000128066
5 *456:4 0.000198841
6 *4504:B1 *827:34 2.02872e-05
7 *456:19 *4499:B 0
8 *455:8 *4504:B1 5.90675e-06
9 *455:21 *4504:B1 1.24376e-05
*RES
1 *4497:X *456:4 23 
2 *456:4 *4504:B1 24.4707 
3 *456:4 *456:19 32.2579 
4 *456:19 *4499:A_N 23 
*END

*D_NET *457 0.000958916
*CONN
*I *4499:B I *D sky130_fd_sc_hd__nand2b_1
*I *4504:A1 I *D sky130_fd_sc_hd__a21oi_2
*I *4498:X O *D sky130_fd_sc_hd__or2_1
*CAP
1 *4499:B 0.000205968
2 *4504:A1 0
3 *4498:X 0.000159293
4 *457:10 0.000365261
5 *4499:B *458:10 5.70419e-05
6 *4499:B *459:33 0.000114645
7 *4499:B *827:22 0
8 *457:10 *827:22 5.67058e-05
9 *457:10 *827:34 0
10 *456:19 *4499:B 0
*RES
1 *4498:X *457:10 40.5271 
2 *457:10 *4504:A1 38 
3 *457:10 *4499:B 43.0439 
*END

*D_NET *458 0.000414975
*CONN
*I *4501:A I *D sky130_fd_sc_hd__xnor2_1
*I *4499:Y O *D sky130_fd_sc_hd__nand2b_1
*CAP
1 *4501:A 0
2 *4499:Y 0.000178967
3 *458:10 0.000178967
4 *458:10 *459:33 0
5 *4499:B *458:10 5.70419e-05
*RES
1 *4499:Y *458:10 41.0036 
2 *458:10 *4501:A 38 
*END

*D_NET *459 0.00266654
*CONN
*I *4504:A2 I *D sky130_fd_sc_hd__a21oi_2
*I *4501:B I *D sky130_fd_sc_hd__xnor2_1
*I *4500:Y O *D sky130_fd_sc_hd__o21bai_2
*CAP
1 *4504:A2 0
2 *4501:B 0
3 *4500:Y 0.000273839
4 *459:33 0.000299205
5 *459:20 0.000669673
6 *459:14 0.000644308
7 *459:20 *4503:A 1.19692e-05
8 *459:20 *966:100 0
9 *459:20 *966:102 0
10 *459:33 *460:10 5.50049e-05
11 *459:33 *827:22 0
12 *459:33 *966:100 0.000196178
13 *4453:B *459:14 0.000143655
14 *4453:C *459:14 1.76557e-05
15 *4499:B *459:33 0.000114645
16 *4500:B1_N *459:14 0.00020996
17 *410:26 *459:14 3.04516e-05
18 *411:17 *459:14 0
19 *412:37 *459:14 0
20 *458:10 *459:33 0
*RES
1 *4500:Y *459:14 45.0014 
2 *459:14 *459:20 21.8771 
3 *459:20 *4501:B 23 
4 *459:20 *459:33 37.83 
5 *459:33 *4504:A2 23 
*END

*D_NET *460 0.00151329
*CONN
*I *4502:A1 I *D sky130_fd_sc_hd__mux2_1
*I *4501:Y O *D sky130_fd_sc_hd__xnor2_1
*CAP
1 *4502:A1 6.95326e-05
2 *4501:Y 0.000387293
3 *460:10 0.000456826
4 *4502:A1 *827:14 9.67842e-05
5 *4502:A1 *832:44 0.000182826
6 *460:10 *827:14 3.70094e-05
7 *460:10 *827:22 0.000116565
8 *460:10 *966:100 0.000111445
9 *460:10 *966:102 0
10 *459:33 *460:10 5.50049e-05
*RES
1 *4501:Y *460:10 46.0786 
2 *460:10 *4502:A1 40.0507 
*END

*D_NET *461 0.000438581
*CONN
*I *4503:B I *D sky130_fd_sc_hd__and2_1
*I *4502:X O *D sky130_fd_sc_hd__mux2_1
*CAP
1 *4503:B 0.000212675
2 *4502:X 0.000212675
3 *4503:B *832:44 1.32314e-05
*RES
1 *4502:X *4503:B 49.8529 
*END

*D_NET *462 0.00359838
*CONN
*I *4542:B1 I *D sky130_fd_sc_hd__o21a_1
*I *4584:A1 I *D sky130_fd_sc_hd__a21o_1
*I *4585:A1 I *D sky130_fd_sc_hd__a211o_1
*I *4543:A I *D sky130_fd_sc_hd__nor3_1
*I *4504:Y O *D sky130_fd_sc_hd__a21oi_2
*CAP
1 *4542:B1 4.18641e-05
2 *4584:A1 0
3 *4585:A1 0.000185475
4 *4543:A 0
5 *4504:Y 0.000461384
6 *462:19 0.000424421
7 *462:15 0.000431634
8 *462:8 0.000612208
9 *4542:B1 *4543:C 0
10 *4542:B1 *498:14 2.93845e-05
11 *4542:B1 *500:10 1.24376e-05
12 *4542:B1 *836:65 2.02517e-05
13 *4585:A1 *4585:B1 0.000111148
14 *4585:A1 *4586:A 8.28951e-05
15 *4585:A1 *497:10 6.70363e-05
16 *4585:A1 *499:8 2.95125e-05
17 *4585:A1 *772:114 9.91895e-05
18 *4585:A1 *968:107 7.41472e-05
19 *462:8 *966:100 3.89661e-05
20 *462:15 *4543:B 2.18409e-05
21 *462:15 *4543:C 0.00010018
22 *462:15 *498:14 4.5051e-05
23 *462:15 *966:100 1.32939e-05
24 *462:19 *497:10 0.000210668
25 *462:19 *499:8 4.334e-05
26 *462:19 *499:30 0.000147508
27 *462:19 *500:10 0.000140958
28 *462:19 *968:97 0.000153585
*RES
1 *4504:Y *462:8 29.3593 
2 *462:8 *4543:A 23 
3 *462:8 *462:15 3.00357 
4 *462:15 *462:19 22.1879 
5 *462:19 *4585:A1 44.2143 
6 *462:19 *4584:A1 38 
7 *462:15 *4542:B1 24.1186 
*END

*D_NET *463 0.00311119
*CONN
*I *4509:A I *D sky130_fd_sc_hd__and2_1
*I *4510:A I *D sky130_fd_sc_hd__xor2_1
*I *4505:X O *D sky130_fd_sc_hd__a31o_1
*CAP
1 *4509:A 9.8015e-05
2 *4510:A 0
3 *4505:X 5.57175e-05
4 *463:16 0.00118371
5 *463:8 0.00114141
6 *4509:A *4509:B 0.000185434
7 *463:8 *984:59 5.56203e-05
8 *463:8 *1000:89 3.81391e-05
9 *463:16 *978:104 0.000141954
10 *463:16 *1000:55 2.02872e-05
11 *4471:A *463:16 7.06229e-05
12 *4471:B *463:16 5.50106e-05
13 *430:10 *463:16 6.52772e-05
*RES
1 *4505:X *463:8 39.5536 
2 *463:8 *463:16 33.7671 
3 *463:16 *4510:A 23 
4 *463:16 *4509:A 25.5271 
*END

*D_NET *464 0.000769014
*CONN
*I *4508:A I *D sky130_fd_sc_hd__nor2_1
*I *4506:X O *D sky130_fd_sc_hd__o2bb2a_1
*CAP
1 *4508:A 0
2 *4506:X 0.000265346
3 *464:10 0.000265346
4 *464:10 *4506:B1 5.50049e-05
5 *464:10 *4507:B 1.89178e-05
6 *464:10 *4507:C 8.41505e-05
7 *464:10 *4507:D 2.35426e-05
8 *464:10 *4508:B 0
9 *464:10 *465:8 5.67058e-05
*RES
1 *4506:X *464:10 28.4271 
2 *464:10 *4508:A 23 
*END

*D_NET *465 0.0017882
*CONN
*I *4589:A1 I *D sky130_fd_sc_hd__a21o_1
*I *4553:A I *D sky130_fd_sc_hd__xnor2_1
*I *4508:B I *D sky130_fd_sc_hd__nor2_1
*I *4507:X O *D sky130_fd_sc_hd__and4b_1
*CAP
1 *4589:A1 0
2 *4553:A 0.00014451
3 *4508:B 2.00578e-05
4 *4507:X 9.97929e-05
5 *465:23 0.000508397
6 *465:8 0.000483738
7 *4553:A *4553:B 0.000108888
8 *4553:A *4589:B1 9.84794e-05
9 *4553:A *478:12 1.32939e-05
10 *4553:A *545:12 0.000145962
11 *465:8 *466:10 4.04598e-06
12 *465:23 *466:10 1.73399e-05
13 *465:23 *479:18 7.55388e-05
14 *465:23 *508:8 0
15 *465:23 *509:8 1.14452e-05
16 *465:23 *796:25 0
17 *464:10 *4508:B 0
18 *464:10 *465:8 5.67058e-05
*RES
1 *4507:X *465:8 25.0714 
2 *465:8 *4508:B 23.4971 
3 *465:8 *465:23 36.525 
4 *465:23 *4553:A 27.4743 
5 *465:23 *4589:A1 23 
*END

*D_NET *466 0.00089254
*CONN
*I *4509:B I *D sky130_fd_sc_hd__and2_1
*I *4510:B I *D sky130_fd_sc_hd__xor2_1
*I *4508:Y O *D sky130_fd_sc_hd__nor2_1
*CAP
1 *4509:B 0.000116455
2 *4510:B 0
3 *4508:Y 0.000154577
4 *466:12 0.000116455
5 *466:10 0.000154577
6 *4509:B *468:10 0.000143655
7 *466:10 *796:36 0
8 *4509:A *4509:B 0.000185434
9 *465:8 *466:10 4.04598e-06
10 *465:23 *466:10 1.73399e-05
*RES
1 *4508:Y *466:10 40.5271 
2 *466:10 *466:12 15 
3 *466:12 *4510:B 23 
4 *466:12 *4509:B 26.5007 
*END

*D_NET *467 0.000296759
*CONN
*I *4546:B1 I *D sky130_fd_sc_hd__a21oi_1
*I *4509:X O *D sky130_fd_sc_hd__and2_1
*CAP
1 *4546:B1 0
2 *4509:X 0.000121883
3 *467:10 0.000121883
4 *467:10 *468:10 5.29936e-05
*RES
1 *4509:X *467:10 40.175 
2 *467:10 *4546:B1 38 
*END

*D_NET *468 0.0014068
*CONN
*I *4511:B I *D sky130_fd_sc_hd__xor2_1
*I *4546:A2 I *D sky130_fd_sc_hd__a21oi_1
*I *4510:X O *D sky130_fd_sc_hd__xor2_1
*CAP
1 *4511:B 0.000109648
2 *4546:A2 0
3 *4510:X 0.000383254
4 *468:10 0.000492903
5 *4509:B *468:10 0.000143655
6 *420:14 *4511:B 0.0002129
7 *420:14 *468:10 1.14452e-05
8 *467:10 *468:10 5.29936e-05
*RES
1 *4510:X *468:10 45.7471 
2 *468:10 *4546:A2 38 
3 *468:10 *4511:B 40.9621 
*END

*D_NET *469 0.00341685
*CONN
*I *4569:A1 I *D sky130_fd_sc_hd__a21boi_1
*I *4529:B1 I *D sky130_fd_sc_hd__a21oi_1
*I *4528:A I *D sky130_fd_sc_hd__and3_4
*I *4511:X O *D sky130_fd_sc_hd__xor2_1
*CAP
1 *4569:A1 0.000123942
2 *4529:B1 0
3 *4528:A 0.000592276
4 *4511:X 0.000388382
5 *469:19 0.000158052
6 *469:6 0.00101477
7 *4528:A *487:10 0.00031495
8 *4528:A *526:6 0.000269381
9 *4569:A1 *4528:B 0.000170394
10 *4569:A1 *4529:A1 9.84794e-05
11 *4569:A1 *4529:A2 0.000225399
12 *4569:A1 *487:10 4.75937e-05
13 *469:19 *487:10 1.32314e-05
*RES
1 *4511:X *469:6 30.2914 
2 *469:6 *4528:A 33.0464 
3 *469:6 *469:19 1.11857 
4 *469:19 *4529:B1 23 
5 *469:19 *4569:A1 27.4536 
*END

*D_NET *470 0.000638634
*CONN
*I *4516:A I *D sky130_fd_sc_hd__xnor2_1
*I *4512:Y O *D sky130_fd_sc_hd__nand2_1
*CAP
1 *4516:A 9.69534e-05
2 *4512:Y 9.69534e-05
3 *4516:A *4512:A 9.84851e-05
4 *4516:A *4516:B 2.64616e-05
5 *4516:A *480:8 0
6 *4516:A *480:18 0.000268873
7 *4516:A *504:20 5.09067e-05
*RES
1 *4512:Y *4516:A 49.5007 
*END

*D_NET *471 0.0013275
*CONN
*I *4547:B1 I *D sky130_fd_sc_hd__a31o_1
*I *4515:A_N I *D sky130_fd_sc_hd__and2b_1
*I *4513:X O *D sky130_fd_sc_hd__and4_1
*CAP
1 *4547:B1 0
2 *4515:A_N 7.94235e-05
3 *4513:X 0.000257789
4 *471:12 7.94235e-05
5 *471:10 0.000257789
6 *4515:A_N *511:10 0.000269781
7 *4515:A_N *979:36 2.93845e-05
8 *4515:A_N *998:76 1.22822e-05
9 *4515:A_N *998:82 0.000190434
10 *471:10 *4514:A1 1.01436e-05
11 *471:10 *472:8 0
12 *471:10 *994:52 0.000141052
13 *471:10 *1000:43 0
*RES
1 *4513:X *471:10 41.48 
2 *471:10 *471:12 15 
3 *471:12 *4515:A_N 26.5007 
4 *471:12 *4547:B1 23 
*END

*D_NET *472 0.000890462
*CONN
*I *4515:B I *D sky130_fd_sc_hd__and2b_1
*I *4547:A3 I *D sky130_fd_sc_hd__a31o_1
*I *4514:X O *D sky130_fd_sc_hd__a22o_1
*CAP
1 *4515:B 0.000118236
2 *4547:A3 2.95294e-05
3 *4514:X 0.000160344
4 *472:10 0.000147766
5 *472:8 0.000160344
6 *4515:B *998:76 0
7 *4515:B *998:82 0.000216471
8 *4547:A3 *998:82 5.50049e-05
9 *472:8 *978:96 0
10 *472:8 *979:42 2.76611e-06
11 *471:10 *472:8 0
*RES
1 *4514:X *472:8 40.2579 
2 *472:8 *472:10 15 
3 *472:10 *4547:A3 23.6214 
4 *472:10 *4515:B 26.0243 
*END

*D_NET *473 0.000486973
*CONN
*I *4516:B I *D sky130_fd_sc_hd__xnor2_1
*I *4515:X O *D sky130_fd_sc_hd__and2b_1
*CAP
1 *4516:B 2.77218e-05
2 *4515:X 0.000106523
3 *473:8 0.000134245
4 *4516:B *504:20 5.3304e-05
5 *473:8 *978:96 0.000138718
6 *4516:A *4516:B 2.64616e-05
7 *161:52 *473:8 0
*RES
1 *4515:X *473:8 39.9057 
2 *473:8 *4516:B 38.6214 
*END

*D_NET *474 0.00628307
*CONN
*I *4524:B1 I *D sky130_fd_sc_hd__a21oi_1
*I *4523:A I *D sky130_fd_sc_hd__and3_1
*I *4564:A1 I *D sky130_fd_sc_hd__a21oi_1
*I *4516:Y O *D sky130_fd_sc_hd__xnor2_1
*CAP
1 *4524:B1 0.000269944
2 *4523:A 9.65771e-05
3 *4564:A1 0
4 *4516:Y 0.00133918
5 *474:25 0.000537176
6 *474:14 0.000265441
7 *474:10 0.00143397
8 *4523:A *4523:C 9.70259e-06
9 *4523:A *479:18 4.79544e-05
10 *4523:A *479:27 5.3304e-05
11 *4524:B1 *4524:A1 1.76557e-05
12 *4524:B1 *4524:A2 0.000184527
13 *4524:B1 *479:27 0.000133986
14 *4524:B1 *481:10 0.000274078
15 *4524:B1 *482:10 1.65392e-05
16 *474:10 *4551:B 0.000202663
17 *474:10 *480:18 0.000279173
18 *474:10 *504:20 0.000595306
19 *474:14 *478:16 0.000114656
20 *474:14 *480:18 0.000114092
21 *474:25 *478:16 3.20914e-05
22 *474:25 *479:33 0
23 *474:25 *480:18 5.24393e-05
24 *474:25 *480:27 0.000212621
*RES
1 *4516:Y *474:10 45.7029 
2 *474:10 *474:14 17.9621 
3 *474:14 *4564:A1 38 
4 *474:14 *474:25 18.6664 
5 *474:25 *4523:A 25.4236 
6 *474:25 *4524:B1 31.1407 
*END

*D_NET *475 0.000786952
*CONN
*I *4522:A2 I *D sky130_fd_sc_hd__a21o_1
*I *4517:X O *D sky130_fd_sc_hd__or3b_1
*CAP
1 *4522:A2 0
2 *4517:X 0.000288107
3 *475:10 0.000288107
4 *475:10 *788:25 6.07611e-06
5 *475:10 *862:12 0
6 *475:10 *986:33 5.50106e-05
7 *475:10 *993:19 0
8 *475:10 *993:34 0
9 *475:10 *995:40 0
10 *4518:A2_N *475:10 7.76364e-06
11 *431:12 *475:10 0.000141888
*RES
1 *4517:X *475:10 43.3443 
2 *475:10 *4522:A2 38 
*END

*D_NET *476 0.0012242
*CONN
*I *4522:A1 I *D sky130_fd_sc_hd__a21o_1
*I *4518:X O *D sky130_fd_sc_hd__a2bb2o_1
*CAP
1 *4522:A1 0.00030324
2 *4518:X 5.43334e-05
3 *476:8 0.000357573
4 *4522:A1 *480:8 0.000442771
5 *476:8 *993:19 4.08641e-05
6 *476:8 *999:29 2.5415e-05
*RES
1 *4518:X *476:8 39.2014 
2 *476:8 *4522:A1 42.9093 
*END

*D_NET *477 0.000726118
*CONN
*I *4522:B1 I *D sky130_fd_sc_hd__a21o_1
*I *4519:X O *D sky130_fd_sc_hd__a31o_1
*CAP
1 *4522:B1 0.000167767
2 *4519:X 7.52992e-05
3 *477:8 0.000243066
4 *4522:B1 *480:8 9.5877e-05
5 *477:8 *4554:A1 0
6 *4554:B1 *477:8 0.00014411
*RES
1 *4519:X *477:8 39.9057 
2 *477:8 *4522:B1 41.0036 
*END

*D_NET *478 0.010594
*CONN
*I *4564:B1 I *D sky130_fd_sc_hd__a21oi_1
*I *4555:A I *D sky130_fd_sc_hd__nor2_2
*I *4657:A I *D sky130_fd_sc_hd__and2_1
*I *4658:A I *D sky130_fd_sc_hd__nor3_1
*I *4520:X O *D sky130_fd_sc_hd__and2_1
*CAP
1 *4564:B1 0
2 *4555:A 0
3 *4657:A 0
4 *4658:A 0.000209416
5 *4520:X 0
6 *478:22 0.00112321
7 *478:16 0.00129947
8 *478:12 0.0027996
9 *478:4 0.00241392
10 *4658:A *4658:B 0.000143655
11 *4658:A *4658:C 2.4754e-05
12 *4658:A *580:20 1.76557e-05
13 *4658:A *580:35 1.8189e-05
14 *4658:A *611:10 3.53115e-05
15 *4658:A *612:10 5.67058e-05
16 *478:12 *4521:A 2.93845e-05
17 *478:12 *4553:B 0.000176355
18 *478:12 *479:10 0.000444401
19 *478:12 *510:6 0.000387141
20 *478:12 *521:6 1.32314e-05
21 *478:12 *545:12 0.000396305
22 *478:12 *545:16 1.40958e-05
23 *478:12 *984:57 0.000164354
24 *478:12 *985:67 5.41288e-05
25 *478:16 *479:33 0
26 *478:16 *519:28 0.000113624
27 *478:22 *512:10 0
28 *478:22 *512:12 0
29 *478:22 *519:28 4.78793e-05
30 *478:22 *556:18 6.68793e-05
31 *478:22 *580:20 9.84851e-05
32 *478:22 *580:26 6.63801e-05
33 *4553:A *478:12 1.32939e-05
34 *428:10 *478:12 0.000219383
35 *474:14 *478:16 0.000114656
36 *474:25 *478:16 3.20914e-05
*RES
1 *4520:X *478:4 23 
2 *478:4 *478:12 40.7036 
3 *478:12 *478:16 23.2443 
4 *478:16 *478:22 33.1457 
5 *478:22 *4658:A 28.3029 
6 *478:22 *4657:A 23 
7 *478:16 *4555:A 38 
8 *478:12 *4564:B1 23 
*END

*D_NET *479 0.0089778
*CONN
*I *4524:A1 I *D sky130_fd_sc_hd__a21oi_1
*I *4627:B1 I *D sky130_fd_sc_hd__o21ai_1
*I *4602:B1 I *D sky130_fd_sc_hd__o21ai_1
*I *4523:B I *D sky130_fd_sc_hd__and3_1
*I *4521:Y O *D sky130_fd_sc_hd__nand2_1
*CAP
1 *4524:A1 0.000110013
2 *4627:B1 0
3 *4602:B1 0
4 *4523:B 0
5 *4521:Y 0.00139597
6 *479:46 0.000402354
7 *479:33 0.000985918
8 *479:27 0.000974902
9 *479:18 0.00131202
10 *479:10 0.00242666
11 *4524:A1 *4524:A2 5.41385e-05
12 *479:10 *4521:A 5.37348e-06
13 *479:10 *984:57 0.000269438
14 *479:18 *509:8 3.70187e-05
15 *479:18 *796:25 0
16 *479:27 *4524:A2 5.41288e-05
17 *479:33 *4563:A 6.11286e-05
18 *479:33 *511:38 3.70094e-05
19 *479:33 *519:28 0
20 *479:33 *520:10 0
21 *479:46 *511:38 0
22 *479:46 *557:10 0
23 *479:46 *558:10 7.88828e-05
24 *4523:A *479:18 4.79544e-05
25 *4523:A *479:27 5.3304e-05
26 *4524:B1 *4524:A1 1.76557e-05
27 *4524:B1 *479:27 0.000133986
28 *465:23 *479:18 7.55388e-05
29 *474:25 *479:33 0
30 *478:12 *479:10 0.000444401
31 *478:16 *479:33 0
*RES
1 *4521:Y *479:10 48.085 
2 *479:10 *479:18 44.6657 
3 *479:18 *4523:B 23 
4 *479:18 *479:27 5.88286 
5 *479:27 *479:33 41.0614 
6 *479:33 *4602:B1 23 
7 *479:33 *479:46 37.3536 
8 *479:46 *4627:B1 23 
9 *479:27 *4524:A1 25.4236 
*END

*D_NET *480 0.00917468
*CONN
*I *5110:A I *D sky130_fd_sc_hd__dlymetal6s2s_1
*I *4523:C I *D sky130_fd_sc_hd__and3_1
*I *4564:A2 I *D sky130_fd_sc_hd__a21oi_1
*I *4522:X O *D sky130_fd_sc_hd__a21o_1
*CAP
1 *5110:A 0.00022705
2 *4523:C 1.66483e-05
3 *4564:A2 0
4 *4522:X 0.00147698
5 *480:27 0.000490284
6 *480:18 0.00177347
7 *480:8 0.00300387
8 *5110:A *481:10 0
9 *480:18 *4512:B 4.67488e-05
10 *480:18 *4551:A 0.000228001
11 *480:18 *4551:B 4.95081e-05
12 *480:18 *504:20 0.000386565
13 *4516:A *480:8 0
14 *4516:A *480:18 0.000268873
15 *4522:A1 *480:8 0.000442771
16 *4522:B1 *480:8 9.5877e-05
17 *4523:A *4523:C 9.70259e-06
18 *474:10 *480:18 0.000279173
19 *474:14 *480:18 0.000114092
20 *474:25 *480:18 5.24393e-05
21 *474:25 *480:27 0.000212621
*RES
1 *4522:X *480:8 47.94 
2 *480:8 *480:18 43.7721 
3 *480:18 *4564:A2 38 
4 *480:18 *480:27 3.66643 
5 *480:27 *4523:C 38.2279 
6 *480:27 *5110:A 41.8321 
*END

*D_NET *481 0.0023312
*CONN
*I *4527:A1 I *D sky130_fd_sc_hd__o21bai_1
*I *4526:A I *D sky130_fd_sc_hd__or3b_4
*I *4523:X O *D sky130_fd_sc_hd__and3_1
*CAP
1 *4527:A1 0.000154665
2 *4526:A 0
3 *4523:X 0.00059703
4 *481:12 0.000154665
5 *481:10 0.00059703
6 *4527:A1 *4526:B 0.000269775
7 *4527:A1 *4527:B1_N 0.000182832
8 *4527:A1 *484:10 1.41077e-05
9 *4527:A1 *485:10 5.70419e-05
10 *481:10 *482:10 0
11 *481:10 *484:10 2.99716e-05
12 *481:10 *851:10 0
13 *4524:B1 *481:10 0.000274078
14 *5110:A *481:10 0
*RES
1 *4523:X *481:10 48.8957 
2 *481:10 *481:12 15 
3 *481:12 *4526:A 23 
4 *481:12 *4527:A1 27.93 
*END

*D_NET *482 0.00139842
*CONN
*I *4527:A2 I *D sky130_fd_sc_hd__o21bai_1
*I *4526:B I *D sky130_fd_sc_hd__or3b_4
*I *4524:Y O *D sky130_fd_sc_hd__a21oi_1
*CAP
1 *4527:A2 0
2 *4526:B 9.96898e-05
3 *4524:Y 0.000406351
4 *482:12 9.96898e-05
5 *482:10 0.000406351
6 *4526:B *484:10 5.41288e-05
7 *482:10 *484:10 0
8 *482:10 *510:25 0
9 *482:10 *851:10 4.58924e-05
10 *4524:B1 *482:10 1.65392e-05
11 *4527:A1 *4526:B 0.000269775
12 *11:9 *482:10 0
13 *481:10 *482:10 0
*RES
1 *4524:Y *482:10 45.7212 
2 *482:10 *482:12 15 
3 *482:12 *4526:B 26.0036 
4 *482:12 *4527:A2 23 
*END

*D_NET *483 0.00372654
*CONN
*I *4527:B1_N I *D sky130_fd_sc_hd__o21bai_1
*I *4526:C_N I *D sky130_fd_sc_hd__or3b_4
*I *4525:X O *D sky130_fd_sc_hd__a21bo_1
*CAP
1 *4527:B1_N 0.000241361
2 *4526:C_N 0
3 *4525:X 0.00151146
4 *483:6 0.00175282
5 *4527:B1_N *484:10 3.80641e-05
6 *4527:A1 *4527:B1_N 0.000182832
*RES
1 *4525:X *483:6 49.3486 
2 *483:6 *4526:C_N 23 
3 *483:6 *4527:B1_N 27.93 
*END

*D_NET *484 0.00288531
*CONN
*I *4528:B I *D sky130_fd_sc_hd__and3_4
*I *4529:A1 I *D sky130_fd_sc_hd__a21oi_1
*I *4569:B1_N I *D sky130_fd_sc_hd__a21boi_1
*I *4526:X O *D sky130_fd_sc_hd__or3b_4
*CAP
1 *4528:B 0.00051699
2 *4529:A1 6.94194e-05
3 *4569:B1_N 0
4 *4526:X 0.000418385
5 *484:21 0.000655215
6 *484:10 0.000487191
7 *4528:B *4529:A2 2.4754e-05
8 *4528:B *485:20 0.000270821
9 *484:10 *487:10 1.19796e-05
10 *484:21 *487:10 2.54046e-05
11 *4526:B *484:10 5.41288e-05
12 *4527:A1 *484:10 1.41077e-05
13 *4527:B1_N *484:10 3.80641e-05
14 *4569:A1 *4528:B 0.000170394
15 *4569:A1 *4529:A1 9.84794e-05
16 *481:10 *484:10 2.99716e-05
17 *482:10 *484:10 0
*RES
1 *4526:X *484:10 44.67 
2 *484:10 *4569:B1_N 38 
3 *484:10 *484:21 16.2014 
4 *484:21 *4529:A1 24.0979 
5 *484:21 *4528:B 31.265 
*END

*D_NET *485 0.0030231
*CONN
*I *4528:C I *D sky130_fd_sc_hd__and3_4
*I *4569:A2 I *D sky130_fd_sc_hd__a21boi_1
*I *4529:A2 I *D sky130_fd_sc_hd__a21oi_1
*I *4527:Y O *D sky130_fd_sc_hd__o21bai_1
*CAP
1 *4528:C 0
2 *4569:A2 0
3 *4529:A2 6.50517e-05
4 *4527:Y 0.000602329
5 *485:20 0.000200436
6 *485:12 0.000135385
7 *485:10 0.000602329
8 *4529:A2 *487:10 6.9805e-05
9 *4529:A2 *526:6 0.000141052
10 *485:10 *486:10 8.72173e-05
11 *485:10 *525:10 0
12 *485:20 *526:6 0.000521328
13 *4527:A1 *485:10 5.70419e-05
14 *4528:B *4529:A2 2.4754e-05
15 *4528:B *485:20 0.000270821
16 *4569:A1 *4529:A2 0.000225399
17 *11:9 *485:10 2.01531e-05
*RES
1 *4527:Y *485:10 46.5964 
2 *485:10 *485:12 15 
3 *485:12 *485:20 6.40071 
4 *485:20 *4529:A2 26.0036 
5 *485:20 *4569:A2 23 
6 *485:12 *4528:C 23 
*END

*D_NET *486 0.00329497
*CONN
*I *4530:B1 I *D sky130_fd_sc_hd__a211oi_4
*I *4531:A2 I *D sky130_fd_sc_hd__o211a_1
*I *4528:X O *D sky130_fd_sc_hd__and3_4
*CAP
1 *4530:B1 0.000164233
2 *4531:A2 0.000257429
3 *4528:X 0.000446321
4 *486:10 0.000867983
5 *4530:B1 *488:8 5.50049e-05
6 *4530:B1 *489:10 0
7 *4531:A2 *4531:A1 5.3304e-05
8 *4531:A2 *487:27 0.000357631
9 *4531:A2 *489:10 0.000484545
10 *486:10 *526:6 7.44257e-05
11 *4531:B1 *4531:A2 5.90675e-06
12 *11:9 *4530:B1 8.82421e-05
13 *11:9 *486:10 0.00026824
14 *422:8 *4530:B1 3.17209e-05
15 *424:16 *4530:B1 3.70094e-05
16 *442:21 *4531:A2 1.57571e-05
17 *485:10 *486:10 8.72173e-05
*RES
1 *4528:X *486:10 46.7621 
2 *486:10 *4531:A2 45.7886 
3 *486:10 *4530:B1 18.6354 
*END

*D_NET *487 0.00256038
*CONN
*I *4530:C1 I *D sky130_fd_sc_hd__a211oi_4
*I *4531:A1 I *D sky130_fd_sc_hd__o211a_1
*I *4529:Y O *D sky130_fd_sc_hd__a21oi_1
*CAP
1 *4530:C1 0
2 *4531:A1 3.21327e-05
3 *4529:Y 0.000428717
4 *487:27 0.000282604
5 *487:12 0.000314737
6 *487:10 0.000428717
7 *487:10 *526:6 5.50049e-05
8 *4528:A *487:10 0.00031495
9 *4529:A2 *487:10 6.9805e-05
10 *4531:A2 *4531:A1 5.3304e-05
11 *4531:A2 *487:27 0.000357631
12 *4569:A1 *487:10 4.75937e-05
13 *11:9 *487:27 5.58068e-05
14 *442:21 *4531:A1 6.17437e-06
15 *442:21 *487:10 6.25829e-05
16 *442:21 *487:27 0
17 *469:19 *487:10 1.32314e-05
18 *484:10 *487:10 1.19796e-05
19 *484:21 *487:10 2.54046e-05
*RES
1 *4529:Y *487:10 47.9636 
2 *487:10 *487:12 15 
3 *487:12 *4531:A1 23.6214 
4 *487:12 *487:27 36.5664 
5 *487:27 *4530:C1 23 
*END

*D_NET *488 0.00269703
*CONN
*I *4576:A1 I *D sky130_fd_sc_hd__o21ai_1
*I *4574:A I *D sky130_fd_sc_hd__or3_1
*I *4575:A1 I *D sky130_fd_sc_hd__o21a_1
*I *4532:B1 I *D sky130_fd_sc_hd__a211oi_2
*I *4533:A1 I *D sky130_fd_sc_hd__o211a_1
*I *4530:Y O *D sky130_fd_sc_hd__a211oi_4
*CAP
1 *4576:A1 1.74641e-05
2 *4574:A 5.35482e-05
3 *4575:A1 0
4 *4532:B1 0
5 *4533:A1 2.35613e-05
6 *4530:Y 0.00016151
7 *488:36 0.000150621
8 *488:30 0.000202969
9 *488:23 0.000232109
10 *488:8 0.000328748
11 *4533:A1 *4532:C1 2.46345e-05
12 *4533:A1 *489:10 3.70094e-05
13 *4574:A *4574:B 9.90162e-05
14 *4574:A *4574:C 0.000130423
15 *4574:A *490:15 2.4754e-05
16 *4574:A *530:19 0.000143655
17 *4574:A *532:8 0.00010018
18 *4576:A1 *530:19 1.37232e-05
19 *488:8 *4533:A2 5.50049e-05
20 *488:23 *4532:C1 0.000265937
21 *488:30 *4532:C1 9.58714e-05
22 *488:30 *490:8 9.45591e-05
23 *488:36 *490:8 5.67058e-05
24 *488:36 *490:15 0.000141052
25 *488:36 *530:19 3.72686e-05
26 *4530:B1 *488:8 5.50049e-05
27 *422:8 *488:8 3.80755e-05
28 *422:16 *4533:A1 3.31127e-05
29 *422:16 *488:23 8.05114e-05
*RES
1 *4530:Y *488:8 41.0036 
2 *488:8 *4533:A1 38.8493 
3 *488:8 *488:23 18.8321 
4 *488:23 *4532:B1 23 
5 *488:23 *488:30 2.52714 
6 *488:30 *488:36 3.045 
7 *488:36 *4575:A1 23 
8 *488:36 *4574:A 26.48 
9 *488:30 *4576:A1 23.4971 
*END

*D_NET *489 0.00297872
*CONN
*I *4532:C1 I *D sky130_fd_sc_hd__a211oi_2
*I *4533:A2 I *D sky130_fd_sc_hd__o211a_1
*I *4531:X O *D sky130_fd_sc_hd__o211a_1
*CAP
1 *4532:C1 0.000222303
2 *4533:A2 8.12439e-05
3 *4531:X 0.000685386
4 *489:10 0.000988932
5 *4532:C1 *490:31 1.86869e-05
6 *4532:C1 *491:10 0
7 *4532:C1 *530:8 0
8 *489:10 *530:8 0
9 *4530:B1 *489:10 0
10 *4531:A2 *489:10 0.000484545
11 *4533:A1 *4532:C1 2.46345e-05
12 *4533:A1 *489:10 3.70094e-05
13 *422:8 *4533:A2 1.14154e-05
14 *422:16 *4532:C1 7.75329e-06
15 *488:8 *4533:A2 5.50049e-05
16 *488:23 *4532:C1 0.000265937
17 *488:30 *4532:C1 9.58714e-05
*RES
1 *4531:X *489:10 48.5021 
2 *489:10 *4533:A2 39.595 
3 *489:10 *4532:C1 43.0129 
*END

*D_NET *490 0.0031127
*CONN
*I *4534:A1 I *D sky130_fd_sc_hd__o211ai_2
*I *4535:B1 I *D sky130_fd_sc_hd__a211o_1
*I *4574:B I *D sky130_fd_sc_hd__or3_1
*I *4575:A2 I *D sky130_fd_sc_hd__o21a_1
*I *4576:A2 I *D sky130_fd_sc_hd__o21ai_1
*I *4532:Y O *D sky130_fd_sc_hd__a211oi_2
*CAP
1 *4534:A1 0.000230271
2 *4535:B1 0
3 *4574:B 0.000140341
4 *4575:A2 0
5 *4576:A2 0
6 *4532:Y 0
7 *490:31 0.000475222
8 *490:15 0.000261356
9 *490:8 0.000305737
10 *490:4 0.000429673
11 *4534:A1 *4534:A2 0.000155068
12 *4534:A1 *491:10 1.14452e-05
13 *4534:A1 *492:10 5.2894e-05
14 *4534:A1 *849:20 1.79651e-05
15 *4574:B *532:8 5.67058e-05
16 *490:31 *491:10 0.000489674
17 *4532:C1 *490:31 1.86869e-05
18 *4574:A *4574:B 9.90162e-05
19 *4574:A *490:15 2.4754e-05
20 *448:12 *4534:A1 4.73585e-05
21 *448:12 *490:31 4.21594e-06
22 *488:30 *490:8 9.45591e-05
23 *488:36 *490:8 5.67058e-05
24 *488:36 *490:15 0.000141052
*RES
1 *4532:Y *490:4 23 
2 *490:4 *490:8 3.02429 
3 *490:8 *4576:A2 23 
4 *490:8 *490:15 2.05071 
5 *490:15 *4575:A2 23 
6 *490:15 *4574:B 25.5271 
7 *490:4 *490:31 21.4836 
8 *490:31 *4535:B1 38 
9 *490:31 *4534:A1 42.785 
*END

*D_NET *491 0.00178441
*CONN
*I *4534:A2 I *D sky130_fd_sc_hd__o211ai_2
*I *4535:C1 I *D sky130_fd_sc_hd__a211o_1
*I *4533:X O *D sky130_fd_sc_hd__o211a_1
*CAP
1 *4534:A2 9.08075e-05
2 *4535:C1 0
3 *4533:X 0.000439866
4 *491:10 0.000530673
5 *4534:A2 *493:10 6.68793e-05
6 *491:10 *530:8 0
7 *491:10 *533:8 0
8 *4532:C1 *491:10 0
9 *4534:A1 *4534:A2 0.000155068
10 *4534:A1 *491:10 1.14452e-05
11 *448:12 *4534:A2 0
12 *490:31 *491:10 0.000489674
*RES
1 *4533:X *491:10 46.99 
2 *491:10 *4535:C1 38 
3 *491:10 *4534:A2 40.61 
*END

*D_NET *492 0.00182111
*CONN
*I *4536:A I *D sky130_fd_sc_hd__nand2_1
*I *4578:C I *D sky130_fd_sc_hd__and4b_1
*I *4579:A2 I *D sky130_fd_sc_hd__a21bo_1
*I *4534:Y O *D sky130_fd_sc_hd__o211ai_2
*CAP
1 *4536:A 0.00016985
2 *4578:C 4.25104e-05
3 *4579:A2 0
4 *4534:Y 0.000225672
5 *492:19 0.000350387
6 *492:10 0.000363698
7 *4536:A *4536:B 0.000184527
8 *4536:A *494:10 4.06849e-05
9 *4578:C *4536:B 5.50049e-05
10 *492:10 *493:10 0
11 *492:10 *493:23 0
12 *492:10 *849:20 0.000269775
13 *492:19 *493:23 0
14 *4534:A1 *492:10 5.2894e-05
15 *4578:D *4536:A 6.61099e-05
16 *4579:A1 *4536:A 0
17 *4579:A1 *492:19 0
*RES
1 *4534:Y *492:10 43.2614 
2 *492:10 *4579:A2 38 
3 *492:10 *492:19 2.25786 
4 *492:19 *4578:C 38.6214 
5 *492:19 *4536:A 41.5214 
*END

*D_NET *493 0.00273821
*CONN
*I *4536:B I *D sky130_fd_sc_hd__nand2_1
*I *4578:B I *D sky130_fd_sc_hd__and4b_1
*I *4579:B1_N I *D sky130_fd_sc_hd__a21bo_1
*I *4535:X O *D sky130_fd_sc_hd__a211o_1
*CAP
1 *4536:B 0.00013874
2 *4578:B 0
3 *4579:B1_N 0
4 *4535:X 0.000571211
5 *493:23 0.000329651
6 *493:10 0.000762122
7 *4536:B *494:10 1.32939e-05
8 *4536:B *535:10 0.000143655
9 *4534:A2 *493:10 6.68793e-05
10 *4535:A1 *493:10 0.000141052
11 *4536:A *4536:B 0.000184527
12 *4578:A_N *493:23 2.64616e-05
13 *4578:C *4536:B 5.50049e-05
14 *4578:D *4536:B 2.4754e-05
15 *4578:D *493:23 2.80512e-05
16 *4579:A1 *493:23 0.000138718
17 *416:22 *493:23 0.000114092
18 *448:12 *493:10 0
19 *492:10 *493:10 0
20 *492:10 *493:23 0
21 *492:19 *493:23 0
*RES
1 *4535:X *493:10 46.6793 
2 *493:10 *4579:B1_N 38 
3 *493:10 *493:23 18.8321 
4 *493:23 *4578:B 23 
5 *493:23 *4536:B 27.4743 
*END

*D_NET *494 0.00111443
*CONN
*I *4538:A I *D sky130_fd_sc_hd__xnor2_1
*I *4536:Y O *D sky130_fd_sc_hd__nand2_1
*CAP
1 *4538:A 0
2 *4536:Y 0.000530224
3 *494:10 0.000530224
4 *4536:A *494:10 4.06849e-05
5 *4536:B *494:10 1.32939e-05
6 *4537:B1 *494:10 0
7 *452:17 *494:10 0
*RES
1 *4536:Y *494:10 47.4664 
2 *494:10 *4538:A 38 
*END

*D_NET *495 0.000118198
*CONN
*I *4538:B I *D sky130_fd_sc_hd__xnor2_1
*I *4537:X O *D sky130_fd_sc_hd__a21o_1
*CAP
1 *4538:B 5.90989e-05
2 *4537:X 5.90989e-05
*RES
1 *4537:X *4538:B 47.0979 
*END

*D_NET *496 0.00183997
*CONN
*I *4539:B I *D sky130_fd_sc_hd__nand2_1
*I *4541:B I *D sky130_fd_sc_hd__nor2_1
*I *4538:Y O *D sky130_fd_sc_hd__xnor2_1
*CAP
1 *4539:B 0
2 *4541:B 0.000142519
3 *4538:Y 0.000606823
4 *496:12 0.000142519
5 *496:10 0.000606823
6 *4541:B *4539:A 5.26134e-05
7 *4541:B *497:19 8.06804e-06
8 *496:10 *497:10 0.000138727
9 *496:10 *968:107 0.000141879
*RES
1 *4538:Y *496:10 46.7207 
2 *496:10 *496:12 15 
3 *496:12 *4541:B 25.5686 
4 *496:12 *4539:B 23 
*END

*D_NET *497 0.00238901
*CONN
*I *4540:A I *D sky130_fd_sc_hd__inv_2
*I *4585:A2 I *D sky130_fd_sc_hd__a211o_1
*I *4584:A2 I *D sky130_fd_sc_hd__a21o_1
*I *4539:Y O *D sky130_fd_sc_hd__nand2_1
*CAP
1 *4540:A 0.0001297
2 *4585:A2 0.000320482
3 *4584:A2 0
4 *4539:Y 0
5 *497:19 0.000677569
6 *497:10 8.58288e-05
7 *497:4 0.000313215
8 *4540:A *4544:B1 1.83667e-05
9 *4540:A *499:30 3.53893e-05
10 *4585:A2 *4585:B1 8.23009e-05
11 *4585:A2 *499:8 4.83778e-05
12 *4585:A2 *499:30 4.94134e-05
13 *4585:A2 *541:10 0
14 *4585:A2 *542:10 0
15 *497:10 *968:97 5.31385e-05
16 *497:10 *968:107 4.45392e-05
17 *497:19 *4539:A 7.44354e-05
18 *497:19 *828:12 3.17516e-05
19 *4541:B *497:19 8.06804e-06
20 *4585:A1 *497:10 6.70363e-05
21 *462:19 *497:10 0.000210668
22 *496:10 *497:10 0.000138727
*RES
1 *4539:Y *497:4 23 
2 *497:4 *497:10 33.6664 
3 *497:10 *4584:A2 23 
4 *497:4 *497:19 18.0036 
5 *497:19 *4585:A2 44.8357 
6 *497:19 *4540:A 40.2579 
*END

*D_NET *498 0.00136163
*CONN
*I *4542:A1 I *D sky130_fd_sc_hd__o21a_1
*I *4543:B I *D sky130_fd_sc_hd__nor3_1
*I *4540:Y O *D sky130_fd_sc_hd__inv_2
*CAP
1 *4542:A1 0
2 *4543:B 2.28411e-05
3 *4540:Y 0.000149317
4 *498:14 0.000149756
5 *498:10 0.000276232
6 *4543:B *4543:C 0.000155185
7 *498:10 *502:8 0.000140958
8 *498:10 *836:46 1.22803e-05
9 *498:10 *838:122 5.27215e-06
10 *498:10 *845:57 3.70094e-05
11 *498:14 *4543:C 5.50106e-05
12 *498:14 *499:30 0.000128723
13 *498:14 *500:10 2.06822e-05
14 *498:14 *836:65 4.67488e-05
15 *498:14 *966:100 6.53382e-05
16 *4542:B1 *498:14 2.93845e-05
17 *138:8 *498:10 0
18 *462:15 *4543:B 2.18409e-05
19 *462:15 *498:14 4.5051e-05
*RES
1 *4540:Y *498:10 40.8793 
2 *498:10 *498:14 18.48 
3 *498:14 *4543:B 24.0979 
4 *498:14 *4542:A1 23 
*END

*D_NET *499 0.00287799
*CONN
*I *4542:A2 I *D sky130_fd_sc_hd__o21a_1
*I *4543:C I *D sky130_fd_sc_hd__nor3_1
*I *4584:B1 I *D sky130_fd_sc_hd__a21o_1
*I *4585:B1 I *D sky130_fd_sc_hd__a211o_1
*I *4541:Y O *D sky130_fd_sc_hd__nor2_1
*CAP
1 *4542:A2 0
2 *4543:C 8.83163e-05
3 *4584:B1 0
4 *4585:B1 0.000107266
5 *4541:Y 0
6 *499:30 0.000407243
7 *499:8 0.000164696
8 *499:6 0.000376356
9 *4543:C *966:100 0.000184527
10 *4585:B1 *540:10 1.14452e-05
11 *4585:B1 *968:107 0
12 *499:30 *4544:B1 0.000221184
13 *499:30 *500:10 0.000138718
14 *499:30 *836:46 5.01986e-05
15 *499:30 *966:100 0.000141954
16 *499:30 *968:97 0
17 *4540:A *499:30 3.53893e-05
18 *4542:B1 *4543:C 0
19 *4543:B *4543:C 0.000155185
20 *4585:A1 *4585:B1 0.000111148
21 *4585:A1 *499:8 2.95125e-05
22 *4585:A2 *4585:B1 8.23009e-05
23 *4585:A2 *499:8 4.83778e-05
24 *4585:A2 *499:30 4.94134e-05
25 *462:15 *4543:C 0.00010018
26 *462:19 *499:8 4.334e-05
27 *462:19 *499:30 0.000147508
28 *498:14 *4543:C 5.50106e-05
29 *498:14 *499:30 0.000128723
*RES
1 *4541:Y *499:6 38 
2 *499:6 *499:8 1.90571 
3 *499:8 *4585:B1 41.3143 
4 *499:8 *4584:B1 38 
5 *499:6 *499:30 23.7621 
6 *499:30 *4543:C 26.9979 
7 *499:30 *4542:A2 23 
*END

*D_NET *500 0.000624878
*CONN
*I *4544:A1 I *D sky130_fd_sc_hd__o21ai_1
*I *4542:X O *D sky130_fd_sc_hd__o21a_1
*CAP
1 *4544:A1 0
2 *4542:X 0.000149822
3 *500:10 0.000149822
4 *500:10 *836:65 1.24376e-05
5 *4542:B1 *500:10 1.24376e-05
6 *462:19 *500:10 0.000140958
7 *498:14 *500:10 2.06822e-05
8 *499:30 *500:10 0.000138718
*RES
1 *4542:X *500:10 41.0036 
2 *500:10 *4544:A1 38 
*END

*D_NET *501 0.000698298
*CONN
*I *4544:A2 I *D sky130_fd_sc_hd__o21ai_1
*I *4543:Y O *D sky130_fd_sc_hd__nor3_1
*CAP
1 *4544:A2 0.000191126
2 *4543:Y 7.26374e-05
3 *501:8 0.000263763
4 *4544:A2 *838:118 0
5 *4544:A2 *838:122 5.66784e-05
6 *501:8 *827:22 0
7 *501:8 *968:97 0.000114092
*RES
1 *4543:Y *501:8 39.5536 
2 *501:8 *4544:A2 41.0243 
*END

*D_NET *502 0.000400193
*CONN
*I *4545:C1 I *D sky130_fd_sc_hd__o211a_1
*I *4544:Y O *D sky130_fd_sc_hd__o21ai_1
*CAP
1 *4545:C1 0
2 *4544:Y 5.50008e-05
3 *502:8 5.50008e-05
4 *502:8 *4544:B1 0.000137788
5 *502:8 *836:46 1.14452e-05
6 *498:10 *502:8 0.000140958
*RES
1 *4544:Y *502:8 39.9057 
2 *502:8 *4545:C1 38 
*END

*D_NET *503 0.00430145
*CONN
*I *4572:A_N I *D sky130_fd_sc_hd__nand2b_1
*I *4573:A I *D sky130_fd_sc_hd__xnor2_1
*I *4546:Y O *D sky130_fd_sc_hd__a21oi_1
*CAP
1 *4572:A_N 0
2 *4573:A 0
3 *4546:Y 0.000238556
4 *503:25 0.000318501
5 *503:12 0.00180092
6 *503:8 0.00172097
7 *503:25 *525:10 0
8 *503:25 *527:8 0.000110913
9 *503:25 *527:12 2.64616e-05
10 *503:25 *528:12 0
11 *420:14 *503:8 8.51329e-05
12 *420:32 *503:8 0
*RES
1 *4546:Y *503:8 42.7229 
2 *503:8 *503:12 41.3486 
3 *503:12 *4573:A 23 
4 *503:12 *503:25 35.6136 
5 *503:25 *4572:A_N 23 
*END

*D_NET *504 0.00292781
*CONN
*I *4551:A I *D sky130_fd_sc_hd__and2_1
*I *4552:A I *D sky130_fd_sc_hd__xor2_1
*I *4547:X O *D sky130_fd_sc_hd__a31o_1
*CAP
1 *4551:A 3.92868e-05
2 *4552:A 0
3 *4547:X 9.18104e-05
4 *504:20 0.000482986
5 *504:8 0.00053551
6 *4551:A *4551:B 0.00021477
7 *504:8 *978:96 0
8 *504:8 *979:42 0
9 *504:20 *4512:A 0.00010018
10 *504:20 *4512:B 9.41704e-05
11 *504:20 *4551:B 5.50106e-05
12 *4516:A *504:20 5.09067e-05
13 *4516:B *504:20 5.3304e-05
14 *474:10 *504:20 0.000595306
15 *480:18 *4551:A 0.000228001
16 *480:18 *504:20 0.000386565
*RES
1 *4547:X *504:8 39.5536 
2 *504:8 *504:20 28.34 
3 *504:20 *4552:A 23 
4 *504:20 *4551:A 25.5271 
*END

*D_NET *505 0.000290516
*CONN
*I *4550:A I *D sky130_fd_sc_hd__nor2_1
*I *4548:X O *D sky130_fd_sc_hd__o2bb2a_1
*CAP
1 *4550:A 5.6247e-05
2 *4548:X 5.6247e-05
3 *4550:A *511:16 5.67058e-05
4 *4550:A *977:31 9.72057e-06
5 *4550:A *977:46 0.000111596
*RES
1 *4548:X *4550:A 47.9471 
*END

*D_NET *506 0.00241385
*CONN
*I *4595:A I *D sky130_fd_sc_hd__nand2_1
*I *4596:A I *D sky130_fd_sc_hd__xnor2_1
*I *4550:B I *D sky130_fd_sc_hd__nor2_1
*I *4549:X O *D sky130_fd_sc_hd__and4b_1
*CAP
1 *4595:A 0
2 *4596:A 0.000195649
3 *4550:B 0
4 *4549:X 3.53179e-05
5 *506:23 0.000460924
6 *506:12 0.000155237
7 *506:6 0.00045583
8 *4596:A *4596:B 0.000153375
9 *506:6 *519:12 7.53384e-06
10 *506:6 *519:20 7.06229e-05
11 *506:6 *546:6 0.000185428
12 *506:12 *796:25 0
13 *506:12 *977:46 3.70187e-05
14 *506:12 *998:92 0
15 *506:23 *519:12 0
16 *506:23 *519:20 0.000527387
17 *506:23 *546:6 0.000129524
*RES
1 *4549:X *506:6 25.0507 
2 *506:6 *506:12 32.61 
3 *506:12 *4550:B 23 
4 *506:6 *506:23 7.80929 
5 *506:23 *4596:A 26.9979 
6 *506:23 *4595:A 23 
*END

*D_NET *507 0.00210496
*CONN
*I *4551:B I *D sky130_fd_sc_hd__and2_1
*I *4552:B I *D sky130_fd_sc_hd__xor2_1
*I *4550:Y O *D sky130_fd_sc_hd__nor2_1
*CAP
1 *4551:B 9.52933e-05
2 *4552:B 0
3 *4550:Y 0.000384388
4 *507:12 9.52933e-05
5 *507:10 0.000384388
6 *507:10 *509:8 0
7 *507:10 *511:16 0.000268873
8 *507:10 *796:25 0.000354769
9 *4551:A *4551:B 0.00021477
10 *474:10 *4551:B 0.000202663
11 *480:18 *4551:B 4.95081e-05
12 *504:20 *4551:B 5.50106e-05
*RES
1 *4550:Y *507:10 45.7264 
2 *507:10 *507:12 15 
3 *507:12 *4552:B 23 
4 *507:12 *4551:B 27.4536 
*END

*D_NET *508 0.000478507
*CONN
*I *4589:B1 I *D sky130_fd_sc_hd__a21o_1
*I *4551:X O *D sky130_fd_sc_hd__and2_1
*CAP
1 *4589:B1 2.01797e-05
2 *4551:X 0.000120594
3 *508:8 0.000140774
4 *4589:B1 *4553:B 9.84794e-05
5 *508:8 *509:8 0
6 *4553:A *4589:B1 9.84794e-05
7 *465:23 *508:8 0
*RES
1 *4551:X *508:8 39.9057 
2 *508:8 *4589:B1 39.0979 
*END

*D_NET *509 0.00107066
*CONN
*I *4553:B I *D sky130_fd_sc_hd__xnor2_1
*I *4589:A2 I *D sky130_fd_sc_hd__a21o_1
*I *4552:X O *D sky130_fd_sc_hd__xor2_1
*CAP
1 *4553:B 0.000102614
2 *4589:A2 0
3 *4552:X 0.000216623
4 *509:10 0.000102614
5 *509:8 0.000216623
6 *509:8 *796:25 0
7 *4553:A *4553:B 0.000108888
8 *4589:B1 *4553:B 9.84794e-05
9 *465:23 *509:8 1.14452e-05
10 *478:12 *4553:B 0.000176355
11 *479:18 *509:8 3.70187e-05
12 *507:10 *509:8 0
13 *508:8 *509:8 0
*RES
1 *4552:X *509:8 41.3143 
2 *509:8 *509:10 15 
3 *509:10 *4589:A2 23 
4 *509:10 *4553:B 26.9771 
*END

*D_NET *510 0.00511496
*CONN
*I *4568:A I *D sky130_fd_sc_hd__xnor2_1
*I *4607:A1 I *D sky130_fd_sc_hd__o21ai_1
*I *4553:Y O *D sky130_fd_sc_hd__xnor2_1
*CAP
1 *4568:A 0
2 *4607:A1 0.000137666
3 *4553:Y 0.00103929
4 *510:25 0.000321674
5 *510:6 0.00149863
6 *4607:A1 *4565:A_N 5.3304e-05
7 *4607:A1 *4607:A2 0.000267173
8 *4607:A1 *4607:B1 4.6011e-05
9 *4607:A1 *520:23 2.93802e-05
10 *4607:A1 *520:36 5.45324e-05
11 *4607:A1 *521:10 9.41435e-05
12 *4607:A1 *545:16 2.9938e-05
13 *510:6 *521:6 0.000836644
14 *510:6 *521:10 1.22822e-05
15 *510:25 *4568:B 5.67058e-05
16 *510:25 *521:18 0.000141879
17 *11:9 *510:25 0.000108569
18 *478:12 *510:6 0.000387141
19 *482:10 *510:25 0
*RES
1 *4553:Y *510:6 40.2964 
2 *510:6 *4607:A1 27.8264 
3 *510:6 *510:25 36.7736 
4 *510:25 *4568:A 23 
*END

*D_NET *511 0.00992996
*CONN
*I *4627:A1 I *D sky130_fd_sc_hd__o21ai_1
*I *4602:A1 I *D sky130_fd_sc_hd__o21ai_1
*I *4555:B I *D sky130_fd_sc_hd__nor2_2
*I *4554:Y O *D sky130_fd_sc_hd__a21oi_2
*CAP
1 *4627:A1 0
2 *4602:A1 0
3 *4555:B 0
4 *4554:Y 0
5 *511:38 0.0003399
6 *511:23 0.000418082
7 *511:16 0.00106428
8 *511:10 0.00332291
9 *511:4 0.00233681
10 *511:10 *4554:A2 0.000176484
11 *511:10 *977:46 0
12 *511:10 *979:36 0.000516936
13 *511:10 *998:82 0.000280745
14 *511:10 *998:84 2.54046e-05
15 *511:10 *998:92 1.44546e-05
16 *511:16 *519:22 0.000335213
17 *511:16 *977:46 6.68822e-05
18 *511:23 *4602:A2 1.41077e-05
19 *511:23 *512:8 5.41288e-05
20 *511:23 *519:22 3.7122e-06
21 *511:38 *4563:A 3.0647e-05
22 *511:38 *4602:A2 1.5769e-05
23 *511:38 *4627:A2 5.67058e-05
24 *511:38 *512:10 0.000186687
25 *511:38 *512:12 4.6318e-06
26 *511:38 *557:10 2.93845e-05
27 *511:38 *558:10 3.7122e-06
28 *4515:A_N *511:10 0.000269781
29 *4550:A *511:16 5.67058e-05
30 *479:33 *511:38 3.70094e-05
31 *479:46 *511:38 0
32 *507:10 *511:16 0.000268873
*RES
1 *4554:Y *511:4 23 
2 *511:4 *511:10 49.0957 
3 *511:10 *511:16 35.6521 
4 *511:16 *4555:B 23 
5 *511:16 *511:23 1.57429 
6 *511:23 *4602:A1 23 
7 *511:23 *511:38 37.4986 
8 *511:38 *4627:A1 23 
*END

*D_NET *512 0.00339122
*CONN
*I *4563:A I *D sky130_fd_sc_hd__xnor2_1
*I *4601:A I *D sky130_fd_sc_hd__xnor2_1
*I *4626:A I *D sky130_fd_sc_hd__xor2_1
*I *4658:B I *D sky130_fd_sc_hd__nor3_1
*I *4555:Y O *D sky130_fd_sc_hd__nor2_2
*CAP
1 *4563:A 0.000181133
2 *4601:A 4.56652e-05
3 *4626:A 3.2572e-05
4 *4658:B 0.000188676
5 *4555:Y 2.44744e-05
6 *512:12 0.000697519
7 *512:10 0.000738607
8 *512:8 0.000422278
9 *4563:A *519:28 7.8085e-05
10 *4601:A *4627:A2 9.84794e-05
11 *4626:A *591:6 2.93747e-05
12 *4658:B *4658:C 9.84851e-05
13 *4658:B *580:26 8.51432e-05
14 *4658:B *611:10 2.4754e-05
15 *512:8 *4602:A2 9.84794e-05
16 *512:10 *519:28 1.19796e-05
17 *512:12 *556:18 3.98859e-05
18 *512:12 *580:26 1.47563e-05
19 *512:12 *582:8 0
20 *4658:A *4658:B 0.000143655
21 *478:22 *512:10 0
22 *478:22 *512:12 0
23 *479:33 *4563:A 6.11286e-05
24 *511:23 *512:8 5.41288e-05
25 *511:38 *4563:A 3.0647e-05
26 *511:38 *512:10 0.000186687
27 *511:38 *512:12 4.6318e-06
*RES
1 *4555:Y *512:8 39.0979 
2 *512:8 *512:10 5.075 
3 *512:10 *512:12 8.94857 
4 *512:12 *4658:B 42.5364 
5 *512:12 *4626:A 38.6214 
6 *512:10 *4601:A 39.0979 
7 *512:8 *4563:A 42.4121 
*END

*D_NET *513 0.000808799
*CONN
*I *4560:C I *D sky130_fd_sc_hd__nand4_1
*I *4561:B1 I *D sky130_fd_sc_hd__a22o_1
*I *4556:X O *D sky130_fd_sc_hd__a22o_1
*CAP
1 *4560:C 0.000123476
2 *4561:B1 1.79949e-05
3 *4556:X 7.9132e-05
4 *513:8 0.000220603
5 *4560:C *4561:A2 0
6 *4560:C *518:12 0.000108993
7 *4560:C *978:20 2.18409e-05
8 *4560:C *996:19 1.22822e-05
9 *4560:C *996:28 0.000102093
10 *4561:B1 *4561:A2 5.90675e-06
11 *4561:B1 *978:20 0
12 *513:8 *978:20 0.000116477
*RES
1 *4556:X *513:8 25.0714 
2 *513:8 *4561:B1 23.4971 
3 *513:8 *4560:C 26.5007 
*END

*D_NET *514 0.00108358
*CONN
*I *4660:B1 I *D sky130_fd_sc_hd__a21oi_2
*I *4630:B1 I *D sky130_fd_sc_hd__a31o_1
*I *4557:X O *D sky130_fd_sc_hd__and3_1
*CAP
1 *4660:B1 0
2 *4630:B1 0
3 *4557:X 0.00010863
4 *514:21 0.00030537
5 *514:8 0.000414001
6 *514:8 *978:73 9.90162e-05
7 *514:21 *4660:A1 0
8 *514:21 *553:36 4.34973e-05
9 *514:21 *585:6 3.7122e-06
10 *514:21 *977:31 0
11 *514:21 *978:73 5.50049e-05
12 *514:21 *994:63 1.19692e-05
13 *514:21 *994:69 4.23817e-05
*RES
1 *4557:X *514:8 25.5479 
2 *514:8 *4630:B1 23 
3 *514:8 *514:21 35.4893 
4 *514:21 *4660:B1 23 
*END

*D_NET *515 0.00126426
*CONN
*I *4598:A I *D sky130_fd_sc_hd__and2_1
*I *4624:B1 I *D sky130_fd_sc_hd__a22oi_1
*I *4558:Y O *D sky130_fd_sc_hd__nand3_1
*CAP
1 *4598:A 0
2 *4624:B1 3.38259e-05
3 *4558:Y 8.56984e-05
4 *515:19 0.000139014
5 *515:6 0.000258538
6 *4624:B1 *4624:A1 1.14154e-05
7 *4624:B1 *992:62 1.78991e-05
8 *515:6 *4624:A1 1.94812e-05
9 *515:6 *983:10 0.000139352
10 *515:6 *983:54 0.000215671
11 *515:6 *992:62 0.000267412
12 *515:6 *992:79 1.34533e-06
13 *515:19 *4598:B 7.461e-05
*RES
1 *4558:Y *515:6 26.9564 
2 *515:6 *4624:B1 23.8493 
3 *515:6 *515:19 32.2579 
4 *515:19 *4598:A 23 
*END

*D_NET *516 0.00276231
*CONN
*I *4590:A I *D sky130_fd_sc_hd__nand2_1
*I *4560:D I *D sky130_fd_sc_hd__nand4_1
*I *4561:B2 I *D sky130_fd_sc_hd__a22o_1
*I *4559:Y O *D sky130_fd_sc_hd__nand4_1
*CAP
1 *4590:A 0.000419012
2 *4560:D 0
3 *4561:B2 0
4 *4559:Y 9.21973e-05
5 *516:23 0.00073077
6 *516:12 0.000105486
7 *516:6 0.00050944
8 *4590:A *4590:B 2.36269e-05
9 *4590:A *517:8 0.000231685
10 *4590:A *518:12 0.000115705
11 *4590:A *519:12 4.5051e-05
12 *4590:A *546:6 2.93845e-05
13 *4590:A *978:28 0
14 *4590:A *978:34 0
15 *516:6 *995:27 0.000143655
16 *516:12 *4556:A1 0
17 *516:12 *978:28 1.19796e-05
18 *516:12 *994:30 0
19 *516:12 *994:43 0
20 *516:23 *793:23 0
21 *516:23 *978:28 0
22 *516:23 *978:34 0
23 *516:23 *995:27 0.000304321
24 *516:23 *996:49 0
*RES
1 *4559:Y *516:6 24.5743 
2 *516:6 *516:12 31.9057 
3 *516:12 *4561:B2 23 
4 *516:6 *516:23 20.3857 
5 *516:23 *4560:D 38 
6 *516:23 *4590:A 45.6021 
*END

*D_NET *517 0.000622083
*CONN
*I *4590:B I *D sky130_fd_sc_hd__nand2_1
*I *4562:A I *D sky130_fd_sc_hd__nand2_1
*I *4560:Y O *D sky130_fd_sc_hd__nand4_1
*CAP
1 *4590:B 1.66886e-05
2 *4562:A 0
3 *4560:Y 6.77741e-05
4 *517:8 8.44627e-05
5 *4590:B *519:12 5.50106e-05
6 *517:8 *518:12 0.00011783
7 *517:8 *519:12 1.57571e-05
8 *517:8 *996:49 9.24795e-06
9 *4590:A *4590:B 2.36269e-05
10 *4590:A *517:8 0.000231685
*RES
1 *4560:Y *517:8 25.9 
2 *517:8 *4562:A 23 
3 *517:8 *4590:B 23.6214 
*END

*D_NET *518 0.000655831
*CONN
*I *4562:B I *D sky130_fd_sc_hd__nand2_1
*I *4561:X O *D sky130_fd_sc_hd__a22o_1
*CAP
1 *4562:B 0
2 *4561:X 0.000105845
3 *518:12 0.000105845
4 *518:12 *996:28 1.98161e-05
5 *518:12 *996:49 8.1796e-05
6 *4560:C *518:12 0.000108993
7 *4590:A *518:12 0.000115705
8 *517:8 *518:12 0.00011783
*RES
1 *4561:X *518:12 27.1429 
2 *518:12 *4562:B 23 
*END

*D_NET *519 0.00788162
*CONN
*I *4602:A2 I *D sky130_fd_sc_hd__o21ai_1
*I *4563:B I *D sky130_fd_sc_hd__xnor2_1
*I *4562:Y O *D sky130_fd_sc_hd__nand2_1
*CAP
1 *4602:A2 0.000131207
2 *4563:B 0
3 *4562:Y 0.000965581
4 *519:28 0.000157463
5 *519:22 0.00110219
6 *519:20 0.00135339
7 *519:12 0.00150545
8 *519:12 *4549:A_N 8.264e-05
9 *519:12 *4549:D 2.35426e-05
10 *519:12 *546:6 6.61718e-05
11 *519:12 *996:49 5.50049e-05
12 *519:12 *997:136 0.0001396
13 *519:12 *998:92 3.78695e-05
14 *519:12 *998:98 2.64616e-05
15 *519:12 *1000:43 9.58714e-05
16 *519:12 *1000:124 0.000689485
17 *519:20 *546:10 0
18 *519:20 *550:10 9.48381e-06
19 *519:20 *796:25 0
20 *4563:A *519:28 7.8085e-05
21 *4590:A *519:12 4.5051e-05
22 *4590:B *519:12 5.50106e-05
23 *478:16 *519:28 0.000113624
24 *478:22 *519:28 4.78793e-05
25 *479:33 *519:28 0
26 *506:6 *519:12 7.53384e-06
27 *506:6 *519:20 7.06229e-05
28 *506:23 *519:12 0
29 *506:23 *519:20 0.000527387
30 *511:16 *519:22 0.000335213
31 *511:23 *4602:A2 1.41077e-05
32 *511:23 *519:22 3.7122e-06
33 *511:38 *4602:A2 1.5769e-05
34 *512:8 *4602:A2 9.84794e-05
35 *512:10 *519:28 1.19796e-05
36 *517:8 *519:12 1.57571e-05
*RES
1 *4562:Y *519:12 42.865 
2 *519:12 *519:20 40.8543 
3 *519:20 *519:22 12.5321 
4 *519:22 *519:28 34.0186 
5 *519:28 *4563:B 23 
6 *519:22 *4602:A2 25.0507 
*END

*D_NET *520 0.00235424
*CONN
*I *4567:A I *D sky130_fd_sc_hd__xnor2_1
*I *4565:B I *D sky130_fd_sc_hd__nand2b_1
*I *4566:A_N I *D sky130_fd_sc_hd__and2b_1
*I *4563:Y O *D sky130_fd_sc_hd__xnor2_1
*CAP
1 *4567:A 0
2 *4565:B 0
3 *4566:A_N 0
4 *4563:Y 0.000543377
5 *520:36 0.000174635
6 *520:23 0.000267647
7 *520:12 9.30114e-05
8 *520:10 0.000543377
9 *520:23 *4565:A_N 4.17736e-05
10 *520:23 *4607:B1 0
11 *520:23 *521:6 4.94192e-05
12 *520:23 *521:10 0.00010018
13 *520:23 *545:16 0.000313524
14 *520:36 *545:16 2.4485e-05
15 *4607:A1 *520:23 2.93802e-05
16 *4607:A1 *520:36 5.45324e-05
17 *11:9 *520:10 0
18 *11:9 *520:36 0.000118899
19 *479:33 *520:10 0
*RES
1 *4563:Y *520:10 47.1557 
2 *520:10 *520:12 15 
3 *520:12 *4566:A_N 23 
4 *520:12 *520:23 4.12732 
5 *520:23 *4565:B 23 
6 *520:23 *520:36 33.9305 
7 *520:36 *4567:A 23 
*END

*D_NET *521 0.00268496
*CONN
*I *4566:B I *D sky130_fd_sc_hd__and2b_1
*I *4565:A_N I *D sky130_fd_sc_hd__nand2b_1
*I *4567:B I *D sky130_fd_sc_hd__xnor2_1
*I *4564:Y O *D sky130_fd_sc_hd__a21oi_1
*CAP
1 *4566:B 0
2 *4565:A_N 1.8352e-05
3 *4567:B 0
4 *4564:Y 0.000179313
5 *521:18 0.000215611
6 *521:10 0.000283467
7 *521:6 0.000228817
8 *521:6 *545:16 0.000199818
9 *4607:A1 *4565:A_N 5.3304e-05
10 *4607:A1 *521:10 9.41435e-05
11 *11:9 *521:18 0.000216721
12 *478:12 *521:6 1.32314e-05
13 *510:6 *521:6 0.000836644
14 *510:6 *521:10 1.22822e-05
15 *510:25 *521:18 0.000141879
16 *520:23 *4565:A_N 4.17736e-05
17 *520:23 *521:6 4.94192e-05
18 *520:23 *521:10 0.00010018
*RES
1 *4564:Y *521:6 32.1971 
2 *521:6 *521:10 1.94714 
3 *521:10 *521:18 34.06 
4 *521:18 *4567:B 23 
5 *521:10 *4565:A_N 23.6214 
6 *521:6 *4566:B 23 
*END

*D_NET *522 0.000412018
*CONN
*I *4607:B1 I *D sky130_fd_sc_hd__o21ai_1
*I *4565:Y O *D sky130_fd_sc_hd__nand2b_1
*CAP
1 *4607:B1 6.90964e-05
2 *4565:Y 6.90964e-05
3 *4607:B1 *4607:A2 1.76557e-05
4 *4607:B1 *545:16 0.000187129
5 *4607:B1 *563:8 2.30292e-05
6 *4607:A1 *4607:B1 4.6011e-05
7 *520:23 *4607:B1 0
*RES
1 *4565:Y *4607:B1 48.9 
*END

*D_NET *523 0.000630463
*CONN
*I *4607:A2 I *D sky130_fd_sc_hd__o21ai_1
*I *4566:X O *D sky130_fd_sc_hd__and2b_1
*CAP
1 *4607:A2 0.000172817
2 *4566:X 0.000172817
3 *4607:A1 *4607:A2 0.000267173
4 *4607:B1 *4607:A2 1.76557e-05
*RES
1 *4566:X *4607:A2 49.48 
*END

*D_NET *524 0.000583789
*CONN
*I *4568:B I *D sky130_fd_sc_hd__xnor2_1
*I *4567:Y O *D sky130_fd_sc_hd__xnor2_1
*CAP
1 *4568:B 0.000121153
2 *4567:Y 0.000127701
3 *524:8 0.000248854
4 *4568:B *525:10 2.93747e-05
5 *11:9 *524:8 0
6 *510:25 *4568:B 5.67058e-05
*RES
1 *4567:Y *524:8 40.2579 
2 *524:8 *4568:B 40.5271 
*END

*D_NET *525 0.0019182
*CONN
*I *4570:B I *D sky130_fd_sc_hd__nand2b_1
*I *4571:A I *D sky130_fd_sc_hd__xnor2_1
*I *4568:Y O *D sky130_fd_sc_hd__xnor2_1
*CAP
1 *4570:B 0.000131854
2 *4571:A 0
3 *4568:Y 0.00067069
4 *525:12 0.000131854
5 *525:10 0.00067069
6 *4570:B *4570:A_N 0.000139816
7 *4570:B *4572:B 8.7218e-05
8 *4570:B *528:12 5.67058e-05
9 *525:10 *650:10 0
10 *4568:B *525:10 2.93747e-05
11 *485:10 *525:10 0
12 *503:25 *525:10 0
*RES
1 *4568:Y *525:10 48.8957 
2 *525:10 *525:12 15 
3 *525:12 *4571:A 23 
4 *525:12 *4570:B 27.148 
*END

*D_NET *526 0.00214691
*CONN
*I *4570:A_N I *D sky130_fd_sc_hd__nand2b_1
*I *4571:B I *D sky130_fd_sc_hd__xnor2_1
*I *4569:Y O *D sky130_fd_sc_hd__a21boi_1
*CAP
1 *4570:A_N 0.000149408
2 *4571:B 0
3 *4569:Y 0.000323541
4 *526:6 0.000472949
5 *4528:A *526:6 0.000269381
6 *4529:A2 *526:6 0.000141052
7 *4570:B *4570:A_N 0.000139816
8 *485:20 *526:6 0.000521328
9 *486:10 *526:6 7.44257e-05
10 *487:10 *526:6 5.50049e-05
*RES
1 *4569:Y *526:6 33.6264 
2 *526:6 *4571:B 23 
3 *526:6 *4570:A_N 26.5007 
*END

*D_NET *527 0.00190189
*CONN
*I *4612:A I *D sky130_fd_sc_hd__nand3_1
*I *4611:A1 I *D sky130_fd_sc_hd__a21oi_1
*I *4570:Y O *D sky130_fd_sc_hd__nand2b_1
*CAP
1 *4612:A 0.000206399
2 *4611:A1 0
3 *4570:Y 7.63293e-05
4 *527:12 0.000695479
5 *527:8 0.00056541
6 *4612:A *4612:B 0.00012188
7 *4612:A *4612:C 5.50106e-05
8 *4612:A *567:10 9.24795e-06
9 *4612:A *568:10 5.37348e-06
10 *527:8 *528:12 0
11 *527:12 *4612:B 2.93845e-05
12 *503:25 *527:8 0.000110913
13 *503:25 *527:12 2.64616e-05
*RES
1 *4570:Y *527:8 39.5536 
2 *527:8 *527:12 21.3386 
3 *527:12 *4611:A1 23 
4 *527:12 *4612:A 27.1429 
*END

*D_NET *528 0.00107505
*CONN
*I *4572:B I *D sky130_fd_sc_hd__nand2b_1
*I *4573:B I *D sky130_fd_sc_hd__xnor2_1
*I *4571:Y O *D sky130_fd_sc_hd__xnor2_1
*CAP
1 *4572:B 0.000290884
2 *4573:B 0
3 *4571:Y 0
4 *528:12 0.000174677
5 *528:4 0.000465562
6 *4570:B *4572:B 8.7218e-05
7 *4570:B *528:12 5.67058e-05
8 *503:25 *528:12 0
9 *527:8 *528:12 0
*RES
1 *4571:Y *528:4 23 
2 *528:4 *528:12 32.8793 
3 *528:12 *4573:B 23 
4 *528:4 *4572:B 27.4795 
*END

*D_NET *529 0.00123324
*CONN
*I *4612:B I *D sky130_fd_sc_hd__nand3_1
*I *4611:A2 I *D sky130_fd_sc_hd__a21oi_1
*I *4572:Y O *D sky130_fd_sc_hd__nand2b_1
*CAP
1 *4612:B 9.12175e-05
2 *4611:A2 0
3 *4572:Y 0.000377027
4 *529:12 9.12175e-05
5 *529:10 0.000377027
6 *4612:B *4612:C 5.50106e-05
7 *4612:B *567:10 5.83407e-05
8 *529:10 *566:10 3.21327e-05
9 *4612:A *4612:B 0.00012188
10 *527:12 *4612:B 2.93845e-05
*RES
1 *4572:Y *529:10 43.3857 
2 *529:10 *529:12 15 
3 *529:12 *4611:A2 23 
4 *529:12 *4612:B 26.0036 
*END

*D_NET *530 0.00151167
*CONN
*I *4574:C I *D sky130_fd_sc_hd__or3_1
*I *4575:B1 I *D sky130_fd_sc_hd__o21a_1
*I *4576:B1 I *D sky130_fd_sc_hd__o21ai_1
*I *4573:Y O *D sky130_fd_sc_hd__xnor2_1
*CAP
1 *4574:C 5.25313e-05
2 *4575:B1 0
3 *4576:B1 0
4 *4573:Y 0.000447897
5 *530:19 0.000145405
6 *530:10 9.28741e-05
7 *530:8 0.000447897
8 *4532:C1 *530:8 0
9 *4574:A *4574:C 0.000130423
10 *4574:A *530:19 0.000143655
11 *4576:A1 *530:19 1.37232e-05
12 *488:36 *530:19 3.72686e-05
13 *489:10 *530:8 0
14 *491:10 *530:8 0
*RES
1 *4573:Y *530:8 45.54 
2 *530:8 *530:10 15 
3 *530:10 *4576:B1 23 
4 *530:10 *530:19 2.54786 
5 *530:19 *4575:B1 23 
6 *530:19 *4574:C 24.5743 
*END

*D_NET *531 0.00310766
*CONN
*I *4577:A I *D sky130_fd_sc_hd__nand2_1
*I *4614:A1 I *D sky130_fd_sc_hd__a21o_1
*I *4647:A1 I *D sky130_fd_sc_hd__a21o_1
*I *4574:X O *D sky130_fd_sc_hd__or3_1
*CAP
1 *4577:A 0.000223867
2 *4614:A1 0
3 *4647:A1 0.000365162
4 *4574:X 0.000230873
5 *531:21 0.000278712
6 *531:8 0.000650881
7 *4577:A *4649:C1 6.79006e-05
8 *4577:A *968:107 0.000191148
9 *4647:A1 *968:107 0.000300098
10 *4647:A1 *968:111 0.000226306
11 *531:8 *532:8 0.000359326
12 *531:21 *968:107 8.94487e-05
13 *181:52 *4577:A 0.000123934
*RES
1 *4574:X *531:8 41.9564 
2 *531:8 *4647:A1 45.0221 
3 *531:8 *531:21 1.20143 
4 *531:21 *4614:A1 38 
5 *531:21 *4577:A 43.1371 
*END

*D_NET *532 0.00179482
*CONN
*I *4648:A1 I *D sky130_fd_sc_hd__a21o_1
*I *4614:B1 I *D sky130_fd_sc_hd__a21o_1
*I *4575:X O *D sky130_fd_sc_hd__o21a_1
*CAP
1 *4648:A1 0.000110896
2 *4614:B1 2.1727e-05
3 *4575:X 0.000298151
4 *532:8 0.000430774
5 *4614:B1 *4614:A2 4.00259e-06
6 *4648:A1 *4614:A2 5.70419e-05
7 *4648:A1 *4648:B1 5.50049e-05
8 *4648:A1 *570:10 0.000228001
9 *4648:A1 *603:8 1.76557e-05
10 *532:8 *4614:A2 4.2062e-05
11 *532:8 *603:8 1.32939e-05
12 *4574:A *532:8 0.00010018
13 *4574:B *532:8 5.67058e-05
14 *531:8 *532:8 0.000359326
*RES
1 *4575:X *532:8 30.7886 
2 *532:8 *4614:B1 23.4971 
3 *532:8 *4648:A1 26.9771 
*END

*D_NET *533 0.000963765
*CONN
*I *4577:B I *D sky130_fd_sc_hd__nand2_1
*I *4576:Y O *D sky130_fd_sc_hd__o21ai_1
*CAP
1 *4577:B 0.000223807
2 *4576:Y 0.000107236
3 *533:8 0.000331043
4 *181:52 *4577:B 0.000301679
5 *491:10 *533:8 0
*RES
1 *4576:Y *533:8 39.9057 
2 *533:8 *4577:B 43.8621 
*END

*D_NET *534 0.00130753
*CONN
*I *4581:A I *D sky130_fd_sc_hd__xnor2_1
*I *4577:Y O *D sky130_fd_sc_hd__nand2_1
*CAP
1 *4581:A 0
2 *4577:Y 0.000270089
3 *534:10 0.000270089
4 *534:10 *4649:C1 0.00035793
5 *534:10 *968:107 0.000181422
6 *181:52 *534:10 0.000228001
*RES
1 *4577:Y *534:10 45.25 
2 *534:10 *4581:A 38 
*END

*D_NET *535 0.00176693
*CONN
*I *4580:A2 I *D sky130_fd_sc_hd__a21o_1
*I *4649:A1 I *D sky130_fd_sc_hd__a211o_1
*I *4578:X O *D sky130_fd_sc_hd__and4b_1
*CAP
1 *4580:A2 6.65896e-05
2 *4649:A1 0
3 *4578:X 0.000562223
4 *535:12 6.65896e-05
5 *535:10 0.000562223
6 *4580:A2 *4580:B1 5.65874e-05
7 *4580:A2 *4649:B1 1.18135e-05
8 *4580:A2 *536:6 5.70419e-05
9 *535:10 *4649:C1 4.21594e-06
10 *535:10 *968:107 0
11 *4536:B *535:10 0.000143655
12 *4580:A1 *4580:A2 0.000196849
13 *4649:A2 *4580:A2 3.91386e-05
*RES
1 *4578:X *535:10 45.2914 
2 *535:10 *535:12 15 
3 *535:12 *4649:A1 23 
4 *535:12 *4580:A2 26.045 
*END

*D_NET *536 0.00142418
*CONN
*I *4580:B1 I *D sky130_fd_sc_hd__a21o_1
*I *4649:B1 I *D sky130_fd_sc_hd__a211o_1
*I *4579:X O *D sky130_fd_sc_hd__a21bo_1
*CAP
1 *4580:B1 9.23277e-05
2 *4649:B1 1.93566e-05
3 *4579:X 0.000173794
4 *536:6 0.000285478
5 *4580:B1 *604:6 0.000212168
6 *536:6 *604:6 0.000230604
7 *4580:A1 *4580:B1 1.76557e-05
8 *4580:A1 *536:6 1.22822e-05
9 *4580:A2 *4580:B1 5.65874e-05
10 *4580:A2 *4649:B1 1.18135e-05
11 *4580:A2 *536:6 5.70419e-05
12 *416:24 *536:6 0.000255074
*RES
1 *4579:X *536:6 29.3386 
2 *536:6 *4649:B1 23.4971 
3 *536:6 *4580:B1 26.0243 
*END

*D_NET *537 0.00204772
*CONN
*I *4581:B I *D sky130_fd_sc_hd__xnor2_1
*I *4614:A2 I *D sky130_fd_sc_hd__a21o_1
*I *4580:X O *D sky130_fd_sc_hd__a21o_1
*CAP
1 *4581:B 8.14421e-05
2 *4614:A2 0.000480551
3 *4580:X 9.82614e-05
4 *537:8 0.000660254
5 *4581:B *538:8 5.50049e-05
6 *4581:B *849:20 9.91798e-05
7 *4614:A2 *603:8 0.000223692
8 *4614:A2 *968:107 0.000206609
9 *537:8 *538:14 0
10 *537:8 *968:107 3.96156e-05
11 *4614:B1 *4614:A2 4.00259e-06
12 *4648:A1 *4614:A2 5.70419e-05
13 *532:8 *4614:A2 4.2062e-05
*RES
1 *4580:X *537:8 39.9057 
2 *537:8 *4614:A2 49.2686 
3 *537:8 *4581:B 40.0507 
*END

*D_NET *538 0.00120923
*CONN
*I *4582:B I *D sky130_fd_sc_hd__nand2_1
*I *4583:B I *D sky130_fd_sc_hd__xnor2_1
*I *4581:Y O *D sky130_fd_sc_hd__xnor2_1
*CAP
1 *4582:B 8.03672e-05
2 *4583:B 0
3 *4581:Y 0.000209236
4 *538:14 0.000191135
5 *538:8 0.000480738
6 *4582:B *849:20 6.70749e-05
7 *4582:B *849:24 7.53384e-06
8 *538:8 *849:20 0.000118143
9 *538:14 *4618:A2 0
10 *538:14 *542:10 0
11 *538:14 *968:107 0
12 *4581:B *538:8 5.50049e-05
13 *537:8 *538:14 0
*RES
1 *4581:Y *538:8 27.8057 
2 *538:8 *538:14 32.9621 
3 *538:14 *4583:B 23 
4 *538:8 *4582:B 25.0507 
*END

*D_NET *539 0.0018246
*CONN
*I *4619:A I *D sky130_fd_sc_hd__and3_1
*I *4618:A1 I *D sky130_fd_sc_hd__a21oi_2
*I *4582:Y O *D sky130_fd_sc_hd__nand2_1
*CAP
1 *4619:A 0.000219389
2 *4618:A1 2.14194e-05
3 *4582:Y 0.000100635
4 *539:6 0.000341443
5 *4618:A1 *4618:A2 5.90675e-06
6 *4618:A1 *4618:B1 0
7 *4619:A *4618:B1 5.41288e-05
8 *4619:A *4619:C 2.07744e-05
9 *4619:A *4621:B1 3.91386e-05
10 *4619:A *574:10 1.57571e-05
11 *4619:A *849:24 0.000488848
12 *4619:A *913:8 1.4345e-05
13 *539:6 *4618:A2 0.000148698
14 *539:6 *849:24 0.000354122
*RES
1 *4582:Y *539:6 26.9564 
2 *539:6 *4618:A1 23.4971 
3 *539:6 *4619:A 30.3329 
*END

*D_NET *540 0.00188742
*CONN
*I *4585:C1 I *D sky130_fd_sc_hd__a211o_1
*I *4586:A I *D sky130_fd_sc_hd__xnor2_1
*I *4583:Y O *D sky130_fd_sc_hd__xnor2_1
*CAP
1 *4585:C1 0
2 *4586:A 0.000248649
3 *4583:Y 0.000473125
4 *540:12 0.000248649
5 *540:10 0.000473125
6 *4586:A *4587:B 0
7 *4586:A *542:8 5.83407e-05
8 *4586:A *772:114 3.58358e-05
9 *540:10 *604:6 5.72217e-05
10 *540:10 *798:16 0
11 *540:10 *968:107 0.000198134
12 *4585:A1 *4586:A 8.28951e-05
13 *4585:B1 *540:10 1.14452e-05
*RES
1 *4583:Y *540:10 47.5907 
2 *540:10 *540:12 15 
3 *540:12 *4586:A 28.4271 
4 *540:12 *4585:C1 23 
*END

*D_NET *541 0.000670729
*CONN
*I *4586:B I *D sky130_fd_sc_hd__xnor2_1
*I *4584:X O *D sky130_fd_sc_hd__a21o_1
*CAP
1 *4586:B 0
2 *4584:X 0.000335365
3 *541:10 0.000335365
4 *541:10 *542:10 0
5 *4585:A2 *541:10 0
*RES
1 *4584:X *541:10 42.4329 
2 *541:10 *4586:B 38 
*END

*D_NET *542 0.00411899
*CONN
*I *4619:B I *D sky130_fd_sc_hd__and3_1
*I *4618:A2 I *D sky130_fd_sc_hd__a21oi_2
*I *4585:X O *D sky130_fd_sc_hd__a211o_1
*CAP
1 *4619:B 0.000441916
2 *4618:A2 0.000258112
3 *4585:X 8.15914e-05
4 *542:10 0.00127816
5 *542:8 0.00065972
6 *4618:A2 *4618:B1 0
7 *4618:A2 *604:10 7.76364e-06
8 *4618:A2 *798:29 8.62783e-05
9 *4619:B *849:24 0.000658443
10 *542:8 *772:114 0.000269775
11 *542:10 *544:10 0
12 *542:10 *798:16 0
13 *542:10 *798:29 0.000164291
14 *542:10 *1012:23 0
15 *542:10 *1012:36 0
16 *4585:A2 *542:10 0
17 *4586:A *542:8 5.83407e-05
18 *4618:A1 *4618:A2 5.90675e-06
19 *538:14 *4618:A2 0
20 *538:14 *542:10 0
21 *539:6 *4618:A2 0.000148698
22 *541:10 *542:10 0
*RES
1 *4585:X *542:8 41.0036 
2 *542:8 *542:10 11.0614 
3 *542:10 *4618:A2 43.0543 
4 *542:10 *4619:B 45.2914 
*END

*D_NET *543 0.000415564
*CONN
*I *4587:B I *D sky130_fd_sc_hd__nand2_1
*I *4586:Y O *D sky130_fd_sc_hd__xnor2_1
*CAP
1 *4587:B 0.000129425
2 *4586:Y 0.000129425
3 *4587:B *544:10 2.93845e-05
4 *4587:B *772:114 7.06229e-05
5 *4587:B *1012:23 5.67058e-05
6 *4586:A *4587:B 0
*RES
1 *4586:Y *4587:B 49.3764 
*END

*D_NET *544 0.000410679
*CONN
*I *4588:C1 I *D sky130_fd_sc_hd__o211a_1
*I *4587:Y O *D sky130_fd_sc_hd__nand2_1
*CAP
1 *4588:C1 0
2 *4587:Y 0.000181819
3 *544:10 0.000181819
4 *544:10 *1012:23 1.76557e-05
5 *544:10 *1012:36 0
6 *4587:B *544:10 2.93845e-05
7 *542:10 *544:10 0
*RES
1 *4587:Y *544:10 41.0036 
2 *544:10 *4588:C1 38 
*END

*D_NET *545 0.0066373
*CONN
*I *4643:A1 I *D sky130_fd_sc_hd__a21o_1
*I *4610:A I *D sky130_fd_sc_hd__xnor2_1
*I *4589:X O *D sky130_fd_sc_hd__a21o_1
*CAP
1 *4643:A1 0.000129122
2 *4610:A 2.34823e-05
3 *4589:X 0.000561594
4 *545:16 0.00187229
5 *545:12 0.00228128
6 *4610:A *4643:A2 0
7 *4643:A1 *4643:A2 0.000131304
8 *545:16 *4609:A 2.64616e-05
9 *545:16 *4643:A2 1.22822e-05
10 *545:16 *563:8 0.000142187
11 *545:16 *563:21 4.56219e-05
12 *545:16 *565:6 0.000100415
13 *4553:A *545:12 0.000145962
14 *4607:A1 *545:16 2.9938e-05
15 *4607:B1 *545:16 0.000187129
16 *478:12 *545:12 0.000396305
17 *478:12 *545:16 1.40958e-05
18 *520:23 *545:16 0.000313524
19 *520:36 *545:16 2.4485e-05
20 *521:6 *545:16 0.000199818
*RES
1 *4589:X *545:12 34.2893 
2 *545:12 *545:16 26.3693 
3 *545:16 *4610:A 23.4971 
4 *545:16 *4643:A1 26.0036 
*END

*D_NET *546 0.00577142
*CONN
*I *4594:A I *D sky130_fd_sc_hd__xor2_1
*I *4623:A1 I *D sky130_fd_sc_hd__a21bo_1
*I *4590:Y O *D sky130_fd_sc_hd__nand2_1
*CAP
1 *4594:A 0
2 *4623:A1 0.000187035
3 *4590:Y 0.00150629
4 *546:10 0.000332738
5 *546:6 0.00165199
6 *4623:A1 *4623:A2 0.000346188
7 *4623:A1 *549:12 5.50106e-05
8 *4623:A1 *550:10 0.000230604
9 *4623:A1 *796:25 6.38845e-05
10 *546:6 *997:136 0.000609617
11 *546:6 *998:92 9.41704e-05
12 *546:6 *998:98 2.02872e-05
13 *546:10 *551:8 0
14 *546:10 *796:25 0.000263098
15 *4590:A *546:6 2.93845e-05
16 *506:6 *546:6 0.000185428
17 *506:23 *546:6 0.000129524
18 *519:12 *546:6 6.61718e-05
19 *519:20 *546:10 0
*RES
1 *4590:Y *546:6 44.5843 
2 *546:6 *546:10 18.6664 
3 *546:10 *4623:A1 43.9243 
4 *546:10 *4594:A 38 
*END

*D_NET *547 0.00236592
*CONN
*I *4673:A1 I *D sky130_fd_sc_hd__a21oi_2
*I *4636:A I *D sky130_fd_sc_hd__xnor2_1
*I *4593:A I *D sky130_fd_sc_hd__nor2_1
*I *4591:X O *D sky130_fd_sc_hd__and4b_1
*CAP
1 *4673:A1 0
2 *4636:A 0.000198036
3 *4593:A 0
4 *4591:X 0.000141743
5 *547:27 0.000760974
6 *547:14 0.000704681
7 *4636:A *4636:B 0.000151601
8 *4636:A *627:12 1.32939e-05
9 *547:14 *556:12 0.000155722
10 *547:27 *556:12 0.000202862
11 *547:27 *589:8 0
12 *547:27 *590:8 3.70094e-05
13 *547:27 *796:25 0
*RES
1 *4591:X *547:14 27.5157 
2 *547:14 *4593:A 23 
3 *547:14 *547:27 41.6414 
4 *547:27 *4636:A 27.4743 
5 *547:27 *4673:A1 23 
*END

*D_NET *548 0.000608164
*CONN
*I *4593:B I *D sky130_fd_sc_hd__nor2_1
*I *4592:X O *D sky130_fd_sc_hd__o2bb2a_1
*CAP
1 *4593:B 0
2 *4592:X 0.000304082
3 *548:10 0.000304082
4 *548:10 *796:25 0
5 *548:10 *975:74 0
*RES
1 *4592:X *548:10 42.4329 
2 *548:10 *4593:B 38 
*END

*D_NET *549 0.00142343
*CONN
*I *4623:A2 I *D sky130_fd_sc_hd__a21bo_1
*I *4594:B I *D sky130_fd_sc_hd__xor2_1
*I *4593:Y O *D sky130_fd_sc_hd__nor2_1
*CAP
1 *4623:A2 0.000130661
2 *4594:B 0
3 *4593:Y 0.000136333
4 *549:12 0.000309132
5 *549:8 0.000314804
6 *4623:A2 *4623:B1_N 0.00010655
7 *4623:A2 *550:10 2.4754e-05
8 *549:8 *4549:D 0
9 *549:8 *796:25 0
10 *4623:A1 *4623:A2 0.000346188
11 *4623:A1 *549:12 5.50106e-05
*RES
1 *4593:Y *549:8 40.2579 
2 *549:8 *549:12 18.0036 
3 *549:12 *4594:B 23 
4 *549:12 *4623:A2 27.93 
*END

*D_NET *550 0.00127136
*CONN
*I *4596:B I *D sky130_fd_sc_hd__xnor2_1
*I *4595:B I *D sky130_fd_sc_hd__nand2_1
*I *4594:X O *D sky130_fd_sc_hd__xor2_1
*CAP
1 *4596:B 7.82607e-05
2 *4595:B 0
3 *4594:X 0.000327878
4 *550:12 7.82607e-05
5 *550:10 0.000327878
6 *550:10 *551:8 4.08641e-05
7 *4596:A *4596:B 0.000153375
8 *4623:A1 *550:10 0.000230604
9 *4623:A2 *550:10 2.4754e-05
10 *519:20 *550:10 9.48381e-06
*RES
1 *4594:X *550:10 44.7943 
2 *550:10 *550:12 15 
3 *550:12 *4595:B 23 
4 *550:12 *4596:B 25.0714 
*END

*D_NET *551 0.000520299
*CONN
*I *4623:B1_N I *D sky130_fd_sc_hd__a21bo_1
*I *4595:Y O *D sky130_fd_sc_hd__nand2_1
*CAP
1 *4623:B1_N 0.000124496
2 *4595:Y 6.19464e-05
3 *551:8 0.000186443
4 *4623:A2 *4623:B1_N 0.00010655
5 *546:10 *551:8 0
6 *550:10 *551:8 4.08641e-05
*RES
1 *4595:Y *551:8 39.2014 
2 *551:8 *4623:B1_N 40.0507 
*END

*D_NET *552 0.00449767
*CONN
*I *4606:A I *D sky130_fd_sc_hd__xor2_1
*I *4605:A I *D sky130_fd_sc_hd__or2_1
*I *4596:Y O *D sky130_fd_sc_hd__xnor2_1
*CAP
1 *4606:A 9.13661e-05
2 *4605:A 0.000106653
3 *4596:Y 0.00162539
4 *552:8 0.000198019
5 *552:6 0.00162539
6 *4605:A *4605:B 0.000143655
7 *4605:A *559:8 0.000228909
8 *4605:A *560:16 8.94487e-05
9 *4606:A *560:16 0.000131735
10 *552:6 *4603:A 9.24795e-06
11 *552:6 *4603:B 0.000148698
12 *552:6 *559:8 9.91701e-05
13 *11:9 *4606:A 0
*RES
1 *4596:Y *552:6 44.5843 
2 *552:6 *552:8 15 
3 *552:8 *4605:A 41.7286 
4 *552:8 *4606:A 40.2579 
*END

*D_NET *553 0.00314117
*CONN
*I *4660:A2 I *D sky130_fd_sc_hd__a21oi_2
*I *4630:A3 I *D sky130_fd_sc_hd__a31o_1
*I *4598:B I *D sky130_fd_sc_hd__and2_1
*I *4624:B2 I *D sky130_fd_sc_hd__a22oi_1
*I *4597:X O *D sky130_fd_sc_hd__o21a_1
*CAP
1 *4660:A2 0
2 *4630:A3 0
3 *4598:B 0.000203415
4 *4624:B2 0
5 *4597:X 0
6 *553:36 0.000262399
7 *553:26 0.000428237
8 *553:8 0.000326538
9 *553:4 0.000288962
10 *4598:B *4625:A2 0
11 *4598:B *981:54 0
12 *4598:B *984:42 0
13 *4598:B *984:46 2.8936e-05
14 *4598:B *992:79 9.21347e-06
15 *553:8 *981:54 0
16 *553:8 *992:79 5.0135e-05
17 *553:26 *580:18 0.000530622
18 *553:26 *981:54 0.000185434
19 *553:26 *992:85 0.000533224
20 *553:36 *4557:C 0
21 *553:36 *4660:A1 7.91596e-05
22 *553:36 *978:73 9.67842e-05
23 *514:21 *553:36 4.34973e-05
24 *515:19 *4598:B 7.461e-05
*RES
1 *4597:X *553:4 23 
2 *553:4 *553:8 17.2579 
3 *553:8 *4624:B2 38 
4 *553:8 *4598:B 41.6664 
5 *553:4 *553:26 8.24429 
6 *553:26 *553:36 34.8057 
7 *553:36 *4630:A3 23 
8 *553:26 *4660:A2 23 
*END

*D_NET *554 0.00213249
*CONN
*I *4600:A I *D sky130_fd_sc_hd__xor2_1
*I *4625:A2 I *D sky130_fd_sc_hd__a21oi_2
*I *4598:X O *D sky130_fd_sc_hd__and2_1
*CAP
1 *4600:A 0.000125411
2 *4625:A2 0.00017081
3 *4598:X 0.00025756
4 *554:8 0.000553781
5 *4600:A *792:29 0.000372421
6 *4600:A *983:60 0.000192671
7 *4625:A2 *792:29 0.000118174
8 *4625:A2 *978:60 0
9 *4625:A2 *978:73 0.00010018
10 *4625:A2 *983:54 5.41288e-05
11 *4625:A2 *983:60 0.000112169
12 *554:8 *792:23 7.51868e-05
13 *4598:B *4625:A2 0
*RES
1 *4598:X *554:8 41.48 
2 *554:8 *4625:A2 42.7643 
3 *554:8 *4600:A 43.075 
*END

*D_NET *555 0.000378841
*CONN
*I *4600:B I *D sky130_fd_sc_hd__xor2_1
*I *4599:Y O *D sky130_fd_sc_hd__nand2_1
*CAP
1 *4600:B 0.000115777
2 *4599:Y 0.000115777
3 *4600:B *995:27 9.76261e-05
4 *4600:B *1000:31 4.9662e-05
*RES
1 *4599:Y *4600:B 48.5271 
*END

*D_NET *556 0.00636558
*CONN
*I *4627:A2 I *D sky130_fd_sc_hd__o21ai_1
*I *4601:B I *D sky130_fd_sc_hd__xnor2_1
*I *4600:X O *D sky130_fd_sc_hd__xor2_1
*CAP
1 *4627:A2 8.72143e-05
2 *4601:B 0
3 *4600:X 6.46957e-05
4 *556:18 0.000170638
5 *556:12 0.00249064
6 *556:8 0.00247191
7 *4627:A2 *557:10 1.76557e-05
8 *4627:A2 *578:6 0.000313255
9 *556:8 *978:60 0
10 *556:8 *983:60 3.62219e-05
11 *556:8 *1000:37 1.01436e-05
12 *556:12 *4591:A_N 2.64616e-05
13 *556:12 *4591:B 7.89586e-06
14 *556:12 *4591:C 1.21972e-05
15 *556:12 *4591:D 3.61111e-05
16 *4601:A *4627:A2 9.84794e-05
17 *478:22 *556:18 6.68793e-05
18 *511:38 *4627:A2 5.67058e-05
19 *512:12 *556:18 3.98859e-05
20 *547:14 *556:12 0.000155722
21 *547:27 *556:12 0.000202862
*RES
1 *4600:X *556:8 39.2014 
2 *556:8 *556:12 47.0657 
3 *556:12 *556:18 31.9057 
4 *556:18 *4601:B 23 
5 *556:18 *4627:A2 26.48 
*END

*D_NET *557 0.00207781
*CONN
*I *4603:A I *D sky130_fd_sc_hd__nand2_1
*I *4604:A I *D sky130_fd_sc_hd__xnor2_1
*I *4601:Y O *D sky130_fd_sc_hd__xnor2_1
*CAP
1 *4603:A 0.000139495
2 *4604:A 0
3 *4601:Y 0.000522237
4 *557:12 0.000139495
5 *557:10 0.000522237
6 *4603:A *4603:B 0.000211529
7 *4603:A *559:8 3.22879e-05
8 *4603:A *560:10 0.00015507
9 *557:10 *578:6 0.000159527
10 *4627:A2 *557:10 1.76557e-05
11 *11:9 *557:10 0.000139647
12 *479:46 *557:10 0
13 *511:38 *557:10 2.93845e-05
14 *552:6 *4603:A 9.24795e-06
*RES
1 *4601:Y *557:10 46.7207 
2 *557:10 *557:12 15 
3 *557:12 *4604:A 23 
4 *557:12 *4603:A 27.6193 
*END

*D_NET *558 0.00186033
*CONN
*I *4603:B I *D sky130_fd_sc_hd__nand2_1
*I *4604:B I *D sky130_fd_sc_hd__xnor2_1
*I *4602:Y O *D sky130_fd_sc_hd__o21ai_1
*CAP
1 *4603:B 9.79881e-05
2 *4604:B 0
3 *4602:Y 0.00057857
4 *558:12 9.79881e-05
5 *558:10 0.00057857
6 *4603:A *4603:B 0.000211529
7 *11:9 *558:10 6.4393e-05
8 *479:46 *558:10 7.88828e-05
9 *511:38 *558:10 3.7122e-06
10 *552:6 *4603:B 0.000148698
*RES
1 *4602:Y *558:10 46.2443 
2 *558:10 *558:12 15 
3 *558:12 *4604:B 23 
4 *558:12 *4603:B 26.5007 
*END

*D_NET *559 0.00179037
*CONN
*I *4640:A I *D sky130_fd_sc_hd__and3_1
*I *4639:A1 I *D sky130_fd_sc_hd__a21oi_1
*I *4603:Y O *D sky130_fd_sc_hd__nand2_1
*CAP
1 *4640:A 0
2 *4639:A1 0
3 *4603:Y 0.000354814
4 *559:21 0.000107724
5 *559:8 0.000462538
6 *559:8 *4605:B 2.18506e-05
7 *559:8 *560:10 4.1657e-05
8 *559:8 *561:6 0.000269775
9 *559:8 *594:10 5.90675e-06
10 *559:21 *4639:B1 6.67764e-05
11 *559:21 *561:14 8.51329e-05
12 *559:21 *593:10 6.07611e-06
13 *559:21 *651:14 7.75329e-06
14 *4603:A *559:8 3.22879e-05
15 *4605:A *559:8 0.000228909
16 *552:6 *559:8 9.91701e-05
*RES
1 *4603:Y *559:8 32.2179 
2 *559:8 *4639:A1 23 
3 *559:8 *559:21 32.8793 
4 *559:21 *4640:A 23 
*END

*D_NET *560 0.00138185
*CONN
*I *4605:B I *D sky130_fd_sc_hd__or2_1
*I *4606:B I *D sky130_fd_sc_hd__xor2_1
*I *4604:Y O *D sky130_fd_sc_hd__xnor2_1
*CAP
1 *4605:B 8.2765e-05
2 *4606:B 0
3 *4604:Y 0.000165068
4 *560:16 0.000151385
5 *560:10 0.000399218
6 *4603:A *560:10 0.00015507
7 *4605:A *4605:B 0.000143655
8 *4605:A *560:16 8.94487e-05
9 *4606:A *560:16 0.000131735
10 *11:9 *560:16 0
11 *559:8 *4605:B 2.18506e-05
12 *559:8 *560:10 4.1657e-05
*RES
1 *4604:Y *560:10 26.1693 
2 *560:10 *560:16 33.3143 
3 *560:16 *4606:B 23 
4 *560:10 *4605:B 25.0507 
*END

*D_NET *561 0.00143267
*CONN
*I *4639:A2 I *D sky130_fd_sc_hd__a21oi_1
*I *4640:B I *D sky130_fd_sc_hd__and3_1
*I *4605:X O *D sky130_fd_sc_hd__or2_1
*CAP
1 *4639:A2 0
2 *4640:B 0
3 *4605:X 0.000123187
4 *561:14 0.000253498
5 *561:6 0.000376685
6 *561:14 *578:6 0.000183733
7 *561:14 *593:10 0
8 *561:14 *650:10 0.000140661
9 *559:8 *561:6 0.000269775
10 *559:21 *561:14 8.51329e-05
*RES
1 *4605:X *561:6 26.0036 
2 *561:6 *561:14 35.7171 
3 *561:14 *4640:B 23 
4 *561:6 *4639:A2 23 
*END

*D_NET *562 0.00191696
*CONN
*I *4609:A I *D sky130_fd_sc_hd__xor2_1
*I *4608:A I *D sky130_fd_sc_hd__and2_1
*I *4606:X O *D sky130_fd_sc_hd__xor2_1
*CAP
1 *4609:A 0.000126893
2 *4608:A 0
3 *4606:X 0.00043559
4 *562:10 0.000562483
5 *4609:A *563:21 0.000139112
6 *4609:A *650:10 0.000185095
7 *4609:A *651:14 0
8 *562:10 *650:10 0.000441326
9 *562:10 *651:14 0
10 *545:16 *4609:A 2.64616e-05
*RES
1 *4606:X *562:10 47.7357 
2 *562:10 *4608:A 38 
3 *562:10 *4609:A 41.7286 
*END

*D_NET *563 0.00141326
*CONN
*I *4608:B I *D sky130_fd_sc_hd__and2_1
*I *4609:B I *D sky130_fd_sc_hd__xor2_1
*I *4607:Y O *D sky130_fd_sc_hd__o21ai_1
*CAP
1 *4608:B 0
2 *4609:B 0
3 *4607:Y 0.000287447
4 *563:21 0.000236974
5 *563:8 0.000524421
6 *563:21 *650:10 1.4471e-05
7 *563:21 *651:14 0
8 *4607:B1 *563:8 2.30292e-05
9 *4609:A *563:21 0.000139112
10 *545:16 *563:8 0.000142187
11 *545:16 *563:21 4.56219e-05
*RES
1 *4607:Y *563:8 29.3593 
2 *563:8 *4609:B 23 
3 *563:8 *563:21 35.0129 
4 *563:21 *4608:B 23 
*END

*D_NET *564 0.00130791
*CONN
*I *4643:B1 I *D sky130_fd_sc_hd__a21o_1
*I *4608:X O *D sky130_fd_sc_hd__and2_1
*CAP
1 *4643:B1 0
2 *4608:X 0.000653953
3 *564:10 0.000653953
4 *564:10 *4645:A 0
5 *564:10 *670:10 0
*RES
1 *4608:X *564:10 46.7207 
2 *564:10 *4643:B1 38 
*END

*D_NET *565 0.000803643
*CONN
*I *4643:A2 I *D sky130_fd_sc_hd__a21o_1
*I *4610:B I *D sky130_fd_sc_hd__xnor2_1
*I *4609:X O *D sky130_fd_sc_hd__xor2_1
*CAP
1 *4643:A2 0.000132549
2 *4610:B 0
3 *4609:X 0.000147272
4 *565:6 0.000279821
5 *4610:A *4643:A2 0
6 *4643:A1 *4643:A2 0.000131304
7 *545:16 *4643:A2 1.22822e-05
8 *545:16 *565:6 0.000100415
*RES
1 *4609:X *565:6 26.0036 
2 *565:6 *4610:B 23 
3 *565:6 *4643:A2 26.5007 
*END

*D_NET *566 0.00187252
*CONN
*I *4612:C I *D sky130_fd_sc_hd__nand3_1
*I *4611:B1 I *D sky130_fd_sc_hd__a21oi_1
*I *4610:Y O *D sky130_fd_sc_hd__xnor2_1
*CAP
1 *4612:C 1.49804e-05
2 *4611:B1 0
3 *4610:Y 0
4 *566:10 0.000865185
5 *566:6 0.000850204
6 *566:10 *640:16 0
7 *566:10 *670:10 0
8 *4612:A *4612:C 5.50106e-05
9 *4612:B *4612:C 5.50106e-05
10 *529:10 *566:10 3.21327e-05
*RES
1 *4610:Y *566:6 38 
2 *566:6 *566:10 30.9914 
3 *566:10 *4611:B1 23 
4 *566:10 *4612:C 23.6214 
*END

*D_NET *567 0.00198178
*CONN
*I *4648:B1 I *D sky130_fd_sc_hd__a21o_1
*I *4613:A_N I *D sky130_fd_sc_hd__nand2b_1
*I *4647:B1 I *D sky130_fd_sc_hd__a21o_1
*I *4611:Y O *D sky130_fd_sc_hd__a21oi_1
*CAP
1 *4648:B1 0.000167883
2 *4613:A_N 0
3 *4647:B1 0
4 *4611:Y 0.00042787
5 *567:19 0.000313904
6 *567:10 0.000573891
7 *4648:B1 *568:40 0.000122386
8 *4648:B1 *968:107 0
9 *567:10 *568:10 0.000198085
10 *567:10 *568:27 4.21594e-06
11 *567:10 *602:10 0
12 *567:19 *568:27 4.48731e-05
13 *567:19 *568:40 6.07611e-06
14 *567:19 *968:107 0
15 *4612:A *567:10 9.24795e-06
16 *4612:B *567:10 5.83407e-05
17 *4648:A1 *4648:B1 5.50049e-05
*RES
1 *4611:Y *567:10 45.1671 
2 *567:10 *4647:B1 38 
3 *567:10 *567:19 2.61 
4 *567:19 *4613:A_N 38 
5 *567:19 *4648:B1 41.9357 
*END

*D_NET *568 0.00169632
*CONN
*I *4648:A2 I *D sky130_fd_sc_hd__a21o_1
*I *4613:B I *D sky130_fd_sc_hd__nand2b_1
*I *4647:A2 I *D sky130_fd_sc_hd__a21o_1
*I *4612:Y O *D sky130_fd_sc_hd__nand3_1
*CAP
1 *4648:A2 0
2 *4613:B 0
3 *4647:A2 0
4 *4612:Y 0.000175825
5 *568:40 0.00019411
6 *568:27 0.000481832
7 *568:10 0.000463547
8 *568:27 *968:107 0
9 *568:40 *570:10 0
10 *568:40 *604:10 0
11 *4612:A *568:10 5.37348e-06
12 *4648:B1 *568:40 0.000122386
13 *567:10 *568:10 0.000198085
14 *567:10 *568:27 4.21594e-06
15 *567:19 *568:27 4.48731e-05
16 *567:19 *568:40 6.07611e-06
*RES
1 *4612:Y *568:10 42.1843 
2 *568:10 *4647:A2 38 
3 *568:10 *568:27 19.9559 
4 *568:27 *4613:B 23 
5 *568:27 *568:40 33.9305 
6 *568:40 *4648:A2 23 
*END

*D_NET *569 0.000169491
*CONN
*I *4615:A I *D sky130_fd_sc_hd__xnor2_1
*I *4613:Y O *D sky130_fd_sc_hd__nand2b_1
*CAP
1 *4615:A 8.47456e-05
2 *4613:Y 8.47456e-05
*RES
1 *4613:Y *4615:A 47.5743 
*END

*D_NET *570 0.00102696
*CONN
*I *4615:B I *D sky130_fd_sc_hd__xnor2_1
*I *4614:X O *D sky130_fd_sc_hd__a21o_1
*CAP
1 *4615:B 0
2 *4614:X 0.00039948
3 *570:10 0.00039948
4 *570:10 *604:10 0
5 *4648:A1 *570:10 0.000228001
6 *568:40 *570:10 0
*RES
1 *4614:X *570:10 45.1671 
2 *570:10 *4615:B 38 
*END

*D_NET *571 0.00138934
*CONN
*I *4616:B I *D sky130_fd_sc_hd__and2_1
*I *4617:B I *D sky130_fd_sc_hd__xnor2_1
*I *4615:Y O *D sky130_fd_sc_hd__xnor2_1
*CAP
1 *4616:B 0.000161987
2 *4617:B 0
3 *4615:Y 0.000390211
4 *571:12 0.000161987
5 *571:10 0.000390211
6 *4616:B *4617:A 0.000184759
7 *4616:B *799:14 0.00010018
8 *571:10 *604:10 0
*RES
1 *4615:Y *571:10 44.2143 
2 *571:10 *571:12 15 
3 *571:12 *4617:B 23 
4 *571:12 *4616:B 27.4536 
*END

*D_NET *572 0.00193633
*CONN
*I *4622:A I *D sky130_fd_sc_hd__nor2_1
*I *4707:A1 I *D sky130_fd_sc_hd__o21ai_4
*I *4616:X O *D sky130_fd_sc_hd__and2_1
*CAP
1 *4622:A 3.41077e-05
2 *4707:A1 0
3 *4616:X 0.000384279
4 *572:12 9.47627e-05
5 *572:6 0.000513149
6 *572:6 *799:14 0.000747994
7 *572:12 *654:14 9.64022e-05
8 *572:12 *799:8 1.19796e-05
9 *572:12 *799:14 5.3656e-05
*RES
1 *4616:X *572:6 32.6736 
2 *572:6 *572:12 32.61 
3 *572:12 *4707:A1 23 
4 *572:6 *4622:A 23.6214 
*END

*D_NET *573 0.00121155
*CONN
*I *4619:C I *D sky130_fd_sc_hd__and3_1
*I *4618:B1 I *D sky130_fd_sc_hd__a21oi_2
*I *4617:Y O *D sky130_fd_sc_hd__xnor2_1
*CAP
1 *4619:C 2.19325e-05
2 *4618:B1 8.55353e-05
3 *4617:Y 0.000343342
4 *573:10 0.000107468
5 *573:8 0.000343342
6 *4618:B1 *574:10 1.24376e-05
7 *573:8 *4620:B1 0
8 *573:8 *575:8 0.000140958
9 *573:8 *836:76 8.16356e-05
10 *4618:A1 *4618:B1 0
11 *4618:A2 *4618:B1 0
12 *4619:A *4618:B1 5.41288e-05
13 *4619:A *4619:C 2.07744e-05
*RES
1 *4617:Y *573:8 45.1879 
2 *573:8 *573:10 15 
3 *573:10 *4618:B1 24.595 
4 *573:10 *4619:C 23.4557 
*END

*D_NET *574 0.00416679
*CONN
*I *4707:A2 I *D sky130_fd_sc_hd__o21ai_4
*I *4622:B I *D sky130_fd_sc_hd__nor2_1
*I *4620:A1 I *D sky130_fd_sc_hd__o21ai_1
*I *4618:Y O *D sky130_fd_sc_hd__a21oi_2
*CAP
1 *4707:A2 0
2 *4622:B 0.00014639
3 *4620:A1 0
4 *4618:Y 0.000156417
5 *574:25 0.000909081
6 *574:12 0.000762692
7 *574:10 0.000156417
8 *4622:B *577:10 1.94812e-05
9 *4622:B *659:10 0
10 *4622:B *662:14 0.000194327
11 *574:10 *575:8 0.000138718
12 *574:10 *604:10 0
13 *574:25 *4620:B1 0.000177899
14 *574:25 *576:14 9.75779e-05
15 *574:25 *659:10 0
16 *574:25 *660:8 0
17 *574:25 *662:14 0.000266259
18 *574:25 *849:43 0.000911471
19 *574:25 *1011:8 0.000185428
20 *4618:B1 *574:10 1.24376e-05
21 *4619:A *574:10 1.57571e-05
22 *4897:D *574:25 1.64354e-05
*RES
1 *4618:Y *574:10 40.5271 
2 *574:10 *574:12 15 
3 *574:12 *4620:A1 23 
4 *574:12 *574:25 35.0307 
5 *574:25 *4622:B 41.2314 
6 *574:25 *4707:A2 38 
*END

*D_NET *575 0.000385282
*CONN
*I *4620:A2 I *D sky130_fd_sc_hd__o21ai_1
*I *4619:X O *D sky130_fd_sc_hd__and3_1
*CAP
1 *4620:A2 0
2 *4619:X 5.28031e-05
3 *575:8 5.28031e-05
4 *573:8 *575:8 0.000140958
5 *574:10 *575:8 0.000138718
*RES
1 *4619:X *575:8 39.9057 
2 *575:8 *4620:A2 38 
*END

*D_NET *576 0.000664291
*CONN
*I *4621:C1 I *D sky130_fd_sc_hd__o211a_1
*I *4620:Y O *D sky130_fd_sc_hd__o21ai_1
*CAP
1 *4621:C1 0
2 *4620:Y 0.000228716
3 *576:14 0.000228716
4 *576:14 *836:76 0.000109281
5 *576:14 *1011:21 0
6 *574:25 *576:14 9.75779e-05
*RES
1 *4620:Y *576:14 41.77 
2 *576:14 *4621:C1 38 
*END

*D_NET *577 0.00216852
*CONN
*I *4682:A1 I *D sky130_fd_sc_hd__o21bai_1
*I *4654:A I *D sky130_fd_sc_hd__xnor2_1
*I *4622:Y O *D sky130_fd_sc_hd__nor2_1
*CAP
1 *4682:A1 0
2 *4654:A 0.000413456
3 *4622:Y 0.00040694
4 *577:10 0.000820395
5 *4654:A *4654:B 5.50106e-05
6 *4654:A *608:10 0.000327255
7 *4654:A *800:27 2.4754e-05
8 *4654:A *800:42 1.02387e-05
9 *577:10 *636:8 5.26101e-05
10 *577:10 *659:10 3.83778e-05
11 *577:10 *662:14 0
12 *4622:B *577:10 1.94812e-05
*RES
1 *4622:Y *577:10 44.7736 
2 *577:10 *4654:A 48.0464 
3 *577:10 *4682:A1 38 
*END

*D_NET *578 0.0055844
*CONN
*I *4675:A1 I *D sky130_fd_sc_hd__a21oi_1
*I *4642:A I *D sky130_fd_sc_hd__xnor2_1
*I *4623:X O *D sky130_fd_sc_hd__a21bo_1
*CAP
1 *4675:A1 6.85428e-05
2 *4642:A 0.000154146
3 *4623:X 0
4 *578:10 0.00036884
5 *578:6 0.00216288
6 *578:4 0.00201673
7 *4642:A *4642:B 6.6621e-05
8 *4642:A *596:8 6.66353e-05
9 *4642:A *629:8 1.76557e-05
10 *4675:A1 *670:10 0
11 *578:6 *4640:C 5.83345e-06
12 *578:10 *670:10 0
13 *4627:A2 *578:6 0.000313255
14 *557:10 *578:6 0.000159527
15 *561:14 *578:6 0.000183733
*RES
1 *4623:X *578:4 23 
2 *578:4 *578:6 35.8771 
3 *578:6 *578:10 17.61 
4 *578:10 *4642:A 41.19 
5 *578:10 *4675:A1 38.8493 
*END

*D_NET *579 0.000120432
*CONN
*I *4625:B1 I *D sky130_fd_sc_hd__a21oi_2
*I *4624:Y O *D sky130_fd_sc_hd__a22oi_1
*CAP
1 *4625:B1 1.80182e-05
2 *4624:Y 1.80182e-05
3 *4625:B1 *4624:A1 5.50106e-05
4 *4625:B1 *983:54 2.93845e-05
*RES
1 *4624:Y *4625:B1 46.6214 
*END

*D_NET *580 0.00683699
*CONN
*I *4658:C I *D sky130_fd_sc_hd__nor3_1
*I *4657:B I *D sky130_fd_sc_hd__and2_1
*I *4626:B I *D sky130_fd_sc_hd__xor2_1
*I *4625:Y O *D sky130_fd_sc_hd__a21oi_2
*CAP
1 *4658:C 4.7708e-05
2 *4657:B 0
3 *4626:B 0
4 *4625:Y 6.90544e-05
5 *580:35 9.76326e-05
6 *580:26 7.82129e-05
7 *580:20 0.00110789
8 *580:18 0.00180228
9 *580:8 0.000891583
10 *4658:C *611:10 5.67058e-05
11 *580:8 *4557:C 0
12 *580:8 *981:54 0.000114092
13 *580:18 *4631:A1_N 5.46366e-05
14 *580:18 *4633:A 2.88979e-05
15 *580:18 *4633:B 0.000174116
16 *580:18 *588:6 3.45438e-06
17 *580:18 *614:8 9.00922e-05
18 *580:18 *994:69 0.000648011
19 *580:18 *994:80 4.08664e-05
20 *580:20 *4634:B 0.000316527
21 *580:20 *588:6 0.000163978
22 *4631:B2 *580:18 9.67842e-05
23 *4658:A *4658:C 2.4754e-05
24 *4658:A *580:20 1.76557e-05
25 *4658:A *580:35 1.8189e-05
26 *4658:B *4658:C 9.84851e-05
27 *4658:B *580:26 8.51432e-05
28 *478:22 *580:20 9.84851e-05
29 *478:22 *580:26 6.63801e-05
30 *512:12 *580:26 1.47563e-05
31 *553:26 *580:18 0.000530622
*RES
1 *4625:Y *580:8 39.5536 
2 *580:8 *580:18 34.1504 
3 *580:18 *580:20 18.4875 
4 *580:20 *580:26 32.61 
5 *580:26 *4626:B 23 
6 *580:20 *580:35 1.11857 
7 *580:35 *4657:B 23 
8 *580:35 *4658:C 24.5743 
*END

*D_NET *581 0.0017124
*CONN
*I *4629:A I *D sky130_fd_sc_hd__xnor2_1
*I *4628:A I *D sky130_fd_sc_hd__and2_1
*I *4626:X O *D sky130_fd_sc_hd__xor2_1
*CAP
1 *4629:A 0
2 *4628:A 0
3 *4626:X 0.000195343
4 *581:19 0.00020196
5 *581:6 0.000397304
6 *581:6 *591:6 0.0005784
7 *581:19 *582:18 0.000188916
8 *581:19 *584:14 0
9 *581:19 *591:6 0.000136738
10 *11:9 *581:19 1.37349e-05
*RES
1 *4626:X *581:6 29.3386 
2 *581:6 *4628:A 23 
3 *581:6 *581:19 34.5364 
4 *581:19 *4629:A 23 
*END

*D_NET *582 0.00185993
*CONN
*I *4629:B I *D sky130_fd_sc_hd__xnor2_1
*I *4628:B I *D sky130_fd_sc_hd__and2_1
*I *4627:Y O *D sky130_fd_sc_hd__o21ai_1
*CAP
1 *4629:B 0
2 *4628:B 0
3 *4627:Y 0.000266238
4 *582:18 9.27381e-05
5 *582:12 0.00046138
6 *582:8 0.000634879
7 *11:9 *582:18 0.000215782
8 *512:12 *582:8 0
9 *581:19 *582:18 0.000188916
*RES
1 *4627:Y *582:8 43.075 
2 *582:8 *582:12 21.3386 
3 *582:12 *582:18 32.9621 
4 *582:18 *4628:B 23 
5 *582:12 *4629:B 23 
*END

*D_NET *583 0.00148355
*CONN
*I *4670:A1 I *D sky130_fd_sc_hd__o21ai_1
*I *4671:A I *D sky130_fd_sc_hd__or3_1
*I *4628:X O *D sky130_fd_sc_hd__and2_1
*CAP
1 *4670:A1 8.60899e-05
2 *4671:A 0
3 *4628:X 7.51577e-05
4 *583:14 0.00054028
5 *583:8 0.000529347
6 *4670:A1 *4670:B1 0.000182832
7 *583:14 *4670:B1 3.17027e-05
8 *11:9 *583:8 3.81391e-05
*RES
1 *4628:X *583:8 39.5536 
2 *583:8 *583:14 22.7886 
3 *583:14 *4671:A 23 
4 *583:14 *4670:A1 25.0507 
*END

*D_NET *584 0.00087442
*CONN
*I *4638:A I *D sky130_fd_sc_hd__xnor2_1
*I *4637:A I *D sky130_fd_sc_hd__nor2_1
*I *4629:Y O *D sky130_fd_sc_hd__xnor2_1
*CAP
1 *4638:A 7.00351e-05
2 *4637:A 0
3 *4629:Y 0.000178638
4 *584:14 0.00016248
5 *584:6 0.000411154
6 *584:14 *591:19 5.21127e-05
7 *584:14 *650:10 0
8 *581:19 *584:14 0
*RES
1 *4629:Y *584:6 26.0036 
2 *584:6 *584:14 32.755 
3 *584:14 *4637:A 23 
4 *584:6 *4638:A 24.4707 
*END

*D_NET *585 0.00294319
*CONN
*I *4635:A I *D sky130_fd_sc_hd__xor2_1
*I *4634:A I *D sky130_fd_sc_hd__and2_1
*I *4630:X O *D sky130_fd_sc_hd__a31o_1
*CAP
1 *4635:A 0
2 *4634:A 0.000201149
3 *4630:X 0.00107384
4 *585:10 0.000318886
5 *585:6 0.00119158
6 *4634:A *4634:B 0.000154027
7 *4634:A *590:8 0
8 *4634:A *796:25 0
9 *585:10 *590:8 0
10 *585:10 *796:25 0
11 *514:21 *585:6 3.7122e-06
*RES
1 *4630:X *585:6 36.0086 
2 *585:6 *585:10 16.9057 
3 *585:10 *4634:A 41.8736 
4 *585:10 *4635:A 38 
*END

*D_NET *586 0.000334754
*CONN
*I *4633:A I *D sky130_fd_sc_hd__nor2_1
*I *4631:X O *D sky130_fd_sc_hd__o2bb2a_1
*CAP
1 *4633:A 0.000103686
2 *4631:X 0.000103686
3 *4633:A *4633:B 9.84851e-05
4 *580:18 *4633:A 2.88979e-05
*RES
1 *4631:X *4633:A 48.4236 
*END

*D_NET *587 0.00297244
*CONN
*I *4633:B I *D sky130_fd_sc_hd__nor2_1
*I *4666:A I *D sky130_fd_sc_hd__and2_1
*I *4667:A I *D sky130_fd_sc_hd__xnor2_1
*I *4632:X O *D sky130_fd_sc_hd__and4b_1
*CAP
1 *4633:B 0.000271385
2 *4666:A 0
3 *4667:A 8.88425e-05
4 *4632:X 0
5 *587:10 0.000494927
6 *587:6 0.000677469
7 *4633:B *588:6 5.67058e-05
8 *4633:B *796:25 0
9 *4633:B *994:80 0.000163076
10 *4667:A *4667:B 0.000187525
11 *4667:A *4688:A2 0.00043715
12 *4667:A *619:10 9.6309e-05
13 *4667:A *620:8 1.61385e-05
14 *587:10 *796:25 0
15 *587:10 *976:51 7.68576e-05
16 *587:10 *976:74 2.01531e-05
17 *587:10 *994:80 4.6318e-06
18 *587:10 *994:90 0.000108672
19 *4633:A *4633:B 9.84851e-05
20 *580:18 *4633:B 0.000174116
*RES
1 *4632:X *587:6 38 
2 *587:6 *587:10 22.8921 
3 *587:10 *4667:A 28.3029 
4 *587:10 *4666:A 23 
5 *587:6 *4633:B 45.0636 
*END

*D_NET *588 0.00124985
*CONN
*I *4634:B I *D sky130_fd_sc_hd__and2_1
*I *4635:B I *D sky130_fd_sc_hd__xor2_1
*I *4633:Y O *D sky130_fd_sc_hd__nor2_1
*CAP
1 *4634:B 0.000119507
2 *4635:B 0
3 *4633:Y 0.00015807
4 *588:6 0.000277578
5 *4633:B *588:6 5.67058e-05
6 *4634:A *4634:B 0.000154027
7 *580:18 *588:6 3.45438e-06
8 *580:20 *4634:B 0.000316527
9 *580:20 *588:6 0.000163978
*RES
1 *4633:Y *588:6 26.9564 
2 *588:6 *4635:B 23 
3 *588:6 *4634:B 27.5986 
*END

*D_NET *589 0.000223883
*CONN
*I *4673:B1 I *D sky130_fd_sc_hd__a21oi_2
*I *4634:X O *D sky130_fd_sc_hd__and2_1
*CAP
1 *4673:B1 0
2 *4634:X 0.000111942
3 *589:8 0.000111942
4 *589:8 *590:8 0
5 *547:27 *589:8 0
*RES
1 *4634:X *589:8 39.9057 
2 *589:8 *4673:B1 38 
*END

*D_NET *590 0.00100908
*CONN
*I *4636:B I *D sky130_fd_sc_hd__xnor2_1
*I *4673:A2 I *D sky130_fd_sc_hd__a21oi_2
*I *4635:X O *D sky130_fd_sc_hd__xor2_1
*CAP
1 *4636:B 0.000121443
2 *4673:A2 4.24511e-05
3 *4635:X 0.000205444
4 *590:10 0.000163894
5 *590:8 0.000205444
6 *4636:B *627:12 8.1796e-05
7 *590:8 *796:25 0
8 *4634:A *590:8 0
9 *4636:A *4636:B 0.000151601
10 *547:27 *590:8 3.70094e-05
11 *585:10 *590:8 0
12 *589:8 *590:8 0
*RES
1 *4635:X *590:8 41.3143 
2 *590:8 *590:10 15 
3 *590:10 *4673:A2 23.6214 
4 *590:10 *4636:B 26.48 
*END

*D_NET *591 0.00448893
*CONN
*I *4638:B I *D sky130_fd_sc_hd__xnor2_1
*I *4637:B I *D sky130_fd_sc_hd__nor2_1
*I *4636:Y O *D sky130_fd_sc_hd__xnor2_1
*CAP
1 *4638:B 0
2 *4637:B 4.01155e-05
3 *4636:Y 0.000606252
4 *591:19 0.000149778
5 *591:6 0.000796145
6 *591:6 *592:10 1.73399e-05
7 *591:6 *627:12 0.00208268
8 *591:19 *650:10 0
9 *4626:A *591:6 2.93747e-05
10 *581:6 *591:6 0.0005784
11 *581:19 *591:6 0.000136738
12 *584:14 *591:19 5.21127e-05
*RES
1 *4636:Y *591:6 46.0136 
2 *591:6 *4637:B 23.8493 
3 *591:6 *591:19 32.2579 
4 *591:19 *4638:B 23 
*END

*D_NET *592 0.00136713
*CONN
*I *4670:A2 I *D sky130_fd_sc_hd__o21ai_1
*I *4671:B I *D sky130_fd_sc_hd__or3_1
*I *4637:Y O *D sky130_fd_sc_hd__nor2_1
*CAP
1 *4670:A2 0.000168395
2 *4671:B 0
3 *4637:Y 0.000338289
4 *592:12 0.000168395
5 *592:10 0.000338289
6 *4670:A2 *4670:B1 0.000123944
7 *592:10 *623:10 9.168e-05
8 *592:10 *627:12 1.91431e-05
9 *592:10 *650:10 0.000101657
10 *591:6 *592:10 1.73399e-05
*RES
1 *4637:Y *592:10 43.4893 
2 *592:10 *592:12 15 
3 *592:12 *4671:B 23 
4 *592:12 *4670:A2 25.5271 
*END

*D_NET *593 0.00203216
*CONN
*I *4639:B1 I *D sky130_fd_sc_hd__a21oi_1
*I *4640:C I *D sky130_fd_sc_hd__and3_1
*I *4638:Y O *D sky130_fd_sc_hd__xnor2_1
*CAP
1 *4639:B1 8.80105e-05
2 *4640:C 1.75047e-05
3 *4638:Y 0.000528626
4 *593:10 0.000634141
5 *4639:B1 *594:10 2.93747e-05
6 *4639:B1 *651:14 0.000139657
7 *593:10 *650:10 0
8 *593:10 *651:14 0.000516159
9 *559:21 *4639:B1 6.67764e-05
10 *559:21 *593:10 6.07611e-06
11 *561:14 *593:10 0
12 *578:6 *4640:C 5.83345e-06
*RES
1 *4638:Y *593:10 49.2686 
2 *593:10 *4640:C 38.2279 
3 *593:10 *4639:B1 40.5271 
*END

*D_NET *594 0.000545639
*CONN
*I *4675:B1 I *D sky130_fd_sc_hd__a21oi_1
*I *4641:A I *D sky130_fd_sc_hd__nor2_1
*I *4639:Y O *D sky130_fd_sc_hd__a21oi_1
*CAP
1 *4675:B1 1.37431e-05
2 *4641:A 0
3 *4639:Y 0.000198391
4 *594:10 0.000212134
5 *4675:B1 *596:8 5.67058e-05
6 *4675:B1 *629:8 7.53384e-06
7 *594:10 *4642:B 0
8 *594:10 *596:8 2.18506e-05
9 *4639:B1 *594:10 2.93747e-05
10 *559:8 *594:10 5.90675e-06
*RES
1 *4639:Y *594:10 26.5214 
2 *594:10 *4641:A 23 
3 *594:10 *4675:B1 23.6214 
*END

*D_NET *595 0.000367869
*CONN
*I *4641:B I *D sky130_fd_sc_hd__nor2_1
*I *4640:X O *D sky130_fd_sc_hd__and3_1
*CAP
1 *4641:B 0
2 *4640:X 3.98243e-05
3 *595:8 3.98243e-05
4 *595:8 *651:14 0.00014411
5 *595:8 *670:10 0.00014411
*RES
1 *4640:X *595:8 39.9057 
2 *595:8 *4641:B 38 
*END

*D_NET *596 0.000640578
*CONN
*I *4642:B I *D sky130_fd_sc_hd__xnor2_1
*I *4675:A2 I *D sky130_fd_sc_hd__a21oi_1
*I *4641:Y O *D sky130_fd_sc_hd__nor2_1
*CAP
1 *4642:B 3.37099e-05
2 *4675:A2 0
3 *4641:Y 0.000131078
4 *596:8 0.000164788
5 *4642:B *629:8 5.70419e-05
6 *596:8 *629:8 4.21471e-05
7 *4642:A *4642:B 6.6621e-05
8 *4642:A *596:8 6.66353e-05
9 *4675:B1 *596:8 5.67058e-05
10 *594:10 *4642:B 0
11 *594:10 *596:8 2.18506e-05
*RES
1 *4641:Y *596:8 26.0243 
2 *596:8 *4675:A2 23 
3 *596:8 *4642:B 24.595 
*END

*D_NET *597 0.00257798
*CONN
*I *4645:A I *D sky130_fd_sc_hd__xor2_1
*I *4644:A_N I *D sky130_fd_sc_hd__and2b_1
*I *4642:Y O *D sky130_fd_sc_hd__xnor2_1
*CAP
1 *4645:A 0.000101483
2 *4644:A_N 0.000171565
3 *4642:Y 0.000570696
4 *597:14 0.000365491
5 *597:12 0.000663139
6 *4644:A_N *598:14 0.000148698
7 *4645:A *598:14 0.000197479
8 *597:12 *4677:A 2.93845e-05
9 *597:12 *4677:B 4.56951e-05
10 *597:12 *629:8 0.000187129
11 *597:12 *630:10 0
12 *597:14 *598:14 6.48049e-05
13 *597:14 *630:10 3.24175e-05
14 *564:10 *4645:A 0
*RES
1 *4642:Y *597:12 48.4089 
2 *597:12 *597:14 2.20607 
3 *597:14 *4644:A_N 41.48 
4 *597:14 *4645:A 40.61 
*END

*D_NET *598 0.00171662
*CONN
*I *4645:B I *D sky130_fd_sc_hd__xor2_1
*I *4644:B I *D sky130_fd_sc_hd__and2b_1
*I *4643:X O *D sky130_fd_sc_hd__a21o_1
*CAP
1 *4645:B 0
2 *4644:B 0
3 *4643:X 0.000254751
4 *598:14 0.000335111
5 *598:6 0.000589862
6 *598:14 *4678:B1 0
7 *598:14 *630:10 0.000125915
8 *4644:A_N *598:14 0.000148698
9 *4645:A *598:14 0.000197479
10 *597:14 *598:14 6.48049e-05
*RES
1 *4643:X *598:6 27.4329 
2 *598:6 *598:14 38.0993 
3 *598:14 *4644:B 23 
4 *598:6 *4645:B 23 
*END

*D_NET *599 0.00176004
*CONN
*I *4678:B1 I *D sky130_fd_sc_hd__a31o_1
*I *4686:A1 I *D sky130_fd_sc_hd__a21o_1
*I *4644:X O *D sky130_fd_sc_hd__and2b_1
*CAP
1 *4678:B1 0.000256498
2 *4686:A1 0
3 *4644:X 0.000136554
4 *599:10 0.000393052
5 *4678:B1 *4680:A 0.000153218
6 *4678:B1 *631:8 1.14452e-05
7 *4678:B1 *631:17 0.000482311
8 *4678:B1 *639:10 0.000185085
9 *599:10 *630:10 0
10 *599:10 *631:8 0.000141879
11 *598:14 *4678:B1 0
*RES
1 *4644:X *599:10 40.5271 
2 *599:10 *4686:A1 38 
3 *599:10 *4678:B1 46.5964 
*END

*D_NET *600 0.00142422
*CONN
*I *4646:A I *D sky130_fd_sc_hd__inv_2
*I *4679:A_N I *D sky130_fd_sc_hd__and2b_1
*I *4645:X O *D sky130_fd_sc_hd__xor2_1
*CAP
1 *4646:A 6.84668e-05
2 *4679:A_N 0
3 *4645:X 0.000458922
4 *600:12 6.84668e-05
5 *600:10 0.000458922
6 *600:10 *4686:B1 0.000131304
7 *600:10 *631:17 0.000181432
8 *600:10 *639:10 5.67058e-05
*RES
1 *4645:X *600:10 47.6321 
2 *600:10 *600:12 15 
3 *600:12 *4679:A_N 23 
4 *600:12 *4646:A 24.1186 
*END

*D_NET *601 0.00107065
*CONN
*I *4651:B I *D sky130_fd_sc_hd__xnor2_4
*I *4678:A1 I *D sky130_fd_sc_hd__a31o_1
*I *4646:Y O *D sky130_fd_sc_hd__inv_2
*CAP
1 *4651:B 0.000171697
2 *4678:A1 0.000138567
3 *4646:Y 0.000136679
4 *601:12 0.000322005
5 *601:8 0.00014842
6 *4651:B *671:10 9.12512e-05
7 *4678:A1 *4678:A2 1.94812e-05
8 *4678:A1 *671:10 3.64736e-05
9 *601:8 *4680:A 0
10 *601:8 *854:12 6.07611e-06
*RES
1 *4646:Y *601:8 40.2579 
2 *601:8 *601:12 15.4971 
3 *601:12 *4678:A1 25.5479 
4 *601:12 *4651:B 26.9771 
*END

*D_NET *602 0.0046777
*CONN
*I *4650:A I *D sky130_fd_sc_hd__nand2_4
*I *4687:A2 I *D sky130_fd_sc_hd__a31o_1
*I *4678:A2 I *D sky130_fd_sc_hd__a31o_1
*I *4647:X O *D sky130_fd_sc_hd__a21o_1
*CAP
1 *4650:A 0.000327725
2 *4687:A2 0
3 *4678:A2 0.000257339
4 *4647:X 0.000540412
5 *602:25 0.000327725
6 *602:10 0.000797751
7 *4650:A *5112:A 0.000102093
8 *4650:A *5113:A 5.50106e-05
9 *4650:A *654:10 0.0004798
10 *4650:A *854:6 5.50049e-05
11 *4650:A *855:8 0.000317553
12 *4678:A2 *604:10 3.70094e-05
13 *4678:A2 *633:10 0.00025214
14 *4678:A2 *639:10 0.000123336
15 *4678:A2 *652:21 0
16 *4678:A2 *671:10 0.00030974
17 *602:10 *604:10 0.000568589
18 *602:10 *968:111 0.000106989
19 *4678:A1 *4678:A2 1.94812e-05
20 *567:10 *602:10 0
*RES
1 *4647:X *602:10 49.4964 
2 *602:10 *4678:A2 45.6436 
3 *602:10 *602:25 15 
4 *602:25 *4687:A2 23 
5 *602:25 *4650:A 32.8393 
*END

*D_NET *603 0.00223185
*CONN
*I *4649:C1 I *D sky130_fd_sc_hd__a211o_1
*I *4648:X O *D sky130_fd_sc_hd__a21o_1
*CAP
1 *4649:C1 0.00048916
2 *4648:X 0.000236677
3 *603:8 0.000725838
4 *4649:C1 *968:107 9.54823e-05
5 *4577:A *4649:C1 6.79006e-05
6 *4614:A2 *603:8 0.000223692
7 *4648:A1 *603:8 1.76557e-05
8 *532:8 *603:8 1.32939e-05
9 *534:10 *4649:C1 0.00035793
10 *535:10 *4649:C1 4.21594e-06
*RES
1 *4648:X *603:8 41.48 
2 *603:8 *4649:C1 48.7093 
*END

*D_NET *604 0.00550777
*CONN
*I *4687:A1 I *D sky130_fd_sc_hd__a31o_1
*I *5112:A I *D sky130_fd_sc_hd__clkbuf_2
*I *4649:X O *D sky130_fd_sc_hd__a211o_1
*CAP
1 *4687:A1 0
2 *5112:A 0.000124523
3 *4649:X 0.000681003
4 *604:12 0.000124523
5 *604:10 0.00122827
6 *604:6 0.00190927
7 *5112:A *640:8 0
8 *604:6 *798:29 0.000123924
9 *604:10 *4680:A 0
10 *604:10 *632:8 0
11 *604:10 *639:10 1.14452e-05
12 *604:10 *798:29 8.93663e-05
13 *4580:B1 *604:6 0.000212168
14 *4618:A2 *604:10 7.76364e-06
15 *4650:A *5112:A 0.000102093
16 *4678:A2 *604:10 3.70094e-05
17 *536:6 *604:6 0.000230604
18 *540:10 *604:6 5.72217e-05
19 *568:40 *604:10 0
20 *570:10 *604:10 0
21 *571:10 *604:10 0
22 *574:10 *604:10 0
23 *602:10 *604:10 0.000568589
*RES
1 *4649:X *604:6 36.0086 
2 *604:6 *604:10 40.1471 
3 *604:10 *604:12 15 
4 *604:12 *5112:A 25.5479 
5 *604:12 *4687:A1 23 
*END

*D_NET *605 0.000279514
*CONN
*I *4651:A I *D sky130_fd_sc_hd__xnor2_4
*I *4650:Y O *D sky130_fd_sc_hd__nand2_4
*CAP
1 *4651:A 0
2 *4650:Y 0.000139757
3 *605:8 0.000139757
4 *605:8 *671:14 0
*RES
1 *4650:Y *605:8 40.61 
2 *605:8 *4651:A 38 
*END

*D_NET *606 0.000605612
*CONN
*I *4652:B I *D sky130_fd_sc_hd__and2_1
*I *4653:A I *D sky130_fd_sc_hd__xnor2_2
*I *4651:Y O *D sky130_fd_sc_hd__xnor2_4
*CAP
1 *4652:B 0.000174419
2 *4653:A 0
3 *4651:Y 0
4 *606:10 0.000104198
5 *606:4 0.000278617
6 *606:10 *607:8 4.83778e-05
7 *606:10 *671:14 0
8 *606:10 *800:42 0
*RES
1 *4651:Y *606:4 23 
2 *606:4 *606:10 32.2579 
3 *606:10 *4653:A 23 
4 *606:4 *4652:B 26.0243 
*END

*D_NET *607 0.00226416
*CONN
*I *4682:B1_N I *D sky130_fd_sc_hd__o21bai_1
*I *4708:B1 I *D sky130_fd_sc_hd__a21o_1
*I *4652:X O *D sky130_fd_sc_hd__and2_1
*CAP
1 *4682:B1_N 0.00015628
2 *4708:B1 0.000255382
3 *4652:X 0.000291043
4 *607:8 0.000702706
5 *4682:B1_N *634:29 0
6 *4682:B1_N *654:14 0.000195238
7 *4682:B1_N *662:8 5.3304e-05
8 *4682:B1_N *801:29 0
9 *4708:B1 *4708:A2 4.00259e-06
10 *4708:B1 *634:14 8.1796e-05
11 *4708:B1 *634:29 2.4754e-05
12 *607:8 *654:14 0.000408147
13 *607:8 *800:42 4.31263e-05
14 *606:10 *607:8 4.83778e-05
*RES
1 *4652:X *607:8 45.1879 
2 *607:8 *4708:B1 42.93 
3 *607:8 *4682:B1_N 41.2314 
*END

*D_NET *608 0.0023535
*CONN
*I *4654:B I *D sky130_fd_sc_hd__xnor2_1
*I *4682:A2 I *D sky130_fd_sc_hd__o21bai_1
*I *4706:A_N I *D sky130_fd_sc_hd__and2b_1
*I *4653:Y O *D sky130_fd_sc_hd__xnor2_2
*CAP
1 *4654:B 5.06663e-05
2 *4682:A2 0
3 *4706:A_N 0
4 *4653:Y 0
5 *608:18 0.000179677
6 *608:10 0.000446411
7 *608:4 0.0003174
8 *4654:B *800:27 0.000139357
9 *608:10 *654:14 0.00018411
10 *608:10 *662:14 2.71291e-05
11 *608:10 *800:42 3.70094e-05
12 *608:18 *634:29 4.21594e-06
13 *608:18 *635:8 0
14 *608:18 *654:14 5.26204e-05
15 *608:18 *801:10 0.000267167
16 *608:18 *968:111 0.000265472
17 *4654:A *4654:B 5.50106e-05
18 *4654:A *608:10 0.000327255
*RES
1 *4653:Y *608:4 23 
2 *608:4 *608:10 38.5964 
3 *608:10 *608:18 35.2614 
4 *608:18 *4706:A_N 23 
5 *608:10 *4682:A2 23 
6 *608:4 *4654:B 24.5743 
*END

*D_NET *609 0.000170922
*CONN
*I *4655:B I *D sky130_fd_sc_hd__nand2_1
*I *4654:Y O *D sky130_fd_sc_hd__xnor2_1
*CAP
1 *4655:B 6.17883e-05
2 *4654:Y 6.17883e-05
3 *4655:B *4656:C1 0
4 *4655:B *800:27 4.73456e-05
*RES
1 *4654:Y *4655:B 47.4707 
*END

*D_NET *610 0.000198113
*CONN
*I *4656:C1 I *D sky130_fd_sc_hd__o211a_1
*I *4655:Y O *D sky130_fd_sc_hd__nand2_1
*CAP
1 *4656:C1 6.36737e-05
2 *4655:Y 6.36737e-05
3 *4656:C1 *800:14 1.37232e-05
4 *4656:C1 *800:27 5.70419e-05
5 *4655:B *4656:C1 0
*RES
1 *4655:Y *4656:C1 47.595 
*END

*D_NET *611 0.00471591
*CONN
*I *4659:A I *D sky130_fd_sc_hd__nor2_1
*I *4668:A I *D sky130_fd_sc_hd__nor3_1
*I *4695:A I *D sky130_fd_sc_hd__or3b_1
*I *4694:A1 I *D sky130_fd_sc_hd__o21ba_1
*I *4715:A0 I *D sky130_fd_sc_hd__mux2_1
*I *4657:X O *D sky130_fd_sc_hd__and2_1
*CAP
1 *4659:A 0
2 *4668:A 0
3 *4695:A 0.000160195
4 *4694:A1 4.3874e-05
5 *4715:A0 0.000169352
6 *4657:X 0.00045639
7 *611:31 0.000403206
8 *611:27 0.000326579
9 *611:14 0.000375794
10 *611:10 0.000535389
11 *4694:A1 *4694:A2 2.8133e-05
12 *4695:A *4695:B 0.000294402
13 *4695:A *4695:C_N 9.08599e-05
14 *4695:A *646:8 0.000234959
15 *4695:A *647:6 7.50355e-05
16 *4715:A0 *4668:B 0.000102224
17 *4715:A0 *4715:A1 0.000279219
18 *4715:A0 *643:23 0.000102971
19 *611:10 *612:10 0.000170465
20 *611:10 *613:8 2.55642e-05
21 *611:14 *4669:B 0.000194327
22 *611:14 *613:8 0.000224345
23 *611:27 *4668:B 6.43623e-05
24 *611:27 *622:10 2.97099e-05
25 *611:31 *4694:A2 1.74126e-05
26 *611:31 *621:10 5.92332e-05
27 *611:31 *622:10 0.000135136
28 *4658:A *611:10 3.53115e-05
29 *4658:B *611:10 2.4754e-05
30 *4658:C *611:10 5.67058e-05
31 *11:9 *611:10 0
32 *11:9 *611:14 0
*RES
1 *4657:X *611:10 47.6114 
2 *611:10 *611:14 17.9621 
3 *611:14 *4715:A0 27.93 
4 *611:14 *611:27 2.9 
5 *611:27 *611:31 19.7229 
6 *611:31 *4694:A1 38.8493 
7 *611:31 *4695:A 44.0279 
8 *611:27 *4668:A 23 
9 *611:10 *4659:A 38 
*END

*D_NET *612 0.00233064
*CONN
*I *4659:B I *D sky130_fd_sc_hd__nor2_1
*I *4668:B I *D sky130_fd_sc_hd__nor3_1
*I *4715:A1 I *D sky130_fd_sc_hd__mux2_1
*I *4658:Y O *D sky130_fd_sc_hd__nor3_1
*CAP
1 *4659:B 0
2 *4668:B 0.000107272
3 *4715:A1 0.000125534
4 *4658:Y 0.000265193
5 *612:14 0.000378949
6 *612:10 0.000411335
7 *4668:B *622:10 5.58003e-05
8 *612:10 *613:8 3.92407e-05
9 *612:14 *613:8 0.00027434
10 *4658:A *612:10 5.67058e-05
11 *4715:A0 *4668:B 0.000102224
12 *4715:A0 *4715:A1 0.000279219
13 *611:10 *612:10 0.000170465
14 *611:27 *4668:B 6.43623e-05
*RES
1 *4658:Y *612:10 43.8207 
2 *612:10 *612:14 18.6664 
3 *612:14 *4715:A1 26.0036 
4 *612:14 *4668:B 25.5479 
5 *612:10 *4659:B 38 
*END

*D_NET *613 0.00412303
*CONN
*I *4669:A I *D sky130_fd_sc_hd__xnor2_1
*I *4716:A1 I *D sky130_fd_sc_hd__a211o_1
*I *4693:A I *D sky130_fd_sc_hd__xor2_1
*I *4659:Y O *D sky130_fd_sc_hd__nor2_1
*CAP
1 *4669:A 0.000322258
2 *4716:A1 0.000257505
3 *4693:A 0.000339453
4 *4659:Y 0
5 *613:8 0.00079949
6 *613:4 0.00052479
7 *4669:A *4669:B 0.00022296
8 *4669:A *669:8 4.20502e-05
9 *4693:A *621:10 1.51481e-05
10 *4693:A *646:8 0.000145163
11 *4716:A1 *4716:C1 5.78377e-05
12 *4716:A1 *621:6 0.000722257
13 *613:8 *4669:B 7.50778e-06
14 *613:8 *621:10 0.000103123
15 *611:10 *613:8 2.55642e-05
16 *611:14 *613:8 0.000224345
17 *612:10 *613:8 3.92407e-05
18 *612:14 *613:8 0.00027434
*RES
1 *4659:Y *613:4 23 
2 *613:4 *613:8 21.4836 
3 *613:8 *4693:A 44.4421 
4 *613:8 *4716:A1 46.265 
5 *613:4 *4669:A 29.3593 
*END

*D_NET *614 0.00564842
*CONN
*I *4665:A I *D sky130_fd_sc_hd__xnor2_1
*I *4661:A I *D sky130_fd_sc_hd__inv_2
*I *4692:A1 I *D sky130_fd_sc_hd__mux2_1
*I *4690:A I *D sky130_fd_sc_hd__xor2_1
*I *4660:Y O *D sky130_fd_sc_hd__a21oi_2
*CAP
1 *4665:A 0
2 *4661:A 0
3 *4692:A1 0.000365148
4 *4690:A 0
5 *4660:Y 0.000121273
6 *614:36 0.000166379
7 *614:16 0.00153394
8 *614:10 0.00158356
9 *614:8 0.000702425
10 *4692:A1 *643:8 0.000549825
11 *614:10 *616:8 9.31139e-05
12 *614:10 *617:27 2.41718e-05
13 *614:10 *975:50 0
14 *614:10 *977:31 0.000234484
15 *614:10 *994:110 1.91026e-05
16 *614:16 *616:8 4.41821e-06
17 *614:16 *642:26 5.82853e-05
18 *614:36 *642:26 0.000102208
19 *580:18 *614:8 9.00922e-05
*RES
1 *4660:Y *614:8 40.5271 
2 *614:8 *614:10 10.7093 
3 *614:10 *614:16 33.705 
4 *614:16 *4690:A 23 
5 *614:16 *4692:A1 31.265 
6 *614:16 *614:36 33.3143 
7 *614:36 *4661:A 23 
8 *614:10 *4665:A 38 
*END

*D_NET *615 0.000755767
*CONN
*I *4691:A1 I *D sky130_fd_sc_hd__a21oi_1
*I *4688:A1 I *D sky130_fd_sc_hd__a21o_1
*I *4661:Y O *D sky130_fd_sc_hd__inv_2
*CAP
1 *4691:A1 0
2 *4688:A1 0.000204239
3 *4661:Y 0
4 *615:17 5.8763e-05
5 *615:4 0.000263002
6 *4688:A1 *620:8 0.000102971
7 *4688:A1 *621:6 4.10345e-05
8 *615:17 *642:26 8.57577e-05
*RES
1 *4661:Y *615:4 23 
2 *615:4 *4688:A1 26.0036 
3 *615:4 *615:17 31.2014 
4 *615:17 *4691:A1 23 
*END

*D_NET *616 0.000830373
*CONN
*I *4664:A I *D sky130_fd_sc_hd__nor2_1
*I *4662:X O *D sky130_fd_sc_hd__o2bb2a_1
*CAP
1 *4664:A 1.65027e-05
2 *4662:X 0.000248193
3 *616:8 0.000264696
4 *4664:A *618:6 0.000102971
5 *4664:A *976:51 0.000100477
6 *616:8 *617:10 0
7 *614:10 *616:8 9.31139e-05
8 *614:16 *616:8 4.41821e-06
*RES
1 *4662:X *616:8 41.3143 
2 *616:8 *4664:A 39.0979 
*END

*D_NET *617 0.00613853
*CONN
*I *4716:A2 I *D sky130_fd_sc_hd__a211o_1
*I *4692:S I *D sky130_fd_sc_hd__mux2_1
*I *4691:B1 I *D sky130_fd_sc_hd__a21oi_1
*I *4664:B I *D sky130_fd_sc_hd__nor2_1
*I *4663:X O *D sky130_fd_sc_hd__and4b_1
*CAP
1 *4716:A2 0
2 *4692:S 0.000180843
3 *4691:B1 0
4 *4664:B 4.79154e-05
5 *4663:X 0.000377608
6 *617:42 0.000562605
7 *617:31 0.00107515
8 *617:27 0.00108366
9 *617:10 0.000815796
10 *4664:B *976:29 1.51481e-05
11 *4692:S *4716:B1 3.50862e-06
12 *617:10 *4662:A2_N 0.000139352
13 *617:10 *975:50 2.11157e-05
14 *617:10 *976:29 3.21898e-05
15 *617:10 *992:89 0
16 *617:10 *992:98 0.000187129
17 *617:10 *994:110 1.76016e-05
18 *617:27 *976:51 0.000366305
19 *617:31 *642:18 0.000562759
20 *617:31 *644:12 7.61229e-06
21 *617:31 *994:94 8.93708e-05
22 *617:31 *994:110 0.000100486
23 *617:42 *4716:B1 8.52094e-06
24 *617:42 *4716:C1 6.67555e-05
25 *617:42 *644:12 0.000324969
26 *617:42 *668:10 2.79603e-05
27 *614:10 *617:27 2.41718e-05
28 *616:8 *617:10 0
*RES
1 *4663:X *617:10 44.09 
2 *617:10 *4664:B 38.8493 
3 *617:10 *617:27 35.9864 
4 *617:27 *617:31 29.4379 
5 *617:31 *4691:B1 23 
6 *617:31 *617:42 23.5964 
7 *617:42 *4692:S 40.9621 
8 *617:42 *4716:A2 38 
*END

*D_NET *618 0.00280873
*CONN
*I *4665:B I *D sky130_fd_sc_hd__xnor2_1
*I *4688:A2 I *D sky130_fd_sc_hd__a21o_1
*I *4664:Y O *D sky130_fd_sc_hd__nor2_1
*CAP
1 *4665:B 0
2 *4688:A2 0.000746819
3 *4664:Y 6.76319e-05
4 *618:6 0.000814451
5 *4688:A2 *619:10 0.000292939
6 *4688:A2 *620:8 0.000199982
7 *4688:A2 *621:6 3.26241e-05
8 *4688:A2 *976:51 6.41405e-05
9 *618:6 *976:51 5.00237e-05
10 *4664:A *618:6 0.000102971
11 *4667:A *4688:A2 0.00043715
*RES
1 *4664:Y *618:6 25.0507 
2 *618:6 *4688:A2 37.2514 
3 *618:6 *4665:B 23 
*END

*D_NET *619 0.00121082
*CONN
*I *4667:B I *D sky130_fd_sc_hd__xnor2_1
*I *4666:B I *D sky130_fd_sc_hd__and2_1
*I *4665:Y O *D sky130_fd_sc_hd__xnor2_1
*CAP
1 *4667:B 7.07051e-05
2 *4666:B 0
3 *4665:Y 0.000143253
4 *619:10 0.000213958
5 *4667:B *620:8 9.84722e-05
6 *619:10 *976:51 0.00010766
7 *4667:A *4667:B 0.000187525
8 *4667:A *619:10 9.6309e-05
9 *4688:A2 *619:10 0.000292939
*RES
1 *4665:Y *619:10 28.4271 
2 *619:10 *4666:B 23 
3 *619:10 *4667:B 26.1693 
*END

*D_NET *620 0.000950516
*CONN
*I *4688:B1 I *D sky130_fd_sc_hd__a21o_1
*I *4666:X O *D sky130_fd_sc_hd__and2_1
*CAP
1 *4688:B1 0
2 *4666:X 0.000242269
3 *620:8 0.000242269
4 *620:8 *621:6 4.84155e-05
5 *4667:A *620:8 1.61385e-05
6 *4667:B *620:8 9.84722e-05
7 *4688:A1 *620:8 0.000102971
8 *4688:A2 *620:8 0.000199982
*RES
1 *4666:X *620:8 29.3593 
2 *620:8 *4688:B1 23 
*END

*D_NET *621 0.00529812
*CONN
*I *4669:B I *D sky130_fd_sc_hd__xnor2_1
*I *4668:C I *D sky130_fd_sc_hd__nor3_1
*I *4667:Y O *D sky130_fd_sc_hd__xnor2_1
*CAP
1 *4669:B 0.000217613
2 *4668:C 0
3 *4667:Y 0.000543763
4 *621:10 0.000373119
5 *621:6 0.00069927
6 *4669:B *669:8 0.000400204
7 *621:6 *641:8 0.00160319
8 *621:6 *668:10 1.43261e-05
9 *4669:A *4669:B 0.00022296
10 *4688:A1 *621:6 4.10345e-05
11 *4688:A2 *621:6 3.26241e-05
12 *4693:A *621:10 1.51481e-05
13 *4716:A1 *621:6 0.000722257
14 *11:9 *4669:B 0
15 *611:14 *4669:B 0.000194327
16 *611:31 *621:10 5.92332e-05
17 *613:8 *4669:B 7.50778e-06
18 *613:8 *621:10 0.000103123
19 *620:8 *621:6 4.84155e-05
*RES
1 *4667:Y *621:6 43.155 
2 *621:6 *621:10 18.3143 
3 *621:10 *4668:C 38 
4 *621:10 *4669:B 45.395 
*END

*D_NET *622 0.0020522
*CONN
*I *4695:B I *D sky130_fd_sc_hd__or3b_1
*I *4694:A2 I *D sky130_fd_sc_hd__o21ba_1
*I *4668:Y O *D sky130_fd_sc_hd__nor3_1
*CAP
1 *4695:B 0.000211537
2 *4694:A2 7.13228e-05
3 *4668:Y 0.00043874
4 *622:10 0.0007216
5 *4668:B *622:10 5.58003e-05
6 *4694:A1 *4694:A2 2.8133e-05
7 *4695:A *4695:B 0.000294402
8 *11:9 *622:10 4.84109e-05
9 *611:27 *622:10 2.97099e-05
10 *611:31 *4694:A2 1.74126e-05
11 *611:31 *622:10 0.000135136
*RES
1 *4668:Y *622:10 44.5457 
2 *622:10 *4694:A2 39.2014 
3 *622:10 *4695:B 41.48 
*END

*D_NET *623 0.00221681
*CONN
*I *4671:C I *D sky130_fd_sc_hd__or3_1
*I *4670:B1 I *D sky130_fd_sc_hd__o21ai_1
*I *4669:Y O *D sky130_fd_sc_hd__xnor2_1
*CAP
1 *4671:C 0
2 *4670:B1 0.000168286
3 *4669:Y 0.00060443
4 *623:12 0.000168286
5 *623:10 0.00060443
6 *4670:B1 *624:10 5.37348e-06
7 *623:10 *4718:A 2.93747e-05
8 *623:10 *650:10 9.6077e-05
9 *623:10 *669:8 0.000110397
10 *4670:A1 *4670:B1 0.000182832
11 *4670:A2 *4670:B1 0.000123944
12 *583:14 *4670:B1 3.17027e-05
13 *592:10 *623:10 9.168e-05
*RES
1 *4669:Y *623:10 48.4607 
2 *623:10 *623:12 15 
3 *623:12 *4670:B1 27.4536 
4 *623:12 *4671:C 23 
*END

*D_NET *624 0.00077524
*CONN
*I *4698:B1 I *D sky130_fd_sc_hd__o21a_1
*I *4672:A I *D sky130_fd_sc_hd__nand2_1
*I *4670:Y O *D sky130_fd_sc_hd__o21ai_1
*CAP
1 *4698:B1 0.000107023
2 *4672:A 0
3 *4670:Y 0.000143054
4 *624:12 0.000107023
5 *624:10 0.000143054
6 *4698:B1 *626:6 0.000226306
7 *624:10 *625:8 0
8 *624:10 *670:10 4.3407e-05
9 *4670:B1 *624:10 5.37348e-06
*RES
1 *4670:Y *624:10 40.5271 
2 *624:10 *624:12 15 
3 *624:12 *4672:A 23 
4 *624:12 *4698:B1 25.5271 
*END

*D_NET *625 0.000492803
*CONN
*I *4672:B I *D sky130_fd_sc_hd__nand2_1
*I *4671:X O *D sky130_fd_sc_hd__or3_1
*CAP
1 *4672:B 7.05562e-05
2 *4671:X 7.5314e-05
3 *625:8 0.00014587
4 *4672:B *627:12 5.6953e-05
5 *625:8 *650:10 0.00014411
6 *624:10 *625:8 0
*RES
1 *4671:X *625:8 39.9057 
2 *625:8 *4672:B 39.5743 
*END

*D_NET *626 0.00106532
*CONN
*I *4674:A I *D sky130_fd_sc_hd__xor2_2
*I *4698:A1 I *D sky130_fd_sc_hd__o21a_1
*I *4672:Y O *D sky130_fd_sc_hd__nand2_1
*CAP
1 *4674:A 4.63505e-05
2 *4698:A1 0
3 *4672:Y 0.0001054
4 *626:6 0.000151751
5 *4674:A *4674:B 0.000133611
6 *626:6 *4674:B 4.34745e-05
7 *626:6 *627:12 0.000358425
8 *4698:B1 *626:6 0.000226306
*RES
1 *4672:Y *626:6 27.4329 
2 *626:6 *4698:A1 23 
3 *626:6 *4674:A 24.595 
*END

*D_NET *627 0.00750543
*CONN
*I *4674:B I *D sky130_fd_sc_hd__xor2_2
*I *4698:A2 I *D sky130_fd_sc_hd__o21a_1
*I *4673:Y O *D sky130_fd_sc_hd__a21oi_2
*CAP
1 *4674:B 0.00011922
2 *4698:A2 0
3 *4673:Y 2.34823e-05
4 *627:12 0.0022853
5 *627:6 0.00218957
6 *627:12 *651:8 9.84794e-05
7 *4636:A *627:12 1.32939e-05
8 *4636:B *627:12 8.1796e-05
9 *4672:B *627:12 5.6953e-05
10 *4674:A *4674:B 0.000133611
11 *591:6 *627:12 0.00208268
12 *592:10 *627:12 1.91431e-05
13 *626:6 *4674:B 4.34745e-05
14 *626:6 *627:12 0.000358425
*RES
1 *4673:Y *627:6 23.4971 
2 *627:6 *627:12 36.5193 
3 *627:12 *4698:A2 23 
4 *627:12 *4674:B 2.8275 
*END

*D_NET *628 0.00184028
*CONN
*I *4676:B I *D sky130_fd_sc_hd__and2b_1
*I *4677:A I *D sky130_fd_sc_hd__xnor2_2
*I *4674:X O *D sky130_fd_sc_hd__xor2_2
*CAP
1 *4676:B 0
2 *4677:A 0.00012315
3 *4674:X 0.000641823
4 *628:10 0.00012315
5 *628:8 0.000641823
6 *4677:A *4677:B 0.000185434
7 *4677:A *629:8 1.37232e-05
8 *4677:A *630:10 8.1796e-05
9 *597:12 *4677:A 2.93845e-05
*RES
1 *4674:X *628:8 49.7657 
2 *628:8 *628:10 15 
3 *628:10 *4677:A 26.9979 
4 *628:10 *4676:B 23 
*END

*D_NET *629 0.00144211
*CONN
*I *4677:B I *D sky130_fd_sc_hd__xnor2_2
*I *4676:A_N I *D sky130_fd_sc_hd__and2b_1
*I *4675:Y O *D sky130_fd_sc_hd__a21oi_1
*CAP
1 *4677:B 0.000138046
2 *4676:A_N 0
3 *4675:Y 0.000304827
4 *629:8 0.000442874
5 *4642:A *629:8 1.76557e-05
6 *4642:B *629:8 5.70419e-05
7 *4675:B1 *629:8 7.53384e-06
8 *4677:A *4677:B 0.000185434
9 *4677:A *629:8 1.37232e-05
10 *596:8 *629:8 4.21471e-05
11 *597:12 *4677:B 4.56951e-05
12 *597:12 *629:8 0.000187129
*RES
1 *4675:Y *629:8 30.1879 
2 *629:8 *4676:A_N 23 
3 *629:8 *4677:B 26.48 
*END

*D_NET *630 0.00183001
*CONN
*I *4686:B1 I *D sky130_fd_sc_hd__a21o_1
*I *4676:X O *D sky130_fd_sc_hd__and2b_1
*CAP
1 *4686:B1 0.000126848
2 *4676:X 0.00060244
3 *630:10 0.000729288
4 *630:10 *631:8 0
5 *4677:A *630:10 8.1796e-05
6 *597:12 *630:10 0
7 *597:14 *630:10 3.24175e-05
8 *598:14 *630:10 0.000125915
9 *599:10 *630:10 0
10 *600:10 *4686:B1 0.000131304
*RES
1 *4676:X *630:10 49.9314 
2 *630:10 *4686:B1 41.0036 
*END

*D_NET *631 0.00388346
*CONN
*I *4680:A I *D sky130_fd_sc_hd__xor2_2
*I *4679:B I *D sky130_fd_sc_hd__and2b_1
*I *4686:A2 I *D sky130_fd_sc_hd__a21o_1
*I *4677:Y O *D sky130_fd_sc_hd__xnor2_2
*CAP
1 *4680:A 0.000598347
2 *4679:B 5.39135e-05
3 *4686:A2 0
4 *4677:Y 0.000556249
5 *631:17 0.000826705
6 *631:8 0.000730694
7 *4680:A *4680:B 4.83949e-05
8 *4680:A *632:8 0
9 *4680:A *639:10 0
10 *4680:A *854:12 9.88678e-05
11 *4678:B1 *4680:A 0.000153218
12 *4678:B1 *631:8 1.14452e-05
13 *4678:B1 *631:17 0.000482311
14 *599:10 *631:8 0.000141879
15 *600:10 *631:17 0.000181432
16 *601:8 *4680:A 0
17 *604:10 *4680:A 0
18 *630:10 *631:8 0
*RES
1 *4677:Y *631:8 49.0614 
2 *631:8 *4686:A2 38 
3 *631:8 *631:17 6.48357 
4 *631:17 *4679:B 38.6214 
5 *631:17 *4680:A 48.8957 
*END

*D_NET *632 0.00079283
*CONN
*I *4680:B I *D sky130_fd_sc_hd__xor2_2
*I *4678:X O *D sky130_fd_sc_hd__a31o_1
*CAP
1 *4680:B 2.70457e-05
2 *4678:X 0.000309984
3 *632:8 0.000337029
4 *632:8 *854:12 7.03766e-05
5 *4680:A *4680:B 4.83949e-05
6 *4680:A *632:8 0
7 *604:10 *632:8 0
*RES
1 *4678:X *632:8 43.075 
2 *632:8 *4680:B 15.5489 
*END

*D_NET *633 0.00124331
*CONN
*I *4687:A3 I *D sky130_fd_sc_hd__a31o_1
*I *4679:X O *D sky130_fd_sc_hd__and2b_1
*CAP
1 *4687:A3 0
2 *4679:X 0.000481625
3 *633:10 0.000481625
4 *633:10 *639:10 2.79167e-05
5 *633:10 *652:21 0
6 *4678:A2 *633:10 0.00025214
*RES
1 *4679:X *633:10 44.7736 
2 *633:10 *4687:A3 38 
*END

*D_NET *634 0.00197318
*CONN
*I *4681:B I *D sky130_fd_sc_hd__xor2_1
*I *4709:A2 I *D sky130_fd_sc_hd__o21ai_2
*I *4708:A2 I *D sky130_fd_sc_hd__a21o_1
*I *4680:X O *D sky130_fd_sc_hd__xor2_2
*CAP
1 *4681:B 0.000107117
2 *4709:A2 0
3 *4708:A2 2.1727e-05
4 *4680:X 0.000238215
5 *634:29 0.000175796
6 *634:14 0.000438255
7 *634:10 0.000586064
8 *4681:B *671:14 9.98995e-05
9 *634:10 *671:14 9.74235e-05
10 *634:29 *635:8 0
11 *634:29 *654:14 0
12 *634:29 *801:29 9.39159e-05
13 *4682:B1_N *634:29 0
14 *4708:B1 *4708:A2 4.00259e-06
15 *4708:B1 *634:14 8.1796e-05
16 *4708:B1 *634:29 2.4754e-05
17 *608:18 *634:29 4.21594e-06
*RES
1 *4680:X *634:10 42.6607 
2 *634:10 *634:14 19.4329 
3 *634:14 *4708:A2 23.4971 
4 *634:14 *634:29 33.5836 
5 *634:29 *4709:A2 23 
6 *634:10 *4681:B 40.61 
*END

*D_NET *635 0.00145016
*CONN
*I *4706:B I *D sky130_fd_sc_hd__and2b_1
*I *5108:A I *D sky130_fd_sc_hd__dlygate4sd1_1
*I *4681:X O *D sky130_fd_sc_hd__xor2_1
*CAP
1 *4706:B 0
2 *5108:A 0.000144533
3 *4681:X 0.000157355
4 *635:12 0.000478803
5 *635:8 0.000491624
6 *5108:A *4683:B 5.50106e-05
7 *635:8 *661:8 3.70094e-05
8 *635:8 *671:14 8.1606e-05
9 *635:8 *801:29 4.21594e-06
10 *608:18 *635:8 0
11 *634:29 *635:8 0
*RES
1 *4681:X *635:8 41.6664 
2 *635:8 *635:12 20.3857 
3 *635:12 *5108:A 25.4236 
4 *635:12 *4706:B 23 
*END

*D_NET *636 0.0010149
*CONN
*I *4683:B I *D sky130_fd_sc_hd__xnor2_1
*I *4682:Y O *D sky130_fd_sc_hd__o21bai_1
*CAP
1 *4683:B 0.000163702
2 *4682:Y 7.17609e-05
3 *636:8 0.000235463
4 *4683:B *4683:A 0.000143655
5 *4683:B *659:10 0.000123944
6 *636:8 *662:14 0.000168754
7 *5108:A *4683:B 5.50106e-05
8 *577:10 *636:8 5.26101e-05
*RES
1 *4682:Y *636:8 40.2579 
2 *636:8 *4683:B 42.4329 
*END

*D_NET *637 0.000198429
*CONN
*I *4684:B I *D sky130_fd_sc_hd__nand2_1
*I *4683:Y O *D sky130_fd_sc_hd__xnor2_1
*CAP
1 *4684:B 9.92145e-05
2 *4683:Y 9.92145e-05
3 *4684:B *4683:A 0
*RES
1 *4683:Y *4684:B 47.9471 
*END

*D_NET *638 0.000253364
*CONN
*I *4685:C1 I *D sky130_fd_sc_hd__o211a_1
*I *4684:Y O *D sky130_fd_sc_hd__nand2_1
*CAP
1 *4685:C1 0
2 *4684:Y 0.000117504
3 *638:8 0.000117504
4 *638:8 *849:84 1.83564e-05
5 *638:8 *1011:44 0
6 *638:8 *1011:54 0
*RES
1 *4684:Y *638:8 39.9057 
2 *638:8 *4685:C1 38 
*END

*D_NET *639 0.00138171
*CONN
*I *4687:B1 I *D sky130_fd_sc_hd__a31o_1
*I *4686:X O *D sky130_fd_sc_hd__a21o_1
*CAP
1 *4687:B1 0
2 *4686:X 0.00048861
3 *639:10 0.00048861
4 *4678:A2 *639:10 0.000123336
5 *4678:B1 *639:10 0.000185085
6 *4680:A *639:10 0
7 *600:10 *639:10 5.67058e-05
8 *604:10 *639:10 1.14452e-05
9 *633:10 *639:10 2.79167e-05
*RES
1 *4686:X *639:10 48.9786 
2 *639:10 *4687:B1 38 
*END

*D_NET *640 0.000994221
*CONN
*I *4701:A I *D sky130_fd_sc_hd__xor2_1
*I *4700:A I *D sky130_fd_sc_hd__nand2_2
*I *4687:X O *D sky130_fd_sc_hd__a31o_1
*CAP
1 *4701:A 0
2 *4700:A 0
3 *4687:X 0.000144625
4 *640:16 0.000336342
5 *640:8 0.000480967
6 *640:8 *654:10 3.22879e-05
7 *640:16 *652:21 0
8 *5112:A *640:8 0
9 *566:10 *640:16 0
*RES
1 *4687:X *640:8 26.0243 
2 *640:8 *640:16 35.6136 
3 *640:16 *4700:A 23 
4 *640:8 *4701:A 23 
*END

*D_NET *641 0.00596243
*CONN
*I *4714:A1 I *D sky130_fd_sc_hd__a21oi_1
*I *4697:A I *D sky130_fd_sc_hd__xnor2_1
*I *4688:X O *D sky130_fd_sc_hd__a21o_1
*CAP
1 *4714:A1 0
2 *4697:A 0
3 *4688:X 0.00130746
4 *641:23 0.000222325
5 *641:10 0.000744103
6 *641:8 0.00182924
7 *641:10 *4697:B 5.3304e-05
8 *641:23 *666:8 7.26951e-05
9 *11:7 *641:10 0.000130115
10 *621:6 *641:8 0.00160319
*RES
1 *4688:X *641:8 43.88 
2 *641:8 *641:10 9.67357 
3 *641:10 *4697:A 23 
4 *641:10 *641:23 34.2879 
5 *641:23 *4714:A1 23 
*END

*D_NET *642 0.00349371
*CONN
*I *4691:A2 I *D sky130_fd_sc_hd__a21oi_1
*I *4690:B I *D sky130_fd_sc_hd__xor2_1
*I *4689:X O *D sky130_fd_sc_hd__mux2_1
*CAP
1 *4691:A2 0
2 *4690:B 0
3 *4689:X 0.000712662
4 *642:26 0.000298904
5 *642:18 0.00101157
6 *642:18 *4662:A1_N 0.000203624
7 *642:18 *4662:A2_N 0.000115694
8 *642:18 *644:12 4.00259e-06
9 *642:18 *994:94 9.79925e-05
10 *642:18 *994:110 0.000142678
11 *4662:B2 *642:18 9.75779e-05
12 *614:16 *642:26 5.82853e-05
13 *614:36 *642:26 0.000102208
14 *615:17 *642:26 8.57577e-05
15 *617:31 *642:18 0.000562759
*RES
1 *4689:X *642:18 41.85 
2 *642:18 *642:26 36.0486 
3 *642:26 *4690:B 23 
4 *642:18 *4691:A2 23 
*END

*D_NET *643 0.00240112
*CONN
*I *4715:S I *D sky130_fd_sc_hd__mux2_1
*I *4692:A0 I *D sky130_fd_sc_hd__mux2_1
*I *4690:X O *D sky130_fd_sc_hd__xor2_1
*CAP
1 *4715:S 0
2 *4692:A0 0
3 *4690:X 0.000220493
4 *643:23 0.000523563
5 *643:8 0.000744056
6 *643:23 *4716:B1 0.000220681
7 *643:23 *4717:A1 1.01436e-05
8 *643:23 *667:8 2.93845e-05
9 *4692:A1 *643:8 0.000549825
10 *4715:A0 *643:23 0.000102971
*RES
1 *4690:X *643:8 29.8357 
2 *643:8 *4692:A0 23 
3 *643:8 *643:23 40.2329 
4 *643:23 *4715:S 23 
*END

*D_NET *644 0.00229495
*CONN
*I *4717:A1 I *D sky130_fd_sc_hd__a21bo_1
*I *4716:B1 I *D sky130_fd_sc_hd__a211o_1
*I *4691:Y O *D sky130_fd_sc_hd__a21oi_1
*CAP
1 *4717:A1 0.000203062
2 *4716:B1 7.15924e-05
3 *4691:Y 0.000375691
4 *644:12 0.000650345
5 *4716:B1 *4716:C1 0.000194043
6 *4717:A1 *4716:C1 5.24393e-05
7 *4717:A1 *4717:A2 0.000141879
8 *644:12 *667:8 2.64616e-05
9 *4692:S *4716:B1 3.50862e-06
10 *617:31 *644:12 7.61229e-06
11 *617:42 *4716:B1 8.52094e-06
12 *617:42 *644:12 0.000324969
13 *642:18 *644:12 4.00259e-06
14 *643:23 *4716:B1 0.000220681
15 *643:23 *4717:A1 1.01436e-05
*RES
1 *4691:Y *644:12 46.41 
2 *644:12 *4716:B1 40.9621 
3 *644:12 *4717:A1 42.06 
*END

*D_NET *645 0.000169369
*CONN
*I *4693:B I *D sky130_fd_sc_hd__xor2_1
*I *4692:X O *D sky130_fd_sc_hd__mux2_1
*CAP
1 *4693:B 8.46844e-05
2 *4692:X 8.46844e-05
*RES
1 *4692:X *4693:B 47.595 
*END

*D_NET *646 0.00118012
*CONN
*I *4695:C_N I *D sky130_fd_sc_hd__or3b_1
*I *4694:B1_N I *D sky130_fd_sc_hd__o21ba_1
*I *4693:X O *D sky130_fd_sc_hd__xor2_1
*CAP
1 *4695:C_N 4.13583e-05
2 *4694:B1_N 0
3 *4693:X 0.000284066
4 *646:8 0.000325425
5 *4695:C_N *647:6 5.82853e-05
6 *4693:A *646:8 0.000145163
7 *4695:A *4695:C_N 9.08599e-05
8 *4695:A *646:8 0.000234959
*RES
1 *4693:X *646:8 29.8357 
2 *646:8 *4694:B1_N 23 
3 *646:8 *4695:C_N 24.5743 
*END

*D_NET *647 0.000975195
*CONN
*I *4714:B1 I *D sky130_fd_sc_hd__a21oi_1
*I *4696:A_N I *D sky130_fd_sc_hd__and2b_1
*I *4694:X O *D sky130_fd_sc_hd__o21ba_1
*CAP
1 *4714:B1 0.000123625
2 *4696:A_N 0
3 *4694:X 0.000188751
4 *647:6 0.000312376
5 *4714:B1 *4714:A2 0.000147656
6 *4714:B1 *648:6 4.84155e-05
7 *647:6 *648:6 2.10502e-05
8 *4695:A *647:6 7.50355e-05
9 *4695:C_N *647:6 5.82853e-05
*RES
1 *4694:X *647:6 26.9564 
2 *647:6 *4696:A_N 23 
3 *647:6 *4714:B1 26.0036 
*END

*D_NET *648 0.000730543
*CONN
*I *4696:B I *D sky130_fd_sc_hd__and2b_1
*I *4714:A2 I *D sky130_fd_sc_hd__a21oi_1
*I *4695:X O *D sky130_fd_sc_hd__or3b_1
*CAP
1 *4696:B 0
2 *4714:A2 0.000162837
3 *4695:X 9.38737e-05
4 *648:6 0.000256711
5 *4714:B1 *4714:A2 0.000147656
6 *4714:B1 *648:6 4.84155e-05
7 *647:6 *648:6 2.10502e-05
*RES
1 *4695:X *648:6 25.0507 
2 *648:6 *4714:A2 26.8529 
3 *648:6 *4696:B 23 
*END

*D_NET *649 0.000440938
*CONN
*I *4697:B I *D sky130_fd_sc_hd__xnor2_1
*I *4696:X O *D sky130_fd_sc_hd__and2b_1
*CAP
1 *4697:B 3.80122e-05
2 *4696:X 8.70758e-05
3 *649:8 0.000125088
4 *649:8 *666:8 0.000137458
5 *641:10 *4697:B 5.3304e-05
*RES
1 *4696:X *649:8 39.9057 
2 *649:8 *4697:B 38.6214 
*END

*D_NET *650 0.00595235
*CONN
*I *4719:A1 I *D sky130_fd_sc_hd__o211a_4
*I *4699:A I *D sky130_fd_sc_hd__xor2_1
*I *4697:Y O *D sky130_fd_sc_hd__xnor2_1
*CAP
1 *4719:A1 5.90579e-05
2 *4699:A 5.51761e-05
3 *4697:Y 4.91417e-05
4 *650:12 0.000114234
5 *650:10 0.00215884
6 *650:8 0.00220798
7 *4699:A *4699:B 5.50049e-05
8 *4719:A1 *4699:B 0.000129522
9 *650:10 *651:14 0
10 *650:10 *666:8 0
11 *650:10 *670:10 0
12 *4609:A *650:10 0.000185095
13 *525:10 *650:10 0
14 *561:14 *650:10 0.000140661
15 *562:10 *650:10 0.000441326
16 *563:21 *650:10 1.4471e-05
17 *584:14 *650:10 0
18 *591:19 *650:10 0
19 *592:10 *650:10 0.000101657
20 *593:10 *650:10 0
21 *623:10 *650:10 9.6077e-05
22 *625:8 *650:10 0.00014411
*RES
1 *4697:Y *650:8 38.6214 
2 *650:8 *650:10 44.515 
3 *650:10 *650:12 15 
4 *650:12 *4699:A 24.0979 
5 *650:12 *4719:A1 24.5743 
*END

*D_NET *651 0.0050973
*CONN
*I *4719:A2 I *D sky130_fd_sc_hd__o211a_4
*I *4699:B I *D sky130_fd_sc_hd__xor2_1
*I *4698:X O *D sky130_fd_sc_hd__o21a_1
*CAP
1 *4719:A2 0
2 *4699:B 0.000118085
3 *4698:X 7.26891e-05
4 *651:14 0.00128587
5 *651:8 0.00124047
6 *4699:B *652:8 0.000143655
7 *4699:B *653:8 0
8 *651:14 *652:8 4.6595e-05
9 *651:14 *670:10 0.00109925
10 *4609:A *651:14 0
11 *4639:B1 *651:14 0.000139657
12 *4699:A *4699:B 5.50049e-05
13 *4719:A1 *4699:B 0.000129522
14 *559:21 *651:14 7.75329e-06
15 *562:10 *651:14 0
16 *563:21 *651:14 0
17 *593:10 *651:14 0.000516159
18 *595:8 *651:14 0.00014411
19 *627:12 *651:8 9.84794e-05
20 *650:10 *651:14 0
*RES
1 *4698:X *651:8 39.0979 
2 *651:8 *651:14 46.5271 
3 *651:14 *4699:B 26.5007 
4 *651:14 *4719:A2 23 
*END

*D_NET *652 0.00214136
*CONN
*I *4701:B I *D sky130_fd_sc_hd__xor2_1
*I *4700:B I *D sky130_fd_sc_hd__nand2_2
*I *4699:X O *D sky130_fd_sc_hd__xor2_1
*CAP
1 *4701:B 0
2 *4700:B 0
3 *4699:X 0.00050879
4 *652:21 0.00023732
5 *652:8 0.00074611
6 *652:8 *653:8 0.000225863
7 *652:8 *671:10 4.75937e-05
8 *652:21 *671:10 0.000185428
9 *4678:A2 *652:21 0
10 *4699:B *652:8 0.000143655
11 *633:10 *652:21 0
12 *640:16 *652:21 0
13 *651:14 *652:8 4.6595e-05
*RES
1 *4699:X *652:8 33.5229 
2 *652:8 *4700:B 23 
3 *652:8 *652:21 35.0129 
4 *652:21 *4701:B 23 
*END

*D_NET *653 0.000697862
*CONN
*I *4719:B1 I *D sky130_fd_sc_hd__o211a_4
*I *4700:Y O *D sky130_fd_sc_hd__nand2_2
*CAP
1 *4719:B1 0
2 *4700:Y 0.000164172
3 *653:8 0.000164172
4 *653:8 *671:10 0.000143655
5 *4699:B *653:8 0
6 *652:8 *653:8 0.000225863
*RES
1 *4700:Y *653:8 27.93 
2 *653:8 *4719:B1 23 
*END

*D_NET *654 0.00747175
*CONN
*I *4704:B I *D sky130_fd_sc_hd__nor2_1
*I *4702:B I *D sky130_fd_sc_hd__nand2_1
*I *4701:X O *D sky130_fd_sc_hd__xor2_1
*CAP
1 *4704:B 6.60482e-05
2 *4702:B 0
3 *4701:X 0.00113927
4 *654:18 0.00010754
5 *654:14 0.000886196
6 *654:10 0.00198397
7 *4704:B *4702:A 5.55168e-05
8 *4704:B *655:10 4.95081e-05
9 *4704:B *657:10 1.32314e-05
10 *4704:B *662:14 2.80512e-05
11 *4704:B *802:24 0
12 *654:10 *4653:B 8.88006e-05
13 *654:10 *855:8 0.000534925
14 *654:14 *5038:A 0
15 *654:14 *662:14 0.00103327
16 *654:14 *662:20 0
17 *654:14 *799:8 0
18 *654:14 *800:42 3.0647e-05
19 *654:18 *662:14 6.17437e-06
20 *4650:A *654:10 0.0004798
21 *4682:B1_N *654:14 0.000195238
22 *572:12 *654:14 9.64022e-05
23 *607:8 *654:14 0.000408147
24 *608:10 *654:14 0.00018411
25 *608:18 *654:14 5.26204e-05
26 *634:29 *654:14 0
27 *640:8 *654:10 3.22879e-05
*RES
1 *4701:X *654:10 45.5786 
2 *654:10 *654:14 37.6821 
3 *654:14 *654:18 15.6214 
4 *654:18 *4702:B 23 
5 *654:18 *4704:B 25.5686 
*END

*D_NET *655 0.0026161
*CONN
*I *4727:A1 I *D sky130_fd_sc_hd__o21ba_4
*I *4703:A I *D sky130_fd_sc_hd__inv_2
*I *4702:Y O *D sky130_fd_sc_hd__nand2_1
*CAP
1 *4727:A1 0.00016973
2 *4703:A 3.56261e-05
3 *4702:Y 0.000560588
4 *655:10 0.000765944
5 *4703:A *674:6 5.67058e-05
6 *4703:A *778:161 5.41385e-05
7 *4727:A1 *4728:B 5.50106e-05
8 *4727:A1 *656:23 2.76611e-06
9 *4727:A1 *657:25 0
10 *4727:A1 *672:14 0.000231212
11 *4727:A1 *847:82 5.50106e-05
12 *655:10 *4705:A 3.5664e-05
13 *655:10 *656:23 1.7992e-05
14 *655:10 *657:10 0.00018282
15 *655:10 *658:12 8.4047e-05
16 *655:10 *660:12 0.000139357
17 *655:10 *660:34 7.03584e-05
18 *655:10 *663:21 0
19 *655:10 *672:14 3.92407e-05
20 *655:10 *802:26 1.03836e-05
21 *4704:B *655:10 4.95081e-05
*RES
1 *4702:Y *655:10 47.6321 
2 *655:10 *4703:A 39.0979 
3 *655:10 *4727:A1 41.9357 
*END

*D_NET *656 0.00169139
*CONN
*I *4723:A1 I *D sky130_fd_sc_hd__o21a_1
*I *4724:A1 I *D sky130_fd_sc_hd__o31ai_1
*I *4705:A I *D sky130_fd_sc_hd__or2_1
*I *4703:Y O *D sky130_fd_sc_hd__inv_2
*CAP
1 *4723:A1 9.72258e-05
2 *4724:A1 0
3 *4705:A 0.000180498
4 *4703:Y 0
5 *656:23 0.000169582
6 *656:6 0.000252854
7 *4705:A *657:25 0.000263665
8 *4723:A1 *4723:B1 4.79544e-05
9 *4723:A1 *4724:A3 4.00259e-06
10 *4723:A1 *674:6 6.82514e-05
11 *4723:A1 *778:161 0.000267173
12 *4723:A1 *1011:133 5.50106e-05
13 *656:23 *657:25 1.86869e-05
14 *656:23 *674:6 0.000140259
15 *656:23 *778:161 6.9805e-05
16 *4727:A1 *656:23 2.76611e-06
17 *655:10 *4705:A 3.5664e-05
18 *655:10 *656:23 1.7992e-05
*RES
1 *4703:Y *656:6 38 
2 *656:6 *4705:A 42.0807 
3 *656:6 *656:23 17.4236 
4 *656:23 *4724:A1 23 
5 *656:23 *4723:A1 26.5007 
*END

*D_NET *657 0.00268133
*CONN
*I *4728:A I *D sky130_fd_sc_hd__or2_4
*I *4705:B I *D sky130_fd_sc_hd__or2_1
*I *4704:Y O *D sky130_fd_sc_hd__nor2_1
*CAP
1 *4728:A 0
2 *4705:B 0
3 *4704:Y 0.000124512
4 *657:25 0.000469292
5 *657:12 0.000469292
6 *657:10 0.000124512
7 *657:10 *4702:A 2.9938e-05
8 *657:10 *660:8 1.01436e-05
9 *657:10 *660:34 0.000178782
10 *657:10 *662:20 0.000191157
11 *657:10 *802:26 5.25848e-05
12 *657:25 *663:21 0.000268231
13 *657:25 *676:8 0
14 *657:25 *778:25 0
15 *657:25 *846:47 4.21594e-06
16 *657:25 *847:82 3.70187e-05
17 *657:25 *1011:34 0.000243247
18 *4704:B *657:10 1.32314e-05
19 *4705:A *657:25 0.000263665
20 *4727:A1 *657:25 0
21 *655:10 *657:10 0.00018282
22 *656:23 *657:25 1.86869e-05
*RES
1 *4704:Y *657:10 42.6607 
2 *657:10 *657:12 15 
3 *657:12 *4705:B 23 
4 *657:12 *657:25 40.6886 
5 *657:25 *4728:A 23 
*END

*D_NET *658 0.00176696
*CONN
*I *4710:B1 I *D sky130_fd_sc_hd__a21oi_1
*I *4711:A I *D sky130_fd_sc_hd__and3_1
*I *4705:X O *D sky130_fd_sc_hd__or2_1
*CAP
1 *4710:B1 0
2 *4711:A 0
3 *4705:X 0
4 *658:27 0.000347002
5 *658:12 0.000179501
6 *658:4 0.000526503
7 *658:12 *660:8 4.43717e-05
8 *658:12 *660:34 5.21127e-05
9 *658:12 *802:24 0
10 *658:12 *1011:34 5.3304e-05
11 *658:27 *4712:A1 1.32314e-05
12 *658:27 *4712:A2 9.8971e-06
13 *658:27 *663:21 0.000110913
14 *658:27 *802:24 7.53928e-05
15 *658:27 *1011:34 0.000270682
16 *658:27 *1011:38 0
17 *658:27 *1011:40 0
18 *655:10 *658:12 8.4047e-05
*RES
1 *4705:X *658:4 23 
2 *658:4 *658:12 33.2314 
3 *658:12 *4711:A 23 
4 *658:4 *658:27 36.235 
5 *658:27 *4710:B1 23 
*END

*D_NET *659 0.00103369
*CONN
*I *4707:B1 I *D sky130_fd_sc_hd__o21ai_4
*I *4706:X O *D sky130_fd_sc_hd__and2b_1
*CAP
1 *4707:B1 0
2 *4706:X 0.000435684
3 *659:10 0.000435684
4 *659:10 *662:14 0
5 *4622:B *659:10 0
6 *4683:B *659:10 0.000123944
7 *574:25 *659:10 0
8 *577:10 *659:10 3.83778e-05
*RES
1 *4706:X *659:10 45.25 
2 *659:10 *4707:B1 38 
*END

*D_NET *660 0.00498885
*CONN
*I *4729:A1 I *D sky130_fd_sc_hd__a31o_1
*I *4753:A1 I *D sky130_fd_sc_hd__a311o_1
*I *4710:A1 I *D sky130_fd_sc_hd__a21oi_1
*I *4711:B I *D sky130_fd_sc_hd__and3_1
*I *4707:Y O *D sky130_fd_sc_hd__o21ai_4
*CAP
1 *4729:A1 4.62054e-05
2 *4753:A1 0.000281738
3 *4710:A1 8.27695e-05
4 *4711:B 2.34823e-05
5 *4707:Y 0.000335179
6 *660:34 0.000929337
7 *660:12 0.000169385
8 *660:8 0.000999705
9 *4710:A1 *4710:A2 2.72127e-05
10 *4710:A1 *4712:A1 3.45967e-05
11 *4710:A1 *4712:A2 0.00010018
12 *4710:A1 *802:24 9.8542e-05
13 *4729:A1 *662:20 5.15096e-05
14 *4729:A1 *679:10 0
15 *4753:A1 *4753:A2 5.29672e-05
16 *4753:A1 *4753:C1 0.000227689
17 *660:8 *662:20 5.20305e-05
18 *660:8 *802:24 0
19 *660:12 *802:24 7.80519e-05
20 *660:12 *802:26 5.51946e-05
21 *660:34 *662:20 0.00065811
22 *660:34 *672:14 0.000129116
23 *660:34 *679:10 6.07245e-05
24 *660:34 *847:82 0
25 *574:25 *660:8 0
26 *655:10 *660:12 0.000139357
27 *655:10 *660:34 7.03584e-05
28 *657:10 *660:8 1.01436e-05
29 *657:10 *660:34 0.000178782
30 *658:12 *660:8 4.43717e-05
31 *658:12 *660:34 5.21127e-05
*RES
1 *4707:Y *660:8 44.1314 
2 *660:8 *660:12 17.0507 
3 *660:12 *4711:B 23.4971 
4 *660:12 *4710:A1 25.9 
5 *660:8 *660:34 16.4057 
6 *660:34 *4753:A1 42.4536 
7 *660:34 *4729:A1 38.8493 
*END

*D_NET *661 0.000523024
*CONN
*I *4709:B1 I *D sky130_fd_sc_hd__o21ai_2
*I *4708:X O *D sky130_fd_sc_hd__a21o_1
*CAP
1 *4709:B1 3.07765e-05
2 *4708:X 9.51671e-05
3 *661:8 0.000125944
4 *4709:B1 *4681:A 5.41385e-05
5 *4709:B1 *968:111 9.5877e-05
6 *661:8 *671:14 8.41115e-05
7 *661:8 *801:29 0
8 *635:8 *661:8 3.70094e-05
*RES
1 *4708:X *661:8 40.2579 
2 *661:8 *4709:B1 39.0979 
*END

*D_NET *662 0.00841746
*CONN
*I *4710:A2 I *D sky130_fd_sc_hd__a21oi_1
*I *4711:C I *D sky130_fd_sc_hd__and3_1
*I *4753:A2 I *D sky130_fd_sc_hd__a311o_1
*I *4729:A2 I *D sky130_fd_sc_hd__a31o_1
*I *4709:Y O *D sky130_fd_sc_hd__o21ai_2
*CAP
1 *4710:A2 9.58573e-05
2 *4711:C 0
3 *4753:A2 0.000159382
4 *4729:A2 0
5 *4709:Y 0.000150809
6 *662:42 0.000291388
7 *662:20 0.000835646
8 *662:14 0.0014898
9 *662:8 0.000768811
10 *4710:A2 *802:24 0.000103756
11 *4753:A2 *4753:C1 4.61091e-05
12 *4753:A2 *680:12 4.47928e-05
13 *4753:A2 *804:22 0.000307507
14 *662:8 *801:10 0.000213063
15 *662:8 *801:12 9.84851e-05
16 *662:14 *4702:A 0.000143655
17 *662:14 *802:26 2.18409e-05
18 *662:20 *4722:B 4.4382e-05
19 *662:20 *4727:B1_N 6.33511e-05
20 *662:20 *4729:A3 0.000135557
21 *662:20 *4733:A1 0
22 *662:20 *678:8 0.000438156
23 *662:20 *680:12 1.37349e-05
24 *662:42 *802:24 2.95542e-05
25 *662:42 *802:26 0.000111567
26 *4622:B *662:14 0.000194327
27 *4682:B1_N *662:8 5.3304e-05
28 *4704:B *662:14 2.80512e-05
29 *4710:A1 *4710:A2 2.72127e-05
30 *4729:A1 *662:20 5.15096e-05
31 *4753:A1 *4753:A2 5.29672e-05
32 *574:25 *662:14 0.000266259
33 *577:10 *662:14 0
34 *608:10 *662:14 2.71291e-05
35 *636:8 *662:14 0.000168754
36 *654:14 *662:14 0.00103327
37 *654:14 *662:20 0
38 *654:18 *662:14 6.17437e-06
39 *657:10 *662:20 0.000191157
40 *659:10 *662:14 0
41 *660:8 *662:20 5.20305e-05
42 *660:34 *662:20 0.00065811
*RES
1 *4709:Y *662:8 41.48 
2 *662:8 *662:14 31.8821 
3 *662:14 *662:20 48.1043 
4 *662:20 *4729:A2 23 
5 *662:20 *4753:A2 28.5929 
6 *662:14 *662:42 3.08643 
7 *662:42 *4711:C 23 
8 *662:42 *4710:A2 25.4857 
*END

*D_NET *663 0.00180624
*CONN
*I *4723:A2 I *D sky130_fd_sc_hd__o21a_1
*I *4724:A2 I *D sky130_fd_sc_hd__o31ai_1
*I *4712:A1 I *D sky130_fd_sc_hd__o21ai_1
*I *4710:Y O *D sky130_fd_sc_hd__a21oi_1
*CAP
1 *4723:A2 0.000167497
2 *4724:A2 0
3 *4712:A1 3.88175e-05
4 *4710:Y 0
5 *663:21 0.000479334
6 *663:4 0.000350655
7 *4712:A1 *4712:A2 2.30292e-05
8 *4712:A1 *802:24 2.4754e-05
9 *4723:A2 *778:161 0.000236507
10 *663:21 *676:8 2.54046e-05
11 *663:21 *778:161 3.32734e-05
12 *663:21 *1011:38 0
13 *663:21 *1011:116 0
14 *4710:A1 *4712:A1 3.45967e-05
15 *655:10 *663:21 0
16 *657:25 *663:21 0.000268231
17 *658:27 *4712:A1 1.32314e-05
18 *658:27 *663:21 0.000110913
*RES
1 *4710:Y *663:4 23 
2 *663:4 *4712:A1 24.4707 
3 *663:4 *663:21 36.5146 
4 *663:21 *4724:A2 23 
5 *663:21 *4723:A2 25.7654 
*END

*D_NET *664 0.000546592
*CONN
*I *4712:A2 I *D sky130_fd_sc_hd__o21ai_1
*I *4711:X O *D sky130_fd_sc_hd__and3_1
*CAP
1 *4712:A2 0.000202379
2 *4711:X 0.000202379
3 *4712:A2 *802:24 8.7283e-06
4 *4710:A1 *4712:A2 0.00010018
5 *4712:A1 *4712:A2 2.30292e-05
6 *658:27 *4712:A2 9.8971e-06
*RES
1 *4711:X *4712:A2 49.0036 
*END

*D_NET *665 0.000696759
*CONN
*I *4713:C1 I *D sky130_fd_sc_hd__o211a_1
*I *4712:Y O *D sky130_fd_sc_hd__o21ai_1
*CAP
1 *4713:C1 0
2 *4712:Y 0.00018757
3 *665:10 0.00018757
4 *665:10 *778:29 0.000138708
5 *665:10 *802:24 0.000140259
6 *665:10 *1011:40 3.98859e-05
7 *665:10 *1011:42 2.76611e-06
*RES
1 *4712:Y *665:10 41.48 
2 *665:10 *4713:C1 38 
*END

*D_NET *666 0.00108208
*CONN
*I *4718:A I *D sky130_fd_sc_hd__xor2_1
*I *4714:Y O *D sky130_fd_sc_hd__a21oi_1
*CAP
1 *4718:A 3.09722e-05
2 *4714:Y 0.000390302
3 *666:8 0.000421274
4 *623:10 *4718:A 2.93747e-05
5 *641:23 *666:8 7.26951e-05
6 *649:8 *666:8 0.000137458
7 *650:10 *666:8 0
*RES
1 *4714:Y *666:8 45.8921 
2 *666:8 *4718:A 38.6214 
*END

*D_NET *667 0.00136202
*CONN
*I *4717:A2 I *D sky130_fd_sc_hd__a21bo_1
*I *4716:C1 I *D sky130_fd_sc_hd__a211o_1
*I *4715:X O *D sky130_fd_sc_hd__mux2_1
*CAP
1 *4717:A2 7.19596e-05
2 *4716:C1 0.000196324
3 *4715:X 0.000128327
4 *667:8 0.000396611
5 *4716:C1 *668:10 0
6 *4717:A2 *668:10 0
7 *4716:A1 *4716:C1 5.78377e-05
8 *4716:B1 *4716:C1 0.000194043
9 *4717:A1 *4716:C1 5.24393e-05
10 *4717:A1 *4717:A2 0.000141879
11 *617:42 *4716:C1 6.67555e-05
12 *643:23 *667:8 2.93845e-05
13 *644:12 *667:8 2.64616e-05
*RES
1 *4715:X *667:8 39.5743 
2 *667:8 *4716:C1 42.9093 
3 *667:8 *4717:A2 39.9057 
*END

*D_NET *668 0.000646927
*CONN
*I *4717:B1_N I *D sky130_fd_sc_hd__a21bo_1
*I *4716:X O *D sky130_fd_sc_hd__a211o_1
*CAP
1 *4717:B1_N 0
2 *4716:X 0.00030232
3 *668:10 0.00030232
4 *4716:C1 *668:10 0
5 *4717:A2 *668:10 0
6 *617:42 *668:10 2.79603e-05
7 *621:6 *668:10 1.43261e-05
*RES
1 *4716:X *668:10 43.3443 
2 *668:10 *4717:B1_N 38 
*END

*D_NET *669 0.00250042
*CONN
*I *4718:B I *D sky130_fd_sc_hd__xor2_1
*I *4717:X O *D sky130_fd_sc_hd__a21bo_1
*CAP
1 *4718:B 0
2 *4717:X 0.000973882
3 *669:8 0.000973882
4 *4669:A *669:8 4.20502e-05
5 *4669:B *669:8 0.000400204
6 *623:10 *669:8 0.000110397
*RES
1 *4717:X *669:8 41.27 
2 *669:8 *4718:B 23 
*END

*D_NET *670 0.00537502
*CONN
*I *4719:C1 I *D sky130_fd_sc_hd__o211a_4
*I *4718:X O *D sky130_fd_sc_hd__xor2_1
*CAP
1 *4719:C1 0
2 *4718:X 0.000282688
3 *670:10 0.00176144
4 *670:8 0.00204412
5 *4675:A1 *670:10 0
6 *564:10 *670:10 0
7 *566:10 *670:10 0
8 *578:10 *670:10 0
9 *595:8 *670:10 0.00014411
10 *624:10 *670:10 4.3407e-05
11 *650:10 *670:10 0
12 *651:14 *670:10 0.00109925
*RES
1 *4718:X *670:8 42.9093 
2 *670:8 *670:10 39.9371 
3 *670:10 *4719:C1 38 
*END

*D_NET *671 0.0227903
*CONN
*I *4934:A I *D sky130_fd_sc_hd__clkbuf_1
*I *4954:A I *D sky130_fd_sc_hd__clkbuf_2
*I *5111:A I *D sky130_fd_sc_hd__dlygate4sd1_1
*I *4952:A I *D sky130_fd_sc_hd__buf_2
*I *4953:A I *D sky130_fd_sc_hd__buf_4
*I *4955:A I *D sky130_fd_sc_hd__buf_12
*I *4719:X O *D sky130_fd_sc_hd__o211a_4
*CAP
1 *4934:A 0.000110985
2 *4954:A 0
3 *5111:A 0.000115212
4 *4952:A 0.000307345
5 *4953:A 0.00025546
6 *4955:A 0
7 *4719:X 0.0014605
8 *671:51 0.000661773
9 *671:47 0.00117593
10 *671:39 0.00128277
11 *671:35 0.00125108
12 *671:27 0.00201791
13 *671:14 0.00275879
14 *671:12 0.00178193
15 *671:10 0.0014605
16 *4934:A *4735:B1_N 0.000228001
17 *4934:A *856:8 0.000173452
18 *4934:A *856:30 5.90675e-06
19 *4952:A *971:25 0.000653238
20 *4953:A *722:10 0.000380333
21 *4953:A *813:25 0
22 *4953:A *836:46 0
23 *5111:A *4805:C 0.00035673
24 *5111:A *4805:D 0.000313255
25 *5111:A *1002:28 2.4754e-05
26 *671:14 *4620:B1 0
27 *671:14 *5038:A 0
28 *671:14 *778:193 0
29 *671:14 *799:8 0
30 *671:14 *799:14 0
31 *671:14 *801:29 0
32 *671:14 *849:39 0
33 *671:14 *964:14 0.000221193
34 *671:14 *964:32 2.77955e-05
35 *671:27 *4203:B 0
36 *671:27 *4734:B 0.000211533
37 *671:27 *4752:A 0
38 *671:27 *684:8 0
39 *671:27 *684:21 0
40 *671:27 *856:8 6.53382e-05
41 *671:27 *856:16 2.93747e-05
42 *671:27 *964:32 0.000890802
43 *671:27 *964:45 0.00038853
44 *671:35 *4740:A 0
45 *671:35 *4754:A2 0
46 *671:35 *4754:A4 0.000108681
47 *671:35 *4782:A1 7.38424e-05
48 *671:35 *694:14 0
49 *671:35 *698:16 0.000192087
50 *671:35 *700:10 0
51 *671:35 *702:10 4.23817e-05
52 *671:35 *804:31 1.83667e-05
53 *671:35 *804:44 0.000283007
54 *671:35 *807:37 0.000192087
55 *671:35 *962:96 0.000806142
56 *671:47 *4783:A1 0.000272377
57 *671:47 *4783:A2 1.21972e-05
58 *671:47 *4783:B1 0.000348911
59 *671:47 *723:23 2.02872e-05
60 *671:47 *744:8 2.69037e-05
61 *671:47 *837:87 4.10038e-05
62 *671:47 *963:12 9.8971e-06
63 *671:47 *1002:28 8.48502e-06
64 *671:51 *722:10 3.70187e-05
65 *671:51 *722:25 0.000130433
66 *671:51 *836:46 0
67 *4651:B *671:10 9.12512e-05
68 *4678:A1 *671:10 3.64736e-05
69 *4678:A2 *671:10 0.00030974
70 *4681:B *671:14 9.98995e-05
71 *140:10 *671:14 3.63546e-05
72 *183:63 *671:39 0.000342253
73 *605:8 *671:14 0
74 *606:10 *671:14 0
75 *634:10 *671:14 9.74235e-05
76 *635:8 *671:14 8.1606e-05
77 *652:8 *671:10 4.75937e-05
78 *652:21 *671:10 0.000185428
79 *653:8 *671:10 0.000143655
80 *661:8 *671:14 8.41115e-05
*RES
1 *4719:X *671:10 46.7593 
2 *671:10 *671:12 15 
3 *671:12 *671:14 35.0071 
4 *671:14 *4955:A 38 
5 *671:14 *671:27 37.6407 
6 *671:27 *671:35 38.4486 
7 *671:35 *671:39 21.815 
8 *671:39 *671:47 15.1007 
9 *671:47 *671:51 17.2579 
10 *671:51 *4953:A 43.7793 
11 *671:51 *4952:A 45.2914 
12 *671:47 *5111:A 27.93 
13 *671:39 *4954:A 23 
14 *671:27 *4934:A 26.9771 
*END

*D_NET *672 0.00229505
*CONN
*I *4722:A I *D sky130_fd_sc_hd__or2_1
*I *4728:B I *D sky130_fd_sc_hd__or2_4
*I *4727:A2 I *D sky130_fd_sc_hd__o21ba_4
*I *4720:Y O *D sky130_fd_sc_hd__nor2_1
*CAP
1 *4722:A 0
2 *4728:B 8.21656e-05
3 *4727:A2 0
4 *4720:Y 0.000397976
5 *672:14 0.000214602
6 *672:8 0.000530412
7 *4728:B *4588:B1 0
8 *4728:B *679:10 0.000187129
9 *4728:B *847:82 9.45494e-05
10 *672:8 *4721:B 0.000187129
11 *672:8 *4722:B 9.91798e-05
12 *672:8 *778:161 4.73234e-05
13 *4727:A1 *4728:B 5.50106e-05
14 *4727:A1 *672:14 0.000231212
15 *655:10 *672:14 3.92407e-05
16 *660:34 *672:14 0.000129116
*RES
1 *4720:Y *672:8 29.3593 
2 *672:8 *672:14 33.6664 
3 *672:14 *4727:A2 23 
4 *672:14 *4728:B 26.0243 
5 *672:8 *4722:A 23 
*END

*D_NET *673 0.000961777
*CONN
*I *4727:B1_N I *D sky130_fd_sc_hd__o21ba_4
*I *4722:B I *D sky130_fd_sc_hd__or2_1
*I *4721:X O *D sky130_fd_sc_hd__and2_4
*CAP
1 *4727:B1_N 0.000121555
2 *4722:B 0.000114389
3 *4721:X 0
4 *673:6 0.000235943
5 *4722:B *778:161 9.62764e-05
6 *4722:B *803:10 2.11827e-05
7 *4727:B1_N *4588:B1 4.58505e-05
8 *4727:B1_N *798:55 9.84794e-05
9 *4727:B1_N *803:10 2.11887e-05
10 *662:20 *4722:B 4.4382e-05
11 *662:20 *4727:B1_N 6.33511e-05
12 *672:8 *4722:B 9.91798e-05
*RES
1 *4721:X *673:6 38 
2 *673:6 *4722:B 41.2521 
3 *673:6 *4727:B1_N 41.0036 
*END

*D_NET *674 0.00125833
*CONN
*I *4723:B1 I *D sky130_fd_sc_hd__o21a_1
*I *4724:A3 I *D sky130_fd_sc_hd__o31ai_1
*I *4722:X O *D sky130_fd_sc_hd__or2_1
*CAP
1 *4723:B1 0.000152972
2 *4724:A3 2.1727e-05
3 *4722:X 0.000203081
4 *674:6 0.00037778
5 *4723:B1 *1011:133 0.000175216
6 *4724:A3 *1011:133 0
7 *674:6 *778:161 1.03836e-05
8 *4703:A *674:6 5.67058e-05
9 *4723:A1 *4723:B1 4.79544e-05
10 *4723:A1 *4724:A3 4.00259e-06
11 *4723:A1 *674:6 6.82514e-05
12 *656:23 *674:6 0.000140259
*RES
1 *4722:X *674:6 26.9564 
2 *674:6 *4724:A3 23.4971 
3 *674:6 *4723:B1 26.5007 
*END

*D_NET *675 0.000707492
*CONN
*I *4725:B1 I *D sky130_fd_sc_hd__o221a_1
*I *4723:X O *D sky130_fd_sc_hd__o21a_1
*CAP
1 *4725:B1 5.88697e-05
2 *4723:X 8.03336e-05
3 *675:8 0.000139203
4 *4725:B1 *4725:B2 5.50049e-05
5 *4725:B1 *798:55 4.5051e-05
6 *4725:B1 *846:41 6.99492e-05
7 *675:8 *778:25 5.87192e-05
8 *675:8 *916:10 3.70094e-05
9 *675:8 *1011:133 0.000163352
*RES
1 *4723:X *675:8 40.2579 
2 *675:8 *4725:B1 39.5743 
*END

*D_NET *676 0.00092587
*CONN
*I *4725:B2 I *D sky130_fd_sc_hd__o221a_1
*I *4724:Y O *D sky130_fd_sc_hd__o31ai_1
*CAP
1 *4725:B2 4.75517e-05
2 *4724:Y 0.000191641
3 *676:8 0.000239192
4 *4725:B2 *798:55 0.000227208
5 *4725:B2 *846:41 2.9938e-05
6 *4725:B2 *846:47 9.84851e-05
7 *676:8 *778:27 0
8 *676:8 *1011:116 1.14452e-05
9 *4725:B1 *4725:B2 5.50049e-05
10 *657:25 *676:8 0
11 *663:21 *676:8 2.54046e-05
*RES
1 *4724:Y *676:8 40.9621 
2 *676:8 *4725:B2 40.5271 
*END

*D_NET *677 0.00134972
*CONN
*I *4730:A I *D sky130_fd_sc_hd__or2_4
*I *4752:B I *D sky130_fd_sc_hd__or4_4
*I *4731:A I *D sky130_fd_sc_hd__nand2_1
*I *4726:Y O *D sky130_fd_sc_hd__xnor2_4
*CAP
1 *4730:A 4.70638e-05
2 *4752:B 0.000133647
3 *4731:A 0
4 *4726:Y 0
5 *677:10 0.000257599
6 *677:4 0.000171016
7 *4730:A *4730:B 5.67058e-05
8 *4730:A *838:118 0.000146741
9 *4752:B *4731:B 5.50049e-05
10 *4752:B *4752:C 0.000139224
11 *4752:B *966:92 0.000144057
12 *677:10 *4731:B 0.000163352
13 *677:10 *681:10 0
14 *201:8 *4730:A 3.53115e-05
*RES
1 *4726:Y *677:4 23 
2 *677:4 *677:10 32.2579 
3 *677:10 *4731:A 23 
4 *677:10 *4752:B 27.4743 
5 *677:4 *4730:A 25.0714 
*END

*D_NET *678 0.00194267
*CONN
*I *4729:A3 I *D sky130_fd_sc_hd__a31o_1
*I *4753:A3 I *D sky130_fd_sc_hd__a311o_1
*I *4727:X O *D sky130_fd_sc_hd__o21ba_4
*CAP
1 *4729:A3 5.39325e-05
2 *4753:A3 0
3 *4727:X 0.000216676
4 *678:16 0.000408799
5 *678:8 0.000679407
6 *4729:A3 *680:12 1.01436e-05
7 *678:16 *699:10 0
8 *662:20 *4729:A3 0.000135557
9 *662:20 *678:8 0.000438156
*RES
1 *4727:X *678:8 43.7793 
2 *678:8 *678:16 35.8621 
3 *678:16 *4753:A3 38 
4 *678:8 *4729:A3 39.9057 
*END

*D_NET *679 0.00237389
*CONN
*I *4729:B1 I *D sky130_fd_sc_hd__a31o_1
*I *4753:C1 I *D sky130_fd_sc_hd__a311o_1
*I *4728:X O *D sky130_fd_sc_hd__or2_4
*CAP
1 *4729:B1 0
2 *4753:C1 0.000139237
3 *4728:X 0.000625609
4 *679:14 0.000202255
5 *679:10 0.000688627
6 *4753:C1 *680:12 6.81213e-05
7 *4753:C1 *804:22 1.55097e-05
8 *679:10 *798:55 2.13733e-05
9 *679:10 *847:82 1.40958e-05
10 *679:14 *804:22 7.7407e-05
11 *4728:B *679:10 0.000187129
12 *4729:A1 *679:10 0
13 *4753:A1 *4753:C1 0.000227689
14 *4753:A2 *4753:C1 4.61091e-05
15 *660:34 *679:10 6.07245e-05
*RES
1 *4728:X *679:10 49.02 
2 *679:10 *679:14 16.5743 
3 *679:14 *4753:C1 26.9979 
4 *679:14 *4729:B1 23 
*END

*D_NET *680 0.00138924
*CONN
*I *4731:B I *D sky130_fd_sc_hd__nand2_1
*I *4730:B I *D sky130_fd_sc_hd__or2_4
*I *4729:X O *D sky130_fd_sc_hd__a31o_1
*CAP
1 *4731:B 0.000121767
2 *4730:B 2.70989e-05
3 *4729:X 0.000215519
4 *680:12 0.000364385
5 *4730:B *838:118 2.18506e-05
6 *4731:B *681:10 0
7 *4731:B *694:14 4.21594e-06
8 *4731:B *699:10 3.81451e-05
9 *4731:B *966:92 5.50049e-05
10 *680:12 *699:10 7.52589e-05
11 *4729:A3 *680:12 1.01436e-05
12 *4730:A *4730:B 5.67058e-05
13 *4752:B *4731:B 5.50049e-05
14 *4753:A2 *680:12 4.47928e-05
15 *4753:C1 *680:12 6.81213e-05
16 *201:8 *4730:B 5.41385e-05
17 *662:20 *680:12 1.37349e-05
18 *677:10 *4731:B 0.000163352
*RES
1 *4729:X *680:12 42.4329 
2 *680:12 *4730:B 39.0979 
3 *680:12 *4731:B 41.2314 
*END

*D_NET *681 0.00365041
*CONN
*I *4732:A1 I *D sky130_fd_sc_hd__a21bo_1
*I *4742:B1 I *D sky130_fd_sc_hd__a2bb2o_4
*I *4735:B1_N I *D sky130_fd_sc_hd__a21bo_1
*I *4730:X O *D sky130_fd_sc_hd__or2_4
*CAP
1 *4732:A1 8.1807e-05
2 *4742:B1 2.4004e-05
3 *4735:B1_N 0.00061549
4 *4730:X 1.89342e-05
5 *681:10 0.00102947
6 *681:6 0.000490715
7 *4732:A1 *4732:B1_N 5.50049e-05
8 *4732:A1 *838:118 0.000221992
9 *4735:B1_N *856:8 2.80394e-05
10 *4735:B1_N *856:30 0.000190672
11 *4735:B1_N *856:38 0.000187129
12 *4742:B1 *689:25 0
13 *4742:B1 *690:8 1.14452e-05
14 *4742:B1 *847:82 1.80023e-05
15 *4742:B1 *856:38 3.70187e-05
16 *681:6 *838:118 9.84794e-05
17 *681:10 *4752:C 0
18 *681:10 *847:82 0.000179089
19 *4731:B *681:10 0
20 *4934:A *4735:B1_N 0.000228001
21 *201:8 *4732:A1 7.80819e-05
22 *201:8 *681:6 5.70419e-05
23 *677:10 *681:10 0
*RES
1 *4730:X *681:6 24.0979 
2 *681:6 *681:10 22.54 
3 *681:10 *4735:B1_N 47.6736 
4 *681:10 *4742:B1 38.8493 
5 *681:6 *4732:A1 25.5271 
*END

*D_NET *682 0.00192269
*CONN
*I *4732:A2 I *D sky130_fd_sc_hd__a21bo_1
*I *4731:Y O *D sky130_fd_sc_hd__nand2_1
*CAP
1 *4732:A2 0
2 *4731:Y 0.000561616
3 *682:10 0.000561616
4 *682:10 *777:95 0.000136486
5 *682:10 *846:62 1.14452e-05
6 *682:10 *966:92 0.000651526
*RES
1 *4731:Y *682:10 47.1971 
2 *682:10 *4732:A2 38 
*END

*D_NET *683 0.000449899
*CONN
*I *4733:C1 I *D sky130_fd_sc_hd__o211a_1
*I *4732:X O *D sky130_fd_sc_hd__a21bo_1
*CAP
1 *4733:C1 1.09711e-05
2 *4732:X 0.000117669
3 *683:8 0.00012864
4 *4733:C1 *4733:A2 4.28848e-06
5 *4733:C1 *777:95 7.49745e-06
6 *683:8 *846:62 0.000164766
7 *145:10 *4733:C1 1.60667e-05
*RES
1 *4732:X *683:8 40.2475 
2 *683:8 *4733:C1 38.3314 
*END

*D_NET *684 0.00225737
*CONN
*I *4737:A1 I *D sky130_fd_sc_hd__o21ai_1
*I *4752:A I *D sky130_fd_sc_hd__or4_4
*I *4736:A2 I *D sky130_fd_sc_hd__a21boi_1
*I *4734:Y O *D sky130_fd_sc_hd__xnor2_4
*CAP
1 *4737:A1 0
2 *4752:A 0.000560666
3 *4736:A2 0.000201285
4 *4734:Y 0.000153164
5 *684:21 0.000569012
6 *684:8 0.000362796
7 *4736:A2 *971:41 2.46922e-05
8 *4752:A *4203:B 0
9 *4752:A *966:92 0.000385751
10 *4752:A *971:41 0
11 *684:8 *4734:B 0
12 *684:8 *700:10 0
13 *684:8 *856:16 0
14 *684:8 *971:41 0
15 *671:27 *4752:A 0
16 *671:27 *684:8 0
17 *671:27 *684:21 0
*RES
1 *4734:Y *684:8 40.7861 
2 *684:8 *4736:A2 40.3718 
3 *684:8 *684:21 0.321071 
4 *684:21 *4752:A 48.73 
5 *684:21 *4737:A1 38 
*END

*D_NET *685 0.00146057
*CONN
*I *4736:A1 I *D sky130_fd_sc_hd__a21boi_1
*I *4737:A2 I *D sky130_fd_sc_hd__o21ai_1
*I *4735:X O *D sky130_fd_sc_hd__a21bo_1
*CAP
1 *4736:A1 0.000111151
2 *4737:A2 0
3 *4735:X 7.2413e-05
4 *685:12 0.00024705
5 *685:8 0.000208312
6 *4736:A1 *4737:B1 5.9836e-05
7 *4736:A1 *687:10 9.84851e-05
8 *4736:A1 *971:62 4.19743e-05
9 *685:8 *4734:B 0.000141888
10 *685:8 *700:10 8.16356e-05
11 *685:8 *964:45 3.47781e-05
12 *685:12 *4740:B 5.3304e-05
13 *685:12 *971:62 0.00030974
*RES
1 *4735:X *685:8 40.2579 
2 *685:8 *685:12 18.48 
3 *685:12 *4737:A2 23 
4 *685:12 *4736:A1 26.6871 
*END

*D_NET *686 0.000324126
*CONN
*I *4737:B1 I *D sky130_fd_sc_hd__o21ai_1
*I *4736:Y O *D sky130_fd_sc_hd__a21boi_1
*CAP
1 *4737:B1 6.61961e-05
2 *4736:Y 6.61961e-05
3 *4737:B1 *687:10 3.34129e-05
4 *4737:B1 *971:62 9.84851e-05
5 *4736:A1 *4737:B1 5.9836e-05
*RES
1 *4736:Y *4737:B1 48.0507 
*END

*D_NET *687 0.00160455
*CONN
*I *4738:C1 I *D sky130_fd_sc_hd__o211a_1
*I *4737:Y O *D sky130_fd_sc_hd__o21ai_1
*CAP
1 *4738:C1 0
2 *4737:Y 0.000607639
3 *687:10 0.000607639
4 *687:10 *4734:A 9.70962e-05
5 *687:10 *4736:B1_N 0.000156058
6 *687:10 *805:16 4.21594e-06
7 *687:10 *971:41 0
8 *4736:A1 *687:10 9.84851e-05
9 *4737:B1 *687:10 3.34129e-05
*RES
1 *4737:Y *687:10 48.9371 
2 *687:10 *4738:C1 38 
*END

*D_NET *688 0.000526965
*CONN
*I *4747:B1 I *D sky130_fd_sc_hd__o21a_1
*I *4739:Y O *D sky130_fd_sc_hd__nand2_1
*CAP
1 *4747:B1 0.000114687
2 *4739:Y 0.000114687
3 *4747:B1 *4739:A 9.5877e-05
4 *4747:B1 *4743:A 2.4754e-05
5 *4747:B1 *689:25 2.18506e-05
6 *4747:B1 *691:12 1.57571e-05
7 *4747:B1 *806:37 0.000139352
*RES
1 *4739:Y *4747:B1 49.0243 
*END

*D_NET *689 0.00303878
*CONN
*I *4743:A I *D sky130_fd_sc_hd__xnor2_2
*I *4747:A1 I *D sky130_fd_sc_hd__o21a_1
*I *4752:C I *D sky130_fd_sc_hd__or4_4
*I *4740:Y O *D sky130_fd_sc_hd__xnor2_2
*CAP
1 *4743:A 0.000183908
2 *4747:A1 0
3 *4752:C 0.000451128
4 *4740:Y 4.84662e-05
5 *689:25 0.000475743
6 *689:8 0.000791428
7 *4743:A *4739:A 5.50106e-05
8 *4743:A *4743:B 0.000344833
9 *4743:A *806:37 0.000176736
10 *4752:C *694:14 0
11 *4752:C *966:92 3.80755e-05
12 *689:8 *971:62 1.39317e-05
13 *689:25 *4739:A 5.50049e-05
14 *689:25 *4742:A1_N 0.000108672
15 *689:25 *4743:B 5.50049e-05
16 *689:25 *691:8 0
17 *689:25 *691:12 5.50106e-05
18 *689:25 *694:14 0
19 *689:25 *856:38 0
20 *4742:B1 *689:25 0
21 *4747:B1 *4743:A 2.4754e-05
22 *4747:B1 *689:25 2.18506e-05
23 *4752:B *4752:C 0.000139224
24 *681:10 *4752:C 0
*RES
1 *4740:Y *689:8 38.6214 
2 *689:8 *4752:C 45.1568 
3 *689:8 *689:25 20.8207 
4 *689:25 *4747:A1 23 
5 *689:25 *4743:A 29.0279 
*END

*D_NET *690 0.000713773
*CONN
*I *4742:B2 I *D sky130_fd_sc_hd__a2bb2o_4
*I *4741:Y O *D sky130_fd_sc_hd__o21ai_1
*CAP
1 *4742:B2 0
2 *4741:Y 0.000163022
3 *690:8 0.000163022
4 *690:8 *4741:B1 6.93449e-05
5 *690:8 *847:82 0.000188142
6 *690:8 *856:38 0.000118797
7 *4742:B1 *690:8 1.14452e-05
*RES
1 *4741:Y *690:8 43.075 
2 *690:8 *4742:B2 38 
*END

*D_NET *691 0.00156899
*CONN
*I *4743:B I *D sky130_fd_sc_hd__xnor2_2
*I *4747:A2 I *D sky130_fd_sc_hd__o21a_1
*I *4742:X O *D sky130_fd_sc_hd__a2bb2o_4
*CAP
1 *4743:B 0.000303277
2 *4747:A2 0
3 *4742:X 7.51726e-05
4 *691:12 0.00044798
5 *691:8 0.000219876
6 *691:8 *694:14 3.81391e-05
7 *691:12 *695:10 1.39431e-05
8 *4743:A *4743:B 0.000344833
9 *4747:B1 *691:12 1.57571e-05
10 *689:25 *4743:B 5.50049e-05
11 *689:25 *691:8 0
12 *689:25 *691:12 5.50106e-05
*RES
1 *4742:X *691:8 39.5536 
2 *691:8 *691:12 17.5271 
3 *691:12 *4747:A2 23 
4 *691:12 *4743:B 28.8829 
*END

*D_NET *692 0.000411033
*CONN
*I *4744:B I *D sky130_fd_sc_hd__nand2_1
*I *4743:Y O *D sky130_fd_sc_hd__xnor2_2
*CAP
1 *4744:B 0
2 *4743:Y 0.000119748
3 *692:10 0.000119748
4 *692:10 *4745:A1 7.03766e-05
5 *692:10 *693:10 3.83778e-05
6 *692:10 *806:37 5.67058e-05
7 *692:10 *833:95 6.07611e-06
8 *181:60 *692:10 0
*RES
1 *4743:Y *692:10 40.5271 
2 *692:10 *4744:B 38 
*END

*D_NET *693 0.000543616
*CONN
*I *4745:C1 I *D sky130_fd_sc_hd__o211a_1
*I *4744:Y O *D sky130_fd_sc_hd__nand2_1
*CAP
1 *4745:C1 0
2 *4744:Y 0.000224914
3 *693:10 0.000224914
4 *693:10 *4745:A1 0
5 *693:10 *805:81 4.93341e-05
6 *693:10 *846:68 6.07611e-06
7 *181:60 *693:10 0
8 *692:10 *693:10 3.83778e-05
*RES
1 *4744:Y *693:10 41.48 
2 *693:10 *4745:C1 38 
*END

*D_NET *694 0.00288495
*CONN
*I *4748:A I *D sky130_fd_sc_hd__xnor2_1
*I *4752:D I *D sky130_fd_sc_hd__or4_4
*I *4746:Y O *D sky130_fd_sc_hd__xnor2_1
*CAP
1 *4748:A 3.62665e-05
2 *4752:D 0
3 *4746:Y 0.000258143
4 *694:14 0.000834069
5 *694:8 0.00112848
6 *694:8 *962:96 5.50106e-05
7 *694:14 *4739:A 0
8 *694:14 *4740:A 0.000185085
9 *694:14 *4742:A1_N 0
10 *694:14 *4754:A2 7.06021e-05
11 *694:14 *695:10 0.000274939
12 *4731:B *694:14 4.21594e-06
13 *4752:C *694:14 0
14 *671:35 *694:14 0
15 *689:25 *694:14 0
16 *691:8 *694:14 3.81391e-05
*RES
1 *4746:Y *694:8 27.8057 
2 *694:8 *694:14 47.0479 
3 *694:14 *4752:D 23 
4 *694:8 *4748:A 23.6214 
*END

*D_NET *695 0.00120842
*CONN
*I *4748:B I *D sky130_fd_sc_hd__xnor2_1
*I *4747:X O *D sky130_fd_sc_hd__o21a_1
*CAP
1 *4748:B 0
2 *4747:X 0.00045977
3 *695:10 0.00045977
4 *695:10 *4742:A1_N 0
5 *695:10 *805:53 0
6 *695:10 *833:74 0
7 *691:12 *695:10 1.39431e-05
8 *694:14 *695:10 0.000274939
*RES
1 *4747:X *695:10 46.99 
2 *695:10 *4748:B 38 
*END

*D_NET *696 0.000352309
*CONN
*I *4749:B I *D sky130_fd_sc_hd__nand2_1
*I *4748:Y O *D sky130_fd_sc_hd__xnor2_1
*CAP
1 *4749:B 0.000176155
2 *4748:Y 0.000176155
3 *4749:B *833:87 0
*RES
1 *4748:Y *4749:B 49.3764 
*END

*D_NET *697 0.000215465
*CONN
*I *4750:C1 I *D sky130_fd_sc_hd__o211a_1
*I *4749:Y O *D sky130_fd_sc_hd__nand2_1
*CAP
1 *4750:C1 6.63117e-05
2 *4749:Y 6.63117e-05
3 *4750:C1 *833:87 8.28419e-05
*RES
1 *4749:Y *4750:C1 47.595 
*END

*D_NET *698 0.00257789
*CONN
*I *4757:A I *D sky130_fd_sc_hd__or2_4
*I *4758:A I *D sky130_fd_sc_hd__nand2_1
*I *4781:A I *D sky130_fd_sc_hd__or4_1
*I *4751:Y O *D sky130_fd_sc_hd__xnor2_1
*CAP
1 *4757:A 4.73394e-05
2 *4758:A 0
3 *4781:A 0
4 *4751:Y 0.000261824
5 *698:25 0.0002396
6 *698:16 0.000322924
7 *698:8 0.000777009
8 *4757:A *4757:B 5.67058e-05
9 *4757:A *833:46 4.95081e-05
10 *698:8 *4782:A1 4.9662e-05
11 *698:8 *725:6 8.1796e-05
12 *698:8 *833:46 9.51143e-05
13 *698:16 *4761:B 4.9662e-05
14 *698:16 *4782:A1 3.0647e-05
15 *698:16 *707:6 7.53384e-06
16 *698:16 *707:23 5.41288e-05
17 *698:16 *713:14 3.70094e-05
18 *698:16 *724:10 0
19 *698:16 *962:96 0.00012304
20 *698:25 *4757:B 4.80446e-05
21 *698:25 *833:46 5.42593e-05
22 *671:35 *698:16 0.000192087
*RES
1 *4751:Y *698:8 28.8829 
2 *698:8 *698:16 37.2293 
3 *698:16 *4781:A 23 
4 *698:8 *698:25 3.50071 
5 *698:25 *4758:A 23 
6 *698:25 *4757:A 24.5743 
*END

*D_NET *699 0.00142961
*CONN
*I *4753:B1 I *D sky130_fd_sc_hd__a311o_1
*I *4752:X O *D sky130_fd_sc_hd__or4_4
*CAP
1 *4753:B1 0
2 *4752:X 0.000500177
3 *699:10 0.000500177
4 *699:10 *966:92 0.000315852
5 *4731:B *699:10 3.81451e-05
6 *678:16 *699:10 0
7 *680:12 *699:10 7.52589e-05
*RES
1 *4752:X *699:10 46.555 
2 *699:10 *4753:B1 38 
*END

*D_NET *700 0.00562799
*CONN
*I *4782:A2 I *D sky130_fd_sc_hd__a21o_1
*I *4756:A I *D sky130_fd_sc_hd__and2_4
*I *4753:X O *D sky130_fd_sc_hd__a311o_1
*CAP
1 *4782:A2 0.00011823
2 *4756:A 0
3 *4753:X 0.000190727
4 *700:10 0.00098519
5 *700:8 0.00105769
6 *4782:A2 *4782:A1 0.000240695
7 *4782:A2 *702:10 1.14452e-05
8 *4782:A2 *724:10 4.21594e-06
9 *700:8 *804:22 0.000228909
10 *700:10 *4734:B 1.4471e-05
11 *700:10 *4754:A4 3.14377e-05
12 *700:10 *701:10 0.000385726
13 *700:10 *702:10 0.000138727
14 *700:10 *804:22 0.000163352
15 *700:10 *804:31 0.000601439
16 *700:10 *804:44 0.000486002
17 *700:10 *807:37 6.28591e-05
18 *700:10 *856:16 0.000654226
19 *700:10 *964:32 5.93278e-05
20 *700:10 *964:45 0.000111694
21 *671:35 *700:10 0
22 *684:8 *700:10 0
23 *685:8 *700:10 8.16356e-05
*RES
1 *4753:X *700:8 41.0036 
2 *700:8 *700:10 27.26 
3 *700:10 *4756:A 38 
4 *700:10 *4782:A2 41.3143 
*END

*D_NET *701 0.00111066
*CONN
*I *4755:A I *D sky130_fd_sc_hd__inv_2
*I *4754:X O *D sky130_fd_sc_hd__o41a_1
*CAP
1 *4755:A 0
2 *4754:X 0.000290639
3 *701:10 0.000290639
4 *701:10 *813:8 0
5 *701:10 *813:62 0
6 *701:10 *813:79 0
7 *701:10 *970:33 0.000143655
8 *700:10 *701:10 0.000385726
*RES
1 *4754:X *701:10 44.6493 
2 *701:10 *4755:A 38 
*END

*D_NET *702 0.00119985
*CONN
*I *4782:A1 I *D sky130_fd_sc_hd__a21o_1
*I *4756:B I *D sky130_fd_sc_hd__and2_4
*I *4755:Y O *D sky130_fd_sc_hd__inv_2
*CAP
1 *4782:A1 0.000128423
2 *4756:B 0
3 *4755:Y 0.000128561
4 *702:10 0.000256983
5 *4782:A1 *724:10 0
6 *4782:A1 *833:46 9.84794e-05
7 *4782:A2 *4782:A1 0.000240695
8 *4782:A2 *702:10 1.14452e-05
9 *671:35 *4782:A1 7.38424e-05
10 *671:35 *702:10 4.23817e-05
11 *698:8 *4782:A1 4.9662e-05
12 *698:16 *4782:A1 3.0647e-05
13 *700:10 *702:10 0.000138727
*RES
1 *4755:Y *702:10 40.5271 
2 *702:10 *4756:B 38 
3 *702:10 *4782:A1 42.7643 
*END

*D_NET *703 0.000870493
*CONN
*I *4757:B I *D sky130_fd_sc_hd__or2_4
*I *4758:B I *D sky130_fd_sc_hd__nand2_1
*I *4756:X O *D sky130_fd_sc_hd__and2_4
*CAP
1 *4757:B 6.13506e-05
2 *4758:B 0
3 *4756:X 0.000146096
4 *703:12 6.13506e-05
5 *703:10 0.000146096
6 *4757:B *833:46 0.000141052
7 *703:10 *705:8 6.38845e-05
8 *703:10 *813:79 3.22879e-05
9 *703:10 *962:96 0.000113624
10 *4757:A *4757:B 5.67058e-05
11 *698:25 *4757:B 4.80446e-05
*RES
1 *4756:X *703:10 41.5836 
2 *703:10 *703:12 15 
3 *703:12 *4758:B 23 
4 *703:12 *4757:B 25.0714 
*END

*D_NET *704 0.00266259
*CONN
*I *4770:B1 I *D sky130_fd_sc_hd__a2bb2o_4
*I *4762:B1_N I *D sky130_fd_sc_hd__a21bo_1
*I *4759:A2 I *D sky130_fd_sc_hd__a21bo_1
*I *4757:X O *D sky130_fd_sc_hd__or2_4
*CAP
1 *4770:B1 0.000141304
2 *4762:B1_N 2.85178e-05
3 *4759:A2 2.59263e-05
4 *4757:X 0.000145588
5 *704:25 0.000435854
6 *704:12 0.000291959
7 *704:10 0.000145588
8 *4759:A2 *706:10 1.59094e-05
9 *4762:B1_N *4762:A2 9.84794e-05
10 *4762:B1_N *707:23 5.3304e-05
11 *4762:B1_N *809:24 2.32004e-05
12 *4770:B1 *4762:A1 4.6318e-06
13 *4770:B1 *714:10 0.000169674
14 *4770:B1 *963:34 0
15 *704:10 *705:8 0
16 *704:10 *706:10 0.000108681
17 *704:10 *809:20 0
18 *704:10 *833:59 9.58714e-05
19 *704:10 *847:49 0.000163352
20 *704:25 *4762:A1 2.24973e-05
21 *704:25 *706:10 8.48502e-06
22 *704:25 *707:23 0.000247678
23 *704:25 *809:20 0.000186687
24 *704:25 *847:49 5.41385e-05
25 *704:25 *963:23 0
26 *183:63 *4759:A2 5.50049e-05
27 *183:63 *704:25 0.000140259
*RES
1 *4757:X *704:10 41.7079 
2 *704:10 *704:12 15 
3 *704:12 *4759:A2 23.6214 
4 *704:12 *704:25 22.3536 
5 *704:25 *4762:B1_N 39.0979 
6 *704:25 *4770:B1 40.9621 
*END

*D_NET *705 0.00110184
*CONN
*I *4759:A1 I *D sky130_fd_sc_hd__a21bo_1
*I *4758:Y O *D sky130_fd_sc_hd__nand2_1
*CAP
1 *4759:A1 0.00014911
2 *4758:Y 0.000159642
3 *705:8 0.000308751
4 *705:8 *706:10 0
5 *705:8 *833:52 0
6 *705:8 *962:96 6.11183e-05
7 *183:63 *4759:A1 0.000359332
8 *703:10 *705:8 6.38845e-05
9 *704:10 *705:8 0
*RES
1 *4758:Y *705:8 41.3143 
2 *705:8 *4759:A1 41.9564 
*END

*D_NET *706 0.000548478
*CONN
*I *4760:C1 I *D sky130_fd_sc_hd__o211a_1
*I *4759:X O *D sky130_fd_sc_hd__a21bo_1
*CAP
1 *4760:C1 0
2 *4759:X 0.00019462
3 *706:10 0.00019462
4 *706:10 *833:52 0
5 *706:10 *847:49 2.61622e-05
6 *4759:A2 *706:10 1.59094e-05
7 *704:10 *706:10 0.000108681
8 *704:25 *706:10 8.48502e-06
9 *705:8 *706:10 0
*RES
1 *4759:X *706:10 41.0036 
2 *706:10 *4760:C1 38 
*END

*D_NET *707 0.00334267
*CONN
*I *4764:A1 I *D sky130_fd_sc_hd__o21ai_1
*I *4763:A2 I *D sky130_fd_sc_hd__a21boi_1
*I *4781:B I *D sky130_fd_sc_hd__or4_1
*I *4761:Y O *D sky130_fd_sc_hd__xnor2_1
*CAP
1 *4764:A1 7.21097e-06
2 *4763:A2 0
3 *4781:B 2.34823e-05
4 *4761:Y 0.000132647
5 *707:23 0.000905363
6 *707:6 0.00105428
7 *4764:A1 *4764:A2 2.4754e-05
8 *4764:A1 *4764:B1 5.67058e-05
9 *707:6 *4761:B 9.30575e-05
10 *707:6 *724:10 9.84851e-05
11 *707:23 *4761:B 2.13733e-05
12 *707:23 *4762:A2 6.82611e-05
13 *707:23 *4764:A2 3.22879e-05
14 *707:23 *4764:B1 0.000143655
15 *707:23 *708:6 0.000180812
16 *707:23 *809:24 0.000137651
17 *707:23 *963:23 0
18 *4762:B1_N *707:23 5.3304e-05
19 *698:16 *707:6 7.53384e-06
20 *698:16 *707:23 5.41288e-05
21 *704:25 *707:23 0.000247678
*RES
1 *4761:Y *707:6 26.48 
2 *707:6 *4781:B 23.4971 
3 *707:6 *707:23 49.3264 
4 *707:23 *4763:A2 23 
5 *707:23 *4764:A1 23.6214 
*END

*D_NET *708 0.000920211
*CONN
*I *4764:A2 I *D sky130_fd_sc_hd__o21ai_1
*I *4763:A1 I *D sky130_fd_sc_hd__a21boi_1
*I *4762:X O *D sky130_fd_sc_hd__a21bo_1
*CAP
1 *4764:A2 0.000126651
2 *4763:A1 0
3 *4762:X 0.000205699
4 *708:6 0.000332351
5 *4764:A2 *4764:B1 1.76557e-05
6 *4764:A1 *4764:A2 2.4754e-05
7 *707:23 *4764:A2 3.22879e-05
8 *707:23 *708:6 0.000180812
*RES
1 *4762:X *708:6 26.48 
2 *708:6 *4763:A1 23 
3 *708:6 *4764:A2 25.4236 
*END

*D_NET *709 0.000497629
*CONN
*I *4764:B1 I *D sky130_fd_sc_hd__o21ai_1
*I *4763:Y O *D sky130_fd_sc_hd__a21boi_1
*CAP
1 *4764:B1 0.000139806
2 *4763:Y 0.000139806
3 *4764:A1 *4764:B1 5.67058e-05
4 *4764:A2 *4764:B1 1.76557e-05
5 *707:23 *4764:B1 0.000143655
*RES
1 *4763:Y *4764:B1 49.48 
*END

*D_NET *710 0.00048655
*CONN
*I *4765:C1 I *D sky130_fd_sc_hd__o211a_1
*I *4764:Y O *D sky130_fd_sc_hd__o21ai_1
*CAP
1 *4765:C1 2.44422e-05
2 *4764:Y 0.000133173
3 *710:8 0.000157615
4 *4765:C1 *4765:A1 9.84851e-05
5 *4765:C1 *810:12 5.41385e-05
6 *710:8 *4763:B1_N 0
7 *710:8 *780:101 1.86973e-05
8 *710:8 *847:39 0
*RES
1 *4764:Y *710:8 40.2579 
2 *710:8 *4765:C1 39.0979 
*END

*D_NET *711 0.000452593
*CONN
*I *4768:A I *D sky130_fd_sc_hd__nand2_1
*I *4766:X O *D sky130_fd_sc_hd__or2_1
*CAP
1 *4768:A 4.93429e-05
2 *4766:X 4.93429e-05
3 *4768:A *4767:A 5.50106e-05
4 *4768:A *4767:B 1.14154e-05
5 *4768:A *4768:B 0.000150675
6 *4768:A *4774:B 4.95081e-05
7 *4768:A *712:12 5.50106e-05
8 *4768:A *963:49 3.22879e-05
*RES
1 *4766:X *4768:A 48.5479 
*END

*D_NET *712 0.00150498
*CONN
*I *4768:B I *D sky130_fd_sc_hd__nand2_1
*I *4775:B1 I *D sky130_fd_sc_hd__o21a_1
*I *4767:Y O *D sky130_fd_sc_hd__nand2_1
*CAP
1 *4768:B 0.000194514
2 *4775:B1 0
3 *4767:Y 0
4 *712:12 0.000267563
5 *712:4 0.000462078
6 *4768:B *963:49 1.40958e-05
7 *712:12 *4767:A 4.04206e-05
8 *712:12 *713:27 0.000138718
9 *712:12 *718:12 0
10 *712:12 *811:12 4.08537e-05
11 *712:12 *811:29 0.000141052
12 *4768:A *4768:B 0.000150675
13 *4768:A *712:12 5.50106e-05
*RES
1 *4767:Y *712:4 23 
2 *712:4 *712:12 34.9093 
3 *712:12 *4775:B1 23 
4 *712:4 *4768:B 26.3764 
*END

*D_NET *713 0.00380241
*CONN
*I *4771:A I *D sky130_fd_sc_hd__xnor2_1
*I *4775:A1 I *D sky130_fd_sc_hd__o21a_1
*I *4781:C I *D sky130_fd_sc_hd__or4_1
*I *4768:Y O *D sky130_fd_sc_hd__nand2_1
*CAP
1 *4771:A 4.46406e-05
2 *4775:A1 0
3 *4781:C 0
4 *4768:Y 0.000282458
5 *713:27 0.000263815
6 *713:14 0.000628597
7 *713:6 0.00113023
8 *4771:A *4775:A2 9.84794e-05
9 *4771:A *811:12 6.9805e-05
10 *713:6 *4774:B 0.000173452
11 *713:6 *963:49 4.6595e-05
12 *713:14 *4774:B 4.05745e-05
13 *713:14 *718:25 0.000304727
14 *713:14 *811:20 0.000324733
15 *713:14 *962:96 4.99753e-06
16 *713:27 *4766:B 8.72173e-05
17 *713:27 *4775:A2 5.67058e-05
18 *713:27 *715:8 0
19 *713:27 *811:12 6.19021e-05
20 *713:27 *811:20 7.75329e-06
21 *698:16 *713:14 3.70094e-05
22 *712:12 *713:27 0.000138718
*RES
1 *4768:Y *713:6 27.4329 
2 *713:6 *713:14 42.76 
3 *713:14 *4781:C 23 
4 *713:6 *713:27 34.7643 
5 *713:27 *4775:A1 23 
6 *713:27 *4771:A 24.5743 
*END

*D_NET *714 0.00109672
*CONN
*I *4770:B2 I *D sky130_fd_sc_hd__a2bb2o_4
*I *4769:Y O *D sky130_fd_sc_hd__o21ai_1
*CAP
1 *4770:B2 0
2 *4769:Y 0.000306895
3 *714:10 0.000306895
4 *714:10 *4762:A2 0.000313255
5 *714:10 *4763:B1_N 0
6 *714:10 *834:18 0
7 *4770:B1 *714:10 0.000169674
*RES
1 *4769:Y *714:10 43.7379 
2 *714:10 *4770:B2 38 
*END

*D_NET *715 0.00130036
*CONN
*I *4771:B I *D sky130_fd_sc_hd__xnor2_1
*I *4775:A2 I *D sky130_fd_sc_hd__o21a_1
*I *4770:X O *D sky130_fd_sc_hd__a2bb2o_4
*CAP
1 *4771:B 0
2 *4775:A2 6.2588e-05
3 *4770:X 0.000507891
4 *715:10 6.2588e-05
5 *715:8 0.000507891
6 *715:8 *4766:B 0
7 *715:8 *810:20 4.21594e-06
8 *715:8 *963:49 0
9 *4771:A *4775:A2 9.84794e-05
10 *713:27 *4775:A2 5.67058e-05
11 *713:27 *715:8 0
*RES
1 *4770:X *715:8 46.2443 
2 *715:8 *715:10 15 
3 *715:10 *4775:A2 24.5743 
4 *715:10 *4771:B 23 
*END

*D_NET *716 0.000550455
*CONN
*I *4772:B I *D sky130_fd_sc_hd__nand2_1
*I *4771:Y O *D sky130_fd_sc_hd__xnor2_1
*CAP
1 *4772:B 0
2 *4771:Y 0.000172444
3 *716:8 0.000172444
4 *716:8 *811:12 0.000205566
*RES
1 *4771:Y *716:8 27.8057 
2 *716:8 *4772:B 23 
*END

*D_NET *717 0.000236945
*CONN
*I *4773:C1 I *D sky130_fd_sc_hd__o211a_1
*I *4772:Y O *D sky130_fd_sc_hd__nand2_1
*CAP
1 *4773:C1 5.93796e-05
2 *4772:Y 5.93796e-05
3 *4773:C1 *4773:A2 6.9969e-06
4 *4773:C1 *4773:B1 1.10088e-05
5 *4773:C1 *811:12 0.00010018
*RES
1 *4772:Y *4773:C1 47.595 
*END

*D_NET *718 0.00423256
*CONN
*I *4781:D I *D sky130_fd_sc_hd__or4_1
*I *4776:A I *D sky130_fd_sc_hd__xnor2_1
*I *4774:Y O *D sky130_fd_sc_hd__xnor2_1
*CAP
1 *4781:D 0
2 *4776:A 0
3 *4774:Y 0.000260602
4 *718:25 0.000364905
5 *718:12 0.00032982
6 *718:6 0.000955327
7 *718:6 *4774:B 0.000528019
8 *718:12 *719:10 0.000140958
9 *718:12 *811:12 0
10 *718:12 *811:20 0
11 *718:12 *812:19 0
12 *718:25 *4766:B 0.000394824
13 *718:25 *4774:B 0.0002246
14 *718:25 *811:20 0.000349367
15 *718:25 *962:88 0.000158229
16 *718:25 *962:90 0.000184174
17 *718:25 *962:96 3.70094e-05
18 *712:12 *718:12 0
19 *713:14 *718:25 0.000304727
*RES
1 *4774:Y *718:6 28.8621 
2 *718:6 *718:12 36.4836 
3 *718:12 *4776:A 23 
4 *718:6 *718:25 42.8843 
5 *718:25 *4781:D 23 
*END

*D_NET *719 0.000562727
*CONN
*I *4776:B I *D sky130_fd_sc_hd__xnor2_1
*I *4775:X O *D sky130_fd_sc_hd__o21a_1
*CAP
1 *4776:B 0
2 *4775:X 0.000210439
3 *719:10 0.000210439
4 *719:10 *811:12 8.91468e-07
5 *718:12 *719:10 0.000140958
*RES
1 *4775:X *719:10 41.48 
2 *719:10 *4776:B 38 
*END

*D_NET *720 0.00131874
*CONN
*I *4778:A1 I *D sky130_fd_sc_hd__a211oi_1
*I *4776:Y O *D sky130_fd_sc_hd__xnor2_1
*CAP
1 *4778:A1 0.000316519
2 *4776:Y 0.000305638
3 *720:8 0.000622156
4 *4778:A1 *1002:12 7.44257e-05
5 *720:8 *4231:A 0
6 *720:8 *812:19 0
*RES
1 *4776:Y *720:8 43.4271 
2 *720:8 *4778:A1 42.9093 
*END

*D_NET *721 0.000876876
*CONN
*I *4778:B1 I *D sky130_fd_sc_hd__a211oi_1
*I *4777:Y O *D sky130_fd_sc_hd__nor2_1
*CAP
1 *4778:B1 0.000151764
2 *4777:Y 7.1703e-05
3 *721:8 0.000223467
4 *4778:B1 *1002:12 4.34745e-05
5 *4778:B1 *1002:22 0.000272383
6 *721:8 *4778:A2 0
7 *721:8 *835:94 0.000114083
8 *152:8 *721:8 0
*RES
1 *4777:Y *721:8 39.5536 
2 *721:8 *4778:B1 41.48 
*END

*D_NET *722 0.00376473
*CONN
*I *4783:B1 I *D sky130_fd_sc_hd__a21o_1
*I *4805:A I *D sky130_fd_sc_hd__or4_1
*I *4784:A I *D sky130_fd_sc_hd__nand3_1
*I *4779:Y O *D sky130_fd_sc_hd__xnor2_1
*CAP
1 *4783:B1 0.000124367
2 *4805:A 0
3 *4784:A 0.000281019
4 *4779:Y 0.000230678
5 *722:25 0.000216295
6 *722:10 0.000603625
7 *4783:B1 *744:8 0.000139764
8 *4783:B1 *837:87 2.61526e-05
9 *4783:B1 *1002:28 6.17437e-06
10 *4784:A *4785:A1 0.000248043
11 *4784:A *4785:A2 7.48948e-05
12 *4784:A *833:6 0.000141052
13 *4784:A *833:13 0.000128723
14 *4784:A *833:46 0.00021477
15 *4784:A *835:62 5.3304e-05
16 *4784:A *971:25 9.12234e-05
17 *4784:A *971:37 2.64616e-05
18 *722:10 *4779:B 4.06849e-05
19 *722:10 *813:25 0.000123282
20 *722:10 *835:62 1.83564e-05
21 *722:25 *835:62 7.91596e-05
22 *4953:A *722:10 0.000380333
23 *671:47 *4783:B1 0.000348911
24 *671:51 *722:10 3.70187e-05
25 *671:51 *722:25 0.000130433
*RES
1 *4779:Y *722:10 44.525 
2 *722:10 *4784:A 46.265 
3 *722:10 *722:25 17.2579 
4 *722:25 *4805:A 23 
5 *722:25 *4783:B1 26.9564 
*END

*D_NET *723 0.00288775
*CONN
*I *4806:A1 I *D sky130_fd_sc_hd__a21oi_2
*I *4783:A1 I *D sky130_fd_sc_hd__a21o_1
*I *4784:B I *D sky130_fd_sc_hd__nand3_1
*I *4780:Y O *D sky130_fd_sc_hd__o41ai_2
*CAP
1 *4806:A1 0
2 *4783:A1 6.22002e-05
3 *4784:B 7.78305e-05
4 *4780:Y 0.00047103
5 *723:23 8.75259e-05
6 *723:10 0.000574186
7 *4783:A1 *4783:A2 0.000220118
8 *4783:A1 *744:8 1.76557e-05
9 *4784:B *725:14 0.000163352
10 *4784:B *780:12 0.00015795
11 *723:10 *4751:A 0
12 *723:10 *4780:A4 0
13 *723:10 *725:14 1.01436e-05
14 *723:10 *780:10 0.000139647
15 *723:10 *780:12 0.000231221
16 *723:10 *780:47 0.000225275
17 *723:10 *962:75 7.88926e-05
18 *723:10 *962:86 2.4754e-05
19 *723:23 *4783:A2 5.3304e-05
20 *671:47 *4783:A1 0.000272377
21 *671:47 *723:23 2.02872e-05
*RES
1 *4780:Y *723:10 47.9429 
2 *723:10 *4784:B 40.2579 
3 *723:10 *723:23 15.6214 
4 *723:23 *4783:A1 26.5007 
5 *723:23 *4806:A1 23 
*END

*D_NET *724 0.000847731
*CONN
*I *4782:B1 I *D sky130_fd_sc_hd__a21o_1
*I *4781:X O *D sky130_fd_sc_hd__or4_1
*CAP
1 *4782:B1 0
2 *4781:X 0.000372515
3 *724:10 0.000372515
4 *724:10 *963:12 0
5 *4782:A1 *724:10 0
6 *4782:A2 *724:10 4.21594e-06
7 *183:63 *724:10 0
8 *698:16 *724:10 0
9 *707:6 *724:10 9.84851e-05
*RES
1 *4781:X *724:10 43.8207 
2 *724:10 *4782:B1 38 
*END

*D_NET *725 0.00233499
*CONN
*I *4784:C I *D sky130_fd_sc_hd__nand3_1
*I *4783:A2 I *D sky130_fd_sc_hd__a21o_1
*I *4806:A2 I *D sky130_fd_sc_hd__a21oi_2
*I *4782:X O *D sky130_fd_sc_hd__a21o_1
*CAP
1 *4784:C 0
2 *4783:A2 0.00011877
3 *4806:A2 0
4 *4782:X 0.00014732
5 *725:14 0.000246553
6 *725:6 0.000275103
7 *4783:A2 *744:8 3.62905e-05
8 *4783:A2 *837:87 0.000120466
9 *725:6 *833:46 0.000616664
10 *725:6 *971:37 0.000145611
11 *725:14 *4751:A 0
12 *725:14 *833:46 5.50106e-05
13 *725:14 *971:37 3.22879e-05
14 *4783:A1 *4783:A2 0.000220118
15 *4784:B *725:14 0.000163352
16 *671:47 *4783:A2 1.21972e-05
17 *698:8 *725:6 8.1796e-05
18 *723:10 *725:14 1.01436e-05
19 *723:23 *4783:A2 5.3304e-05
*RES
1 *4782:X *725:6 29.815 
2 *725:6 *725:14 32.8793 
3 *725:14 *4806:A2 23 
4 *725:14 *4783:A2 27.6193 
5 *725:6 *4784:C 23 
*END

*D_NET *726 0.00202287
*CONN
*I *4788:B1_N I *D sky130_fd_sc_hd__a21boi_1
*I *4796:B2 I *D sky130_fd_sc_hd__a2bb2o_4
*I *4785:A1 I *D sky130_fd_sc_hd__a21bo_1
*I *4783:X O *D sky130_fd_sc_hd__a21o_1
*CAP
1 *4788:B1_N 1.74373e-05
2 *4796:B2 1.50079e-05
3 *4785:A1 0.000154404
4 *4783:X 0
5 *726:21 0.00037903
6 *726:6 0.000500988
7 *4785:A1 *780:12 0
8 *4785:A1 *962:21 6.93553e-05
9 *4785:A1 *971:25 0.000139224
10 *4788:B1_N *4926:A 8.60475e-05
11 *4788:B1_N *962:51 9.84851e-05
12 *4796:B2 *4926:A 5.50049e-05
13 *4796:B2 *962:51 5.50049e-05
14 *726:21 *736:10 6.33614e-05
15 *726:21 *745:8 0
16 *726:21 *780:12 0
17 *726:21 *813:38 2.09183e-05
18 *726:21 *835:77 0
19 *726:21 *962:21 0.000120554
20 *4784:A *4785:A1 0.000248043
*RES
1 *4783:X *726:6 38 
2 *726:6 *4785:A1 42.6711 
3 *726:6 *726:21 21.4836 
4 *726:21 *4796:B2 23.6214 
5 *726:21 *4788:B1_N 24.0979 
*END

*D_NET *727 0.000380778
*CONN
*I *4785:A2 I *D sky130_fd_sc_hd__a21bo_1
*I *4784:Y O *D sky130_fd_sc_hd__nand3_1
*CAP
1 *4785:A2 0.000122352
2 *4784:Y 0.000122352
3 *4785:A2 *971:25 6.17437e-06
4 *4785:A2 *971:37 5.50049e-05
5 *4784:A *4785:A2 7.48948e-05
*RES
1 *4784:Y *4785:A2 48.5686 
*END

*D_NET *728 0.000705311
*CONN
*I *4786:C1 I *D sky130_fd_sc_hd__o211a_1
*I *4785:X O *D sky130_fd_sc_hd__a21bo_1
*CAP
1 *4786:C1 0
2 *4785:X 0.000171113
3 *728:8 0.000171113
4 *728:8 *4786:B1 6.07611e-06
5 *728:8 *780:12 0.00035701
6 *728:8 *833:17 0
*RES
1 *4785:X *728:8 42.7229 
2 *728:8 *4786:C1 38 
*END

*D_NET *729 0.0028488
*CONN
*I *4789:A I *D sky130_fd_sc_hd__xnor2_1
*I *4805:B I *D sky130_fd_sc_hd__or4_1
*I *4787:Y O *D sky130_fd_sc_hd__xnor2_1
*CAP
1 *4789:A 0.000173875
2 *4805:B 0
3 *4787:Y 0
4 *729:10 0.000337419
5 *729:6 0.000511294
6 *4789:A *731:10 5.41385e-05
7 *4789:A *837:85 5.24393e-05
8 *4789:A *962:59 0.000115141
9 *4789:A *1002:26 6.7177e-06
10 *729:10 *4925:A 0.000265339
11 *729:10 *772:94 0.000110922
12 *729:10 *837:85 0.000969866
13 *729:10 *962:59 0.000192578
14 *729:10 *1002:26 5.90738e-05
*RES
1 *4787:Y *729:6 38 
2 *729:6 *729:10 27.8221 
3 *729:10 *4805:B 23 
4 *729:6 *4789:A 41.8529 
*END

*D_NET *730 0.00140874
*CONN
*I *4789:B I *D sky130_fd_sc_hd__xnor2_1
*I *4788:Y O *D sky130_fd_sc_hd__a21boi_1
*CAP
1 *4789:B 0
2 *4788:Y 0.000567332
3 *730:10 0.000567332
4 *730:10 *745:24 0.000274078
5 *730:10 *835:77 0
6 *730:10 *1002:26 0
*RES
1 *4788:Y *730:10 48.5436 
2 *730:10 *4789:B 38 
*END

*D_NET *731 0.000982146
*CONN
*I *4791:A1 I *D sky130_fd_sc_hd__a211oi_1
*I *4789:Y O *D sky130_fd_sc_hd__xnor2_1
*CAP
1 *4791:A1 0
2 *4789:Y 0.000202482
3 *731:10 0.000202482
4 *731:10 *732:8 1.14452e-05
5 *731:10 *837:85 0.000384805
6 *731:10 *1002:22 6.02277e-06
7 *731:10 *1002:26 0.00012077
8 *4789:A *731:10 5.41385e-05
*RES
1 *4789:Y *731:10 44.1729 
2 *731:10 *4791:A1 38 
*END

*D_NET *732 0.000695348
*CONN
*I *4791:B1 I *D sky130_fd_sc_hd__a211oi_1
*I *4790:Y O *D sky130_fd_sc_hd__nor2_1
*CAP
1 *4791:B1 3.77894e-05
2 *4790:Y 0.000124535
3 *732:8 0.000162325
4 *732:8 *837:85 0.000177822
5 *732:8 *1002:22 0.000181432
6 *731:10 *732:8 1.14452e-05
*RES
1 *4790:Y *732:8 42.7229 
2 *732:8 *4791:B1 38.6214 
*END

*D_NET *733 0.0020382
*CONN
*I *4794:A I *D sky130_fd_sc_hd__nand2_1
*I *4792:X O *D sky130_fd_sc_hd__or2_1
*CAP
1 *4794:A 0
2 *4792:X 0.000576399
3 *733:10 0.000576399
4 *733:10 *814:40 0.000650619
5 *733:10 *968:97 0.000160182
6 *200:10 *733:10 7.45997e-05
*RES
1 *4792:X *733:10 47.5493 
2 *733:10 *4794:A 38 
*END

*D_NET *734 0.00188369
*CONN
*I *4794:B I *D sky130_fd_sc_hd__nand2_1
*I *4801:B1 I *D sky130_fd_sc_hd__o21ai_2
*I *4793:Y O *D sky130_fd_sc_hd__nand2_1
*CAP
1 *4794:B 0.000146068
2 *4801:B1 0
3 *4793:Y 0
4 *734:12 0.00017799
5 *734:4 0.000324058
6 *4794:B *737:10 0.000137651
7 *4794:B *745:24 0.000111065
8 *4794:B *813:48 0.000168821
9 *4794:B *961:23 0.000185428
10 *4794:B *961:27 1.56762e-05
11 *734:12 *4807:A2 0.000135037
12 *734:12 *813:48 2.02872e-05
13 *734:12 *832:87 0.000186448
14 *734:12 *845:88 0.000183362
15 *734:12 *961:27 9.17998e-05
*RES
1 *4793:Y *734:4 23 
2 *734:4 *734:12 34.6607 
3 *734:12 *4801:B1 23 
4 *734:4 *4794:B 28.4064 
*END

*D_NET *735 0.0036693
*CONN
*I *4797:A I *D sky130_fd_sc_hd__xnor2_2
*I *4801:A1 I *D sky130_fd_sc_hd__o21ai_2
*I *4805:C I *D sky130_fd_sc_hd__or4_1
*I *4794:Y O *D sky130_fd_sc_hd__nand2_1
*CAP
1 *4797:A 0
2 *4801:A1 0.000133303
3 *4805:C 0.000176916
4 *4794:Y 8.81185e-05
5 *735:23 0.000243703
6 *735:8 0.000375435
7 *4801:A1 *4801:A2 0.000520201
8 *4801:A1 *738:10 5.50106e-05
9 *4801:A1 *835:54 0.000421749
10 *4805:C *4805:D 2.32004e-05
11 *4805:C *968:97 0.000215242
12 *4805:C *1002:28 0.000397596
13 *735:8 *968:97 0.000131997
14 *735:23 *4801:A2 4.17736e-05
15 *735:23 *835:54 0.000261951
16 *5111:A *4805:C 0.00035673
17 *183:49 *735:23 6.83551e-05
18 *200:10 *4805:C 0.000105563
19 *200:10 *735:8 5.24537e-05
*RES
1 *4794:Y *735:8 39.9057 
2 *735:8 *4805:C 45.395 
3 *735:8 *735:23 18.0036 
4 *735:23 *4801:A1 28.8621 
5 *735:23 *4797:A 23 
*END

*D_NET *736 0.000457314
*CONN
*I *4796:B1 I *D sky130_fd_sc_hd__a2bb2o_4
*I *4795:Y O *D sky130_fd_sc_hd__o21ai_1
*CAP
1 *4796:B1 0
2 *4795:Y 0.00014026
3 *736:10 0.00014026
4 *736:10 *813:38 8.4047e-05
5 *736:10 *835:77 2.93845e-05
6 *726:21 *736:10 6.33614e-05
*RES
1 *4795:Y *736:10 40.5271 
2 *736:10 *4796:B1 38 
*END

*D_NET *737 0.00326793
*CONN
*I *4797:B I *D sky130_fd_sc_hd__xnor2_2
*I *4801:A2 I *D sky130_fd_sc_hd__o21ai_2
*I *4796:X O *D sky130_fd_sc_hd__a2bb2o_4
*CAP
1 *4797:B 0
2 *4801:A2 0.000193396
3 *4796:X 0.000342192
4 *737:12 0.000193396
5 *737:10 0.000342192
6 *4801:A2 *835:54 4.5051e-05
7 *737:10 *745:24 0.000271093
8 *737:10 *772:86 8.21123e-05
9 *737:10 *813:48 0.00030373
10 *737:10 *853:10 8.67978e-05
11 *737:10 *961:23 9.57899e-05
12 *737:10 *966:102 0
13 *4794:B *737:10 0.000137651
14 *4801:A1 *4801:A2 0.000520201
15 *183:49 *4801:A2 0.000612552
16 *735:23 *4801:A2 4.17736e-05
*RES
1 *4796:X *737:10 46.5757 
2 *737:10 *737:12 15 
3 *737:12 *4801:A2 30.7886 
4 *737:12 *4797:B 23 
*END

*D_NET *738 0.00207617
*CONN
*I *4798:B I *D sky130_fd_sc_hd__nand2_1
*I *4797:Y O *D sky130_fd_sc_hd__xnor2_2
*CAP
1 *4798:B 0
2 *4797:Y 0.000348854
3 *738:10 0.000348854
4 *738:10 *4793:A 6.16439e-05
5 *738:10 *815:14 0.000428951
6 *738:10 *815:16 0.000177843
7 *738:10 *832:87 0.00023356
8 *738:10 *832:89 0.000295597
9 *738:10 *832:98 6.07611e-06
10 *738:10 *835:54 5.3304e-05
11 *738:10 *966:102 6.64755e-05
12 *4801:A1 *738:10 5.50106e-05
*RES
1 *4797:Y *738:10 49.6829 
2 *738:10 *4798:B 38 
*END

*D_NET *739 0.000713926
*CONN
*I *4799:C1 I *D sky130_fd_sc_hd__o211a_1
*I *4798:Y O *D sky130_fd_sc_hd__nand2_1
*CAP
1 *4799:C1 0
2 *4798:Y 0.00026909
3 *739:10 0.00026909
4 *739:10 *845:103 3.70187e-05
5 *739:10 *966:102 0.000138727
6 *200:10 *739:10 0
*RES
1 *4798:Y *739:10 41.9564 
2 *739:10 *4799:C1 38 
*END

*D_NET *740 0.00254516
*CONN
*I *4805:D I *D sky130_fd_sc_hd__or4_1
*I *4802:A I *D sky130_fd_sc_hd__xor2_1
*I *4800:Y O *D sky130_fd_sc_hd__xnor2_1
*CAP
1 *4805:D 0.000587373
2 *4802:A 0
3 *4800:Y 0.000157473
4 *740:10 0.000744846
5 *4805:D *961:23 0
6 *4805:D *966:102 0.000157299
7 *4805:D *970:23 0.0002246
8 *4805:D *1002:28 8.77809e-05
9 *740:10 *4800:B 5.50106e-05
10 *740:10 *961:23 0
11 *740:10 *966:102 0.000194327
12 *4805:C *4805:D 2.32004e-05
13 *5111:A *4805:D 0.000313255
*RES
1 *4800:Y *740:10 41.2314 
2 *740:10 *4802:A 38 
3 *740:10 *4805:D 49.455 
*END

*D_NET *741 0.00141821
*CONN
*I *4802:B I *D sky130_fd_sc_hd__xor2_1
*I *4801:Y O *D sky130_fd_sc_hd__o21ai_2
*CAP
1 *4802:B 0.000103973
2 *4801:Y 0.000135856
3 *741:8 0.000239828
4 *4802:B *742:10 9.75779e-05
5 *4802:B *971:25 8.10857e-05
6 *741:8 *816:21 3.92407e-05
7 *741:8 *816:30 0.000347536
8 *741:8 *845:88 0.000373109
*RES
1 *4801:Y *741:8 43.075 
2 *741:8 *4802:B 40.5271 
*END

*D_NET *742 0.00143173
*CONN
*I *4804:A1 I *D sky130_fd_sc_hd__a211oi_1
*I *4802:X O *D sky130_fd_sc_hd__xor2_1
*CAP
1 *4804:A1 0
2 *4802:X 0.000353646
3 *742:10 0.000353646
4 *742:10 *4803:B 0.00010018
5 *742:10 *4804:A2 5.50049e-05
6 *742:10 *4804:B1 4.79641e-05
7 *742:10 *971:25 0.000423713
8 *4802:B *742:10 9.75779e-05
*RES
1 *4802:X *742:10 32.1143 
2 *742:10 *4804:A1 23 
*END

*D_NET *743 0.000436453
*CONN
*I *4804:B1 I *D sky130_fd_sc_hd__a211oi_1
*I *4803:Y O *D sky130_fd_sc_hd__nor2_1
*CAP
1 *4804:B1 5.63721e-05
2 *4803:Y 5.63721e-05
3 *4804:B1 *4804:A2 5.50049e-05
4 *4804:B1 *832:61 0.000185428
5 *4804:B1 *971:25 3.53115e-05
6 *742:10 *4804:B1 4.79641e-05
*RES
1 *4803:Y *4804:B1 48.5271 
*END

*D_NET *744 0.000948888
*CONN
*I *4806:B1 I *D sky130_fd_sc_hd__a21oi_2
*I *4805:X O *D sky130_fd_sc_hd__or4_1
*CAP
1 *4806:B1 0
2 *4805:X 0.000144906
3 *744:8 0.000144906
4 *744:8 *837:87 0.000438462
5 *4783:A1 *744:8 1.76557e-05
6 *4783:A2 *744:8 3.62905e-05
7 *4783:B1 *744:8 0.000139764
8 *671:47 *744:8 2.69037e-05
*RES
1 *4805:X *744:8 28.4064 
2 *744:8 *4806:B1 23 
*END

*D_NET *745 0.00700242
*CONN
*I *4825:A2 I *D sky130_fd_sc_hd__o211ai_2
*I *4808:A I *D sky130_fd_sc_hd__nor2_1
*I *4806:Y O *D sky130_fd_sc_hd__a21oi_2
*CAP
1 *4825:A2 0.000223043
2 *4808:A 0
3 *4806:Y 0.000267271
4 *745:24 0.00173802
5 *745:8 0.00178225
6 *4825:A2 *4808:B 5.90675e-06
7 *4825:A2 *4825:A1 8.1796e-05
8 *4825:A2 *746:6 4.95081e-05
9 *745:8 *780:12 4.6323e-05
10 *745:8 *835:77 0.000241355
11 *745:8 *962:34 0.000219882
12 *745:8 *962:75 4.92689e-05
13 *745:24 *4796:A1_N 0.000184088
14 *745:24 *4807:B1 4.85464e-05
15 *745:24 *4926:A 1.41077e-05
16 *745:24 *746:6 0.000317553
17 *745:24 *813:48 1.78098e-05
18 *745:24 *961:23 9.6103e-05
19 *745:24 *961:27 0.000428036
20 *745:24 *962:51 0.000535313
21 *4794:B *745:24 0.000111065
22 *726:21 *745:8 0
23 *730:10 *745:24 0.000274078
24 *737:10 *745:24 0.000271093
*RES
1 *4806:Y *745:8 43.7793 
2 *745:8 *745:24 44.8079 
3 *745:24 *4808:A 23 
4 *745:24 *4825:A2 27.9507 
*END

*D_NET *746 0.000975129
*CONN
*I *4808:B I *D sky130_fd_sc_hd__nor2_1
*I *4825:A1 I *D sky130_fd_sc_hd__o211ai_2
*I *4807:X O *D sky130_fd_sc_hd__o41a_1
*CAP
1 *4808:B 2.14194e-05
2 *4825:A1 6.62628e-05
3 *4807:X 0.0001725
4 *746:6 0.000260183
5 *4825:A2 *4808:B 5.90675e-06
6 *4825:A2 *4825:A1 8.1796e-05
7 *4825:A2 *746:6 4.95081e-05
8 *745:24 *746:6 0.000317553
*RES
1 *4807:X *746:6 27.4329 
2 *746:6 *4825:A1 24.5743 
3 *746:6 *4808:B 23.4971 
*END

*D_NET *747 0.00179118
*CONN
*I *4813:A I *D sky130_fd_sc_hd__xnor2_1
*I *4817:A1 I *D sky130_fd_sc_hd__o21ba_1
*I *4808:Y O *D sky130_fd_sc_hd__nor2_1
*CAP
1 *4813:A 0.000462564
2 *4817:A1 0.000145038
3 *4808:Y 0.000260922
4 *747:8 0.000868524
5 *4813:A *752:10 5.41288e-05
6 *4813:A *838:124 0
7 *747:8 *838:124 0
*RES
1 *4808:Y *747:8 42.7229 
2 *747:8 *4817:A1 40.5271 
3 *747:8 *4813:A 46.7829 
*END

*D_NET *748 0.000734483
*CONN
*I *4817:B1_N I *D sky130_fd_sc_hd__o21ba_1
*I *4811:A I *D sky130_fd_sc_hd__or2_1
*I *4809:X O *D sky130_fd_sc_hd__and2_1
*CAP
1 *4817:B1_N 0
2 *4811:A 0
3 *4809:X 9.28305e-05
4 *748:19 0.000151583
5 *748:6 0.000244414
6 *748:6 *749:10 5.50049e-05
7 *748:19 *4812:A 4.21594e-06
8 *748:19 *4813:B 3.84694e-05
9 *748:19 *750:10 5.44006e-05
10 *748:19 *849:12 9.35649e-05
*RES
1 *4809:X *748:6 24.5743 
2 *748:6 *4811:A 23 
3 *748:6 *748:19 34.2879 
4 *748:19 *4817:B1_N 23 
*END

*D_NET *749 0.000660061
*CONN
*I *4811:B I *D sky130_fd_sc_hd__or2_1
*I *4810:Y O *D sky130_fd_sc_hd__nor2_1
*CAP
1 *4811:B 0
2 *4810:Y 0.00021261
3 *749:10 0.00021261
4 *749:10 *4810:B 9.58714e-05
5 *749:10 *817:14 2.4754e-05
6 *749:10 *961:52 5.3304e-05
7 *749:10 *961:65 5.90675e-06
8 *748:6 *749:10 5.50049e-05
*RES
1 *4810:Y *749:10 27.1221 
2 *749:10 *4811:B 23 
*END

*D_NET *750 0.00176886
*CONN
*I *4813:B I *D sky130_fd_sc_hd__xnor2_1
*I *4817:A2 I *D sky130_fd_sc_hd__o21ba_1
*I *4812:A I *D sky130_fd_sc_hd__inv_2
*I *4811:X O *D sky130_fd_sc_hd__or2_1
*CAP
1 *4813:B 0.000118014
2 *4817:A2 0
3 *4812:A 0.000196632
4 *4811:X 9.01449e-05
5 *750:10 0.000254553
6 *750:8 0.000266079
7 *4812:A *751:10 7.05498e-05
8 *4812:A *838:124 0.000197479
9 *4812:A *849:12 0
10 *4813:B *838:124 0.000308661
11 *4813:B *849:12 0
12 *750:10 *838:124 0.000169665
13 *748:19 *4812:A 4.21594e-06
14 *748:19 *4813:B 3.84694e-05
15 *748:19 *750:10 5.44006e-05
*RES
1 *4811:X *750:8 39.0979 
2 *750:8 *750:10 2.25786 
3 *750:10 *4812:A 42.6607 
4 *750:10 *4817:A2 38 
5 *750:8 *4813:B 42.0186 
*END

*D_NET *751 0.000848879
*CONN
*I *4825:B1 I *D sky130_fd_sc_hd__o211ai_2
*I *4812:Y O *D sky130_fd_sc_hd__inv_2
*CAP
1 *4825:B1 0
2 *4812:Y 0.000361104
3 *751:10 0.000361104
4 *751:10 *838:124 5.61207e-05
5 *751:10 *849:12 0
6 *4812:A *751:10 7.05498e-05
*RES
1 *4812:Y *751:10 43.7379 
2 *751:10 *4825:B1 38 
*END

*D_NET *752 0.000738849
*CONN
*I *4814:B I *D sky130_fd_sc_hd__nand2_1
*I *4813:Y O *D sky130_fd_sc_hd__xnor2_1
*CAP
1 *4814:B 0
2 *4813:Y 0.000340252
3 *752:10 0.000340252
4 *752:10 *779:56 0
5 *752:10 *838:124 0
6 *752:10 *970:114 4.21594e-06
7 *4813:A *752:10 5.41288e-05
*RES
1 *4813:Y *752:10 43.6136 
2 *752:10 *4814:B 38 
*END

*D_NET *753 0.00213456
*CONN
*I *4815:C1 I *D sky130_fd_sc_hd__o211a_1
*I *4814:Y O *D sky130_fd_sc_hd__nand2_1
*CAP
1 *4815:C1 0
2 *4814:Y 0.000410889
3 *753:8 0.000410889
4 *753:8 *4815:A1 0.00114258
5 *753:8 *4815:A2 0.000100857
6 *753:8 *816:47 2.54193e-05
7 *219:10 *753:8 4.39278e-05
*RES
1 *4814:Y *753:8 36.3814 
2 *753:8 *4815:C1 23 
*END

*D_NET *754 0.00142247
*CONN
*I *4825:C1 I *D sky130_fd_sc_hd__o211ai_2
*I *4818:A I *D sky130_fd_sc_hd__xor2_1
*I *4816:X O *D sky130_fd_sc_hd__xor2_1
*CAP
1 *4825:C1 8.68646e-05
2 *4818:A 0
3 *4816:X 0.000271
4 *754:12 8.68646e-05
5 *754:10 0.000271
6 *4825:C1 *762:8 4.9346e-05
7 *754:10 *4816:B 0.000264564
8 *754:10 *849:12 9.92975e-05
9 *754:10 *961:35 4.17736e-05
10 *754:10 *961:50 0.00019075
11 *754:10 *970:100 6.00136e-06
12 *183:49 *754:10 5.50106e-05
*RES
1 *4816:X *754:10 44.4421 
2 *754:10 *754:12 15 
3 *754:12 *4818:A 23 
4 *754:12 *4825:C1 24.5743 
*END

*D_NET *755 0.000979066
*CONN
*I *4818:B I *D sky130_fd_sc_hd__xor2_1
*I *4817:X O *D sky130_fd_sc_hd__o21ba_1
*CAP
1 *4818:B 0
2 *4817:X 0.000221958
3 *755:10 0.000221958
4 *755:10 *849:12 0.00035476
5 *755:10 *961:50 0.00018039
*RES
1 *4817:X *755:10 43.8207 
2 *755:10 *4818:B 38 
*END

*D_NET *756 0.00231451
*CONN
*I *4820:A2 I *D sky130_fd_sc_hd__a211oi_1
*I *4818:X O *D sky130_fd_sc_hd__xor2_1
*CAP
1 *4820:A2 0.000388895
2 *4818:X 0.000186521
3 *756:8 0.000575416
4 *4820:A2 *1002:30 0.000490778
5 *756:8 *970:19 1.01436e-05
6 *756:8 *970:100 0.000442177
7 *198:10 *756:8 0.00022058
*RES
1 *4818:X *756:8 44.1314 
2 *756:8 *4820:A2 47.6736 
*END

*D_NET *757 0.000660062
*CONN
*I *4820:B1 I *D sky130_fd_sc_hd__a211oi_1
*I *4819:Y O *D sky130_fd_sc_hd__nor2_1
*CAP
1 *4820:B1 0
2 *4819:Y 0.000254959
3 *757:10 0.000254959
4 *757:10 *4819:B 3.94906e-05
5 *757:10 *779:39 1.94693e-05
6 *4915:D *757:10 4.9054e-06
7 *158:8 *757:10 8.62783e-05
*RES
1 *4819:Y *757:10 41.7286 
2 *757:10 *4820:B1 38 
*END

*D_NET *758 0.000398971
*CONN
*I *4823:A I *D sky130_fd_sc_hd__nor2_1
*I *4821:Y O *D sky130_fd_sc_hd__nor2_1
*CAP
1 *4823:A 0
2 *4821:Y 0.000161847
3 *758:10 0.000161847
4 *758:10 *4822:A 2.93747e-05
5 *758:10 *761:14 0
6 *758:10 *1009:117 4.59027e-05
*RES
1 *4821:Y *758:10 40.8793 
2 *758:10 *4823:A 38 
*END

*D_NET *759 0.00191736
*CONN
*I *4834:A1 I *D sky130_fd_sc_hd__o31a_1
*I *4823:B I *D sky130_fd_sc_hd__nor2_1
*I *4833:A1 I *D sky130_fd_sc_hd__o21ai_1
*I *4822:X O *D sky130_fd_sc_hd__and2_1
*CAP
1 *4834:A1 9.17917e-05
2 *4823:B 7.67139e-05
3 *4833:A1 0.000196357
4 *4822:X 0
5 *759:10 0.000366315
6 *759:6 0.000185036
7 *4823:B *760:10 5.37348e-06
8 *4823:B *1009:117 0.00014196
9 *4833:A1 *1009:117 0.00044107
10 *4834:A1 *4832:B 0.000140259
11 *4834:A1 *764:12 2.18409e-05
12 *4834:A1 *770:6 9.84851e-05
13 *4834:A1 *844:81 2.47097e-05
14 *4834:A1 *1009:117 2.89256e-05
15 *759:10 *844:81 5.26204e-05
16 *759:10 *1009:117 4.59027e-05
*RES
1 *4822:X *759:6 38 
2 *759:6 *759:10 17.2579 
3 *759:10 *4833:A1 27.9093 
4 *759:10 *4823:B 25.0507 
5 *759:6 *4834:A1 40.7757 
*END

*D_NET *760 0.000946685
*CONN
*I *4824:A I *D sky130_fd_sc_hd__inv_2
*I *4823:Y O *D sky130_fd_sc_hd__nor2_1
*CAP
1 *4824:A 0
2 *4823:Y 0.000426129
3 *760:10 0.000426129
4 *760:10 *761:14 8.62876e-05
5 *760:10 *765:10 0
6 *760:10 *820:16 2.76611e-06
7 *760:10 *1009:117 0
8 *4823:B *760:10 5.37348e-06
*RES
1 *4823:Y *760:10 44.2143 
2 *760:10 *4824:A 38 
*END

*D_NET *761 0.00127457
*CONN
*I *4827:B1 I *D sky130_fd_sc_hd__a21oi_1
*I *4828:B I *D sky130_fd_sc_hd__and3_1
*I *4824:Y O *D sky130_fd_sc_hd__inv_2
*CAP
1 *4827:B1 9.34592e-05
2 *4828:B 0
3 *4824:Y 0
4 *761:14 0.000337525
5 *761:4 0.000430985
6 *4827:B1 *4822:A 0
7 *4827:B1 *961:65 0
8 *4827:B1 *961:77 0.000104183
9 *761:14 *4828:C 3.66975e-05
10 *761:14 *765:10 0.000185428
11 *758:10 *761:14 0
12 *760:10 *761:14 8.62876e-05
*RES
1 *4824:Y *761:4 23 
2 *761:4 *761:14 36.96 
3 *761:14 *4828:B 23 
4 *761:4 *4827:B1 25.2993 
*END

*D_NET *762 0.00305417
*CONN
*I *4827:A1 I *D sky130_fd_sc_hd__a21oi_1
*I *4828:A I *D sky130_fd_sc_hd__and3_1
*I *4825:Y O *D sky130_fd_sc_hd__o211ai_2
*CAP
1 *4827:A1 0.000380268
2 *4828:A 0
3 *4825:Y 0.000630308
4 *762:10 0.000557362
5 *762:8 0.000807402
6 *4827:A1 *4826:A2 7.44257e-05
7 *4827:A1 *4827:A2 0.000141954
8 *4827:A1 *818:23 0.000130056
9 *4827:A1 *818:36 1.83564e-05
10 *4827:A1 *845:18 0
11 *4827:A1 *961:65 1.03955e-05
12 *4827:A1 *961:77 2.81138e-05
13 *762:8 *5045:A 5.70419e-05
14 *762:10 *818:23 0.000169142
15 *762:10 *845:18 0
16 *4825:C1 *762:8 4.9346e-05
*RES
1 *4825:Y *762:8 45.7679 
2 *762:8 *762:10 4.37071 
3 *762:10 *4828:A 38 
4 *762:10 *4827:A1 45.975 
*END

*D_NET *763 0.000955914
*CONN
*I *4827:A2 I *D sky130_fd_sc_hd__a21oi_1
*I *4828:C I *D sky130_fd_sc_hd__and3_1
*I *4826:Y O *D sky130_fd_sc_hd__o21ai_1
*CAP
1 *4827:A2 8.82481e-05
2 *4828:C 0.000178123
3 *4826:Y 0
4 *763:6 0.000266371
5 *4827:A2 *765:10 0
6 *4827:A2 *818:23 4.43717e-05
7 *4827:A2 *961:65 2.18409e-05
8 *4827:A2 *961:77 0.00010018
9 *4828:C *765:10 0
10 *4828:C *818:23 7.8128e-05
11 *4827:A1 *4827:A2 0.000141954
12 *761:14 *4828:C 3.66975e-05
*RES
1 *4826:Y *763:6 38 
2 *763:6 *4828:C 41.4386 
3 *763:6 *4827:A2 40.7757 
*END

*D_NET *764 0.00338659
*CONN
*I *4829:A I *D sky130_fd_sc_hd__or2_4
*I *4834:A2 I *D sky130_fd_sc_hd__o31a_1
*I *4833:A2 I *D sky130_fd_sc_hd__o21ai_1
*I *4827:Y O *D sky130_fd_sc_hd__a21oi_1
*CAP
1 *4829:A 0
2 *4834:A2 0
3 *4833:A2 0.000276371
4 *4827:Y 3.9418e-05
5 *764:36 9.13486e-05
6 *764:12 0.000918842
7 *764:6 0.000773237
8 *4833:A2 *844:81 0.000114083
9 *4833:A2 *1009:117 0.000176355
10 *4833:A2 *1010:146 5.31444e-05
11 *764:6 *961:77 4.50889e-05
12 *764:12 *4832:B 2.764e-05
13 *764:12 *770:6 0.000139352
14 *764:12 *844:81 0.000114083
15 *764:12 *961:77 0.000445374
16 *764:12 *961:79 6.9805e-05
17 *764:12 *1010:146 2.49836e-05
18 *764:36 *765:10 5.56203e-05
19 *764:36 *818:36 0
20 *764:36 *820:16 0
21 *4834:A1 *764:12 2.18409e-05
*RES
1 *4827:Y *764:6 23.6525 
2 *764:6 *764:12 25.7507 
3 *764:12 *4833:A2 43.0336 
4 *764:12 *4834:A2 38 
5 *764:6 *764:36 31.9057 
6 *764:36 *4829:A 23 
*END

*D_NET *765 0.00102294
*CONN
*I *4829:B I *D sky130_fd_sc_hd__or2_4
*I *4828:X O *D sky130_fd_sc_hd__and3_1
*CAP
1 *4829:B 0
2 *4828:X 0.000390945
3 *765:10 0.000390945
4 *765:10 *818:36 0
5 *4827:A2 *765:10 0
6 *4828:C *765:10 0
7 *760:10 *765:10 0
8 *761:14 *765:10 0.000185428
9 *764:36 *765:10 5.56203e-05
*RES
1 *4828:X *765:10 44.4214 
2 *765:10 *4829:B 38 
*END

*D_NET *766 0.00141167
*CONN
*I *4831:A1 I *D sky130_fd_sc_hd__a211oi_2
*I *4829:X O *D sky130_fd_sc_hd__or2_4
*CAP
1 *4831:A1 0.000198192
2 *4829:X 0.000220502
3 *766:8 0.000418694
4 *4831:A1 *4830:A 0.00010018
5 *4831:A1 *767:8 5.1957e-05
6 *4831:A1 *839:131 0.000131304
7 *4831:A1 *1009:121 5.50106e-05
8 *766:8 *4914:CLK 1.01436e-05
9 *766:8 *820:16 0.000225691
*RES
1 *4829:X *766:8 43.7793 
2 *766:8 *4831:A1 42.93 
*END

*D_NET *767 0.000638345
*CONN
*I *4831:B1 I *D sky130_fd_sc_hd__a211oi_2
*I *4830:Y O *D sky130_fd_sc_hd__nor2_1
*CAP
1 *4831:B1 0
2 *4830:Y 0.000202274
3 *767:8 0.000202274
4 *767:8 *4830:A 8.6949e-05
5 *767:8 *839:131 3.98818e-05
6 *767:8 *1009:121 5.50106e-05
7 *4831:A1 *767:8 5.1957e-05
*RES
1 *4830:Y *767:8 27.4536 
2 *767:8 *4831:B1 23 
*END

*D_NET *768 0.000987473
*CONN
*I *4834:A3 I *D sky130_fd_sc_hd__o31a_1
*I *4833:B1 I *D sky130_fd_sc_hd__o21ai_1
*I *4832:Y O *D sky130_fd_sc_hd__xnor2_1
*CAP
1 *4834:A3 8.85596e-05
2 *4833:B1 0
3 *4832:Y 0
4 *768:12 0.000229669
5 *768:4 0.000318229
6 *4834:A3 *4832:B 0.000184527
7 *768:12 *4832:A 1.24376e-05
8 *768:12 *4832:B 0.000143655
9 *768:12 *769:10 0
10 *768:12 *770:6 1.03955e-05
11 *768:12 *1002:78 0
12 *768:12 *1010:146 0
*RES
1 *4832:Y *768:4 23 
2 *768:4 *768:12 34.3086 
3 *768:12 *4833:B1 23 
4 *768:4 *4834:A3 25.0507 
*END

*D_NET *769 0.000823942
*CONN
*I *4836:A1 I *D sky130_fd_sc_hd__a211oi_1
*I *4833:Y O *D sky130_fd_sc_hd__o21ai_1
*CAP
1 *4836:A1 0
2 *4833:Y 0.000318581
3 *769:10 0.000318581
4 *769:10 *771:10 4.08641e-05
5 *769:10 *1002:78 2.04774e-05
6 *769:10 *1002:95 1.19692e-05
7 *769:10 *1009:117 0.000113468
8 *768:12 *769:10 0
*RES
1 *4833:Y *769:10 43.2614 
2 *769:10 *4836:A1 38 
*END

*D_NET *770 0.00120623
*CONN
*I *4836:A2 I *D sky130_fd_sc_hd__a211oi_1
*I *4834:X O *D sky130_fd_sc_hd__o31a_1
*CAP
1 *4836:A2 0
2 *4834:X 0.000319572
3 *770:6 0.000319572
4 *770:6 *4832:A 0.00010655
5 *770:6 *4832:B 0.000212309
6 *4834:A1 *770:6 9.84851e-05
7 *764:12 *770:6 0.000139352
8 *768:12 *770:6 1.03955e-05
*RES
1 *4834:X *770:6 30.7679 
2 *770:6 *4836:A2 23 
*END

*D_NET *771 0.000547059
*CONN
*I *4836:B1 I *D sky130_fd_sc_hd__a211oi_1
*I *4835:Y O *D sky130_fd_sc_hd__nor2_1
*CAP
1 *4836:B1 0
2 *4835:Y 0.000187946
3 *771:10 0.000187946
4 *771:10 *4835:B 1.59094e-05
5 *771:10 *1002:78 8.62876e-05
6 *771:10 *1009:117 2.81066e-05
7 *769:10 *771:10 4.08641e-05
*RES
1 *4835:Y *771:10 40.7757 
2 *771:10 *4836:B1 38 
*END

*D_NET *772 0.0467825
*CONN
*I *4923:A I *D sky130_fd_sc_hd__clkbuf_16
*I *4924:A I *D sky130_fd_sc_hd__clkbuf_16
*I *4925:A I *D sky130_fd_sc_hd__clkbuf_16
*I *4926:A I *D sky130_fd_sc_hd__clkbuf_16
*I *4922:A I *D sky130_fd_sc_hd__clkbuf_16
*I *4921:A I *D sky130_fd_sc_hd__clkbuf_16
*I *4919:A I *D sky130_fd_sc_hd__clkbuf_16
*I *4920:A I *D sky130_fd_sc_hd__clkbuf_16
*I *4918:X O *D sky130_fd_sc_hd__clkbuf_16
*CAP
1 *4923:A 0.000342965
2 *4924:A 0.000114036
3 *4925:A 7.75144e-05
4 *4926:A 0.000249848
5 *4922:A 0
6 *4921:A 0
7 *4919:A 0.000412262
8 *4920:A 0
9 *4918:X 0.000552171
10 *772:118 0.000528097
11 *772:114 0.00413008
12 *772:94 0.000864876
13 *772:86 0.00183921
14 *772:54 0.00045036
15 *772:48 0.00238316
16 *772:46 0.0027402
17 *772:38 0.00335767
18 *772:28 0.00286075
19 *772:16 0.00202444
20 *772:14 0.00128152
21 *772:6 0.00589268
22 *4919:A *4382:B 9.41704e-05
23 *4923:A *777:95 0.000609704
24 *4923:A *846:47 7.91596e-05
25 *4923:A *846:62 1.17152e-05
26 *4923:A *847:82 0.000807077
27 *4925:A *962:59 0.00025214
28 *4925:A *1002:26 1.22906e-05
29 *4926:A *4788:A1 0.000395895
30 *4926:A *813:48 0.000224605
31 *4926:A *962:38 5.3304e-05
32 *4926:A *962:51 0.00033226
33 *772:14 *832:29 0.000114083
34 *772:14 *838:124 0
35 *772:14 *849:14 0
36 *772:28 *832:23 0.000109125
37 *772:28 *835:35 0.000225393
38 *772:28 *849:14 0
39 *772:48 *4195:A1 0.000379631
40 *772:48 *4303:A2 7.75329e-06
41 *772:48 *859:29 0.000130771
42 *772:48 *973:35 0.000181943
43 *772:48 *973:41 0.00124707
44 *772:48 *988:66 0.000845248
45 *772:48 *988:102 0.000103009
46 *772:48 *997:97 8.62783e-05
47 *772:48 *1007:136 0.000166095
48 *772:54 *4427:B 6.22866e-05
49 *772:54 *4473:A2 5.3304e-05
50 *772:54 *973:41 0.000447942
51 *772:54 *988:55 0.000233742
52 *772:54 *988:66 3.70094e-05
53 *772:54 *990:18 5.50049e-05
54 *772:54 *990:44 1.40281e-05
55 *772:54 *993:70 6.02277e-06
56 *772:54 *995:48 9.202e-05
57 *772:54 *995:56 0.000290634
58 *772:54 *995:110 4.17736e-05
59 *772:86 *832:23 1.59094e-05
60 *772:86 *845:43 0.000525417
61 *772:86 *853:10 0.000209375
62 *772:86 *961:23 5.80382e-05
63 *772:86 *968:97 0
64 *772:86 *970:27 0.000440776
65 *772:86 *970:31 1.83667e-05
66 *772:94 *4795:A1 0.000139764
67 *772:94 *835:54 0.000247435
68 *772:94 *1002:26 4.96264e-05
69 *772:114 *1012:23 7.88926e-05
70 *772:114 *1012:36 1.40958e-05
71 *772:118 *846:47 9.74132e-05
72 *772:118 *847:82 0.000195238
73 *4358:C *772:38 0.000274078
74 *4401:B *772:38 0.000453393
75 *4448:B *772:38 4.75087e-05
76 *4448:C *772:38 5.50049e-05
77 *4451:A1 *772:38 9.84794e-05
78 *4451:A2 *772:38 0.00010018
79 *4493:A1 *772:6 0.00022295
80 *4493:A1 *772:114 7.42621e-05
81 *4493:A2 *772:6 2.92911e-06
82 *4585:A1 *772:114 9.91895e-05
83 *4586:A *772:114 3.58358e-05
84 *4587:B *772:114 7.06229e-05
85 *4788:B1_N *4926:A 8.60475e-05
86 *4796:B2 *4926:A 5.50049e-05
87 *180:96 *772:48 5.31444e-05
88 *194:12 *772:46 0
89 *194:12 *772:48 0
90 *196:10 *772:48 0.000450955
91 *200:8 *772:86 3.7122e-06
92 *200:10 *772:86 0.00044143
93 *261:8 *772:48 0.000141879
94 *264:8 *772:48 0.000301419
95 *264:21 *772:48 0.00026189
96 *264:29 *772:46 2.64616e-05
97 *266:10 *772:46 0.000110913
98 *266:10 *772:48 0.000187996
99 *266:23 *772:46 3.82058e-06
100 *267:10 *772:46 0
101 *319:14 *772:38 4.95081e-05
102 *320:6 *772:38 5.67058e-05
103 *320:38 *772:38 0.000476518
104 *321:10 *772:38 0.00010018
105 *343:12 *4919:A 1.61361e-05
106 *343:12 *772:54 2.34364e-05
107 *343:21 *4919:A 6.17437e-06
108 *372:23 *772:28 0
109 *386:8 *772:54 0.000345295
110 *408:6 *772:38 0.000243083
111 *409:6 *772:38 0.000143655
112 *411:23 *772:14 6.96146e-05
113 *412:24 *772:28 0
114 *414:8 *772:14 4.16764e-05
115 *415:8 *772:14 0.000114083
116 *416:10 *772:14 0.000301137
117 *416:16 *772:14 0.000291435
118 *452:6 *772:114 7.33805e-05
119 *452:15 *772:114 1.39317e-05
120 *454:8 *772:14 0
121 *454:18 *772:14 2.04774e-05
122 *542:8 *772:114 0.000269775
123 *729:10 *4925:A 0.000265339
124 *729:10 *772:94 0.000110922
125 *737:10 *772:86 8.21123e-05
126 *745:24 *4926:A 1.41077e-05
*RES
1 *4918:X *772:6 30.7679 
2 *772:6 *772:14 42.6743 
3 *772:14 *772:16 15 
4 *772:16 *772:28 42.18 
5 *772:28 *772:38 46.9179 
6 *772:38 *772:46 31.0121 
7 *772:46 *772:48 45.2193 
8 *772:48 *772:54 27.5114 
9 *772:54 *4920:A 23 
10 *772:48 *4919:A 44.3386 
11 *772:46 *4921:A 38 
12 *772:38 *4922:A 23 
13 *772:16 *772:86 46.03 
14 *772:86 *772:94 37.8921 
15 *772:94 *4926:A 46.2443 
16 *772:94 *4925:A 41.6664 
17 *772:6 *772:114 53.9814 
18 *772:114 *772:118 17.61 
19 *772:118 *4924:A 39.5743 
20 *772:118 *4923:A 49.0614 
*END

*D_NET *773 0.0147508
*CONN
*I *4886:CLK I *D sky130_fd_sc_hd__dfxtp_1
*I *4839:CLK I *D sky130_fd_sc_hd__dfxtp_1
*I *4927:A I *D sky130_fd_sc_hd__clkinv_4
*I *4846:CLK I *D sky130_fd_sc_hd__dfxtp_1
*I *4887:CLK I *D sky130_fd_sc_hd__dfxtp_1
*I *4847:CLK I *D sky130_fd_sc_hd__dfxtp_1
*I *4838:CLK I *D sky130_fd_sc_hd__dfxtp_1
*I *4880:CLK I *D sky130_fd_sc_hd__dfxtp_1
*I *4881:CLK I *D sky130_fd_sc_hd__dfxtp_2
*I *4919:X O *D sky130_fd_sc_hd__clkbuf_16
*CAP
1 *4886:CLK 0.000268027
2 *4839:CLK 0.000111176
3 *4927:A 2.34823e-05
4 *4846:CLK 0
5 *4887:CLK 0.000499509
6 *4847:CLK 0
7 *4838:CLK 0.000102506
8 *4880:CLK 2.79296e-05
9 *4881:CLK 0
10 *4919:X 0
11 *773:85 0.000379203
12 *773:53 0.00110355
13 *773:47 0.000866361
14 *773:18 0.0011186
15 *773:14 0.00191831
16 *773:12 0.000927722
17 *773:10 0.000901053
18 *773:6 0.000826316
19 *773:4 0.00021753
20 *4839:CLK *841:94 0.000192087
21 *4839:CLK *866:25 0
22 *4886:CLK *841:94 0.000421708
23 *4886:CLK *866:25 0
24 *4886:CLK *1005:17 0
25 *4886:CLK *1010:101 0.000182832
26 *4887:CLK *841:22 0
27 *4887:CLK *844:33 5.12328e-05
28 *4887:CLK *844:35 0.000204868
29 *4887:CLK *869:10 0
30 *4887:CLK *1010:52 0
31 *773:6 *1007:23 5.37348e-06
32 *773:10 *781:12 0.00026614
33 *773:10 *1007:12 1.83408e-05
34 *773:10 *1007:23 4.27419e-05
35 *773:12 *841:39 0.000188256
36 *773:12 *986:44 0.000195248
37 *773:14 *4971:A 0.000224345
38 *773:14 *840:10 0
39 *773:14 *840:12 0
40 *773:14 *841:39 1.14452e-05
41 *773:14 *841:43 0.000934716
42 *773:14 *841:53 0
43 *773:14 *986:21 0.000132665
44 *773:14 *986:44 0.00112984
45 *773:18 *4162:A1 0
46 *773:18 *4256:A1 0
47 *773:18 *4257:A 0
48 *773:18 *840:12 0
49 *773:18 *840:14 0
50 *773:47 *841:37 0.000195248
51 *773:47 *841:39 2.55642e-05
52 *773:47 *986:44 0.000223043
53 *773:53 *4179:A2 0
54 *773:53 *839:23 0
55 *773:53 *844:35 0.000235568
56 *773:53 *869:10 0
57 *4157:B *4838:CLK 0.000144501
58 *4162:S *773:18 0
59 *4846:D *773:53 1.64354e-05
60 *4880:D *4880:CLK 5.50049e-05
61 *4887:D *4887:CLK 0.000185123
62 *130:8 *4887:CLK 3.56537e-05
63 *170:12 *773:14 0
64 *170:27 *773:14 0
65 *170:27 *773:18 0
66 *174:10 *773:18 0
67 *181:38 *4886:CLK 9.91895e-05
68 *228:10 *773:18 0
69 *233:10 *4886:CLK 4.23714e-05
*RES
1 *4919:X *773:4 23 
2 *773:4 *773:6 3.48 
3 *773:6 *773:10 24.6736 
4 *773:10 *773:12 2.61 
5 *773:12 *773:14 23.0343 
6 *773:14 *773:18 34.5129 
7 *773:18 *4881:CLK 23 
8 *773:14 *4880:CLK 38.6214 
9 *773:12 *4838:CLK 40.0507 
10 *773:10 *773:47 20.9657 
11 *773:47 *773:53 26.9521 
12 *773:53 *4847:CLK 38 
13 *773:53 *4887:CLK 49.7243 
14 *773:47 *4846:CLK 23 
15 *773:6 *4927:A 23.4971 
16 *773:4 *773:85 15 
17 *773:85 *4839:CLK 40.61 
18 *773:85 *4886:CLK 45.83 
*END

*D_NET *774 0.0227459
*CONN
*I *4928:A I *D sky130_fd_sc_hd__clkbuf_8
*I *4879:CLK I *D sky130_fd_sc_hd__dfxtp_1
*I *4842:CLK I *D sky130_fd_sc_hd__dfxtp_1
*I *4845:CLK I *D sky130_fd_sc_hd__dfxtp_2
*I *4884:CLK I *D sky130_fd_sc_hd__dfxtp_1
*I *4844:CLK I *D sky130_fd_sc_hd__dfxtp_1
*I *4885:CLK I *D sky130_fd_sc_hd__dfxtp_2
*I *4882:CLK I *D sky130_fd_sc_hd__dfxtp_1
*I *4841:CLK I *D sky130_fd_sc_hd__dfxtp_1
*I *4878:CLK I *D sky130_fd_sc_hd__dfxtp_4
*I *4840:CLK I *D sky130_fd_sc_hd__dfxtp_1
*I *4883:CLK I *D sky130_fd_sc_hd__dfxtp_1
*I *4843:CLK I *D sky130_fd_sc_hd__dfxtp_1
*I *4920:X O *D sky130_fd_sc_hd__clkbuf_16
*CAP
1 *4928:A 0.000223492
2 *4879:CLK 0
3 *4842:CLK 0
4 *4845:CLK 0
5 *4884:CLK 7.016e-05
6 *4844:CLK 0
7 *4885:CLK 0
8 *4882:CLK 0
9 *4841:CLK 0
10 *4878:CLK 0
11 *4840:CLK 0.000561345
12 *4883:CLK 0.000333515
13 *4843:CLK 0
14 *4920:X 4.55529e-05
15 *774:119 0.000460295
16 *774:113 0.00111117
17 *774:104 0.00118352
18 *774:100 0.00122432
19 *774:89 0.000809586
20 *774:80 0.000616758
21 *774:68 0.00128906
22 *774:64 0.000847402
23 *774:44 0.000701956
24 *774:42 0.000788364
25 *774:40 0.00096298
26 *774:18 0.000487705
27 *774:12 0.00120697
28 *774:10 0.00111874
29 *774:8 0.000323631
30 *4840:CLK *4988:A 5.94735e-05
31 *4840:CLK *841:53 6.343e-05
32 *4840:CLK *841:60 4.27352e-05
33 *4840:CLK *841:69 4.40271e-05
34 *4840:CLK *852:6 0.000644935
35 *4884:CLK *975:31 3.7122e-06
36 *4928:A *790:8 2.47097e-05
37 *4928:A *859:8 7.24484e-05
38 *4928:A *975:101 0.000107651
39 *4928:A *975:105 9.84851e-05
40 *4928:A *975:113 0
41 *774:8 *988:21 2.93747e-05
42 *774:10 *790:8 2.26489e-05
43 *774:10 *975:101 3.83778e-05
44 *774:12 *790:8 1.19692e-05
45 *774:12 *975:101 0.000335017
46 *774:18 *4261:A 2.70366e-05
47 *774:18 *840:53 0.000125802
48 *774:18 *975:101 0.000428514
49 *774:18 *978:10 8.62783e-05
50 *774:18 *978:20 0.000240435
51 *774:40 *841:112 7.52861e-05
52 *774:42 *841:69 5.42593e-05
53 *774:42 *841:101 0.000102313
54 *774:42 *841:112 2.80512e-05
55 *774:42 *852:6 0.000136851
56 *774:44 *841:69 9.77744e-05
57 *774:44 *852:6 0.000242879
58 *774:64 *784:17 0.00085478
59 *774:64 *1004:35 0.000244517
60 *774:68 *784:17 0.000552982
61 *774:68 *1000:12 0.000169683
62 *774:80 *884:12 0.000252859
63 *774:80 *1000:12 0.00023506
64 *774:89 *840:92 4.75206e-05
65 *774:89 *1000:12 4.17736e-05
66 *774:100 *840:55 0
67 *774:100 *840:57 0
68 *774:100 *840:92 0.000264332
69 *774:104 *840:57 0
70 *774:104 *840:61 0
71 *774:113 *4262:A1 0.000100477
72 *774:119 *4168:A1 0.000314975
73 *774:119 *4979:A 0.000190227
74 *774:119 *977:12 0
75 *4162:S *774:68 0
76 *4162:S *774:80 7.03663e-05
77 *4167:B *774:18 5.67058e-05
78 *4253:B *774:42 5.50049e-05
79 *4262:S *774:113 0.00026679
80 *4840:D *4840:CLK 1.64354e-05
81 *4843:D *774:18 5.50106e-05
82 *4878:D *4840:CLK 5.79559e-05
83 *4878:D *774:44 0.000131713
84 *4879:D *774:40 3.01878e-05
85 *4879:D *774:42 3.22879e-05
86 *4882:D *774:89 2.4754e-05
87 *4882:D *774:100 0.000129006
88 *4883:D *4883:CLK 8.90341e-05
89 *4885:D *774:113 0.000104849
90 *85:8 *774:68 3.81391e-05
91 *88:8 *774:104 3.46181e-05
92 *126:8 *774:18 0
93 *177:8 *774:119 6.6869e-05
94 *224:10 *774:64 6.61686e-06
95 *224:16 *774:64 0.000201454
96 *224:44 *774:100 0
97 *224:46 *774:100 0
98 *224:46 *774:104 0
99 *224:56 *774:104 0
100 *224:56 *774:113 0.000397938
*RES
1 *4920:X *774:8 38.6214 
2 *774:8 *774:10 1.20143 
3 *774:10 *774:12 8.94857 
4 *774:12 *774:18 27.3871 
5 *774:18 *4843:CLK 23 
6 *774:12 *4883:CLK 43.8829 
7 *774:10 *774:40 24.57 
8 *774:40 *774:42 6.815 
9 *774:42 *774:44 4.90929 
10 *774:44 *4840:CLK 38.08 
11 *774:44 *4878:CLK 23 
12 *774:42 *774:64 26.7657 
13 *774:64 *774:68 26.0614 
14 *774:68 *774:80 41.1443 
15 *774:80 *4841:CLK 23 
16 *774:68 *774:89 3.97714 
17 *774:89 *4882:CLK 23 
18 *774:89 *774:100 27.5943 
19 *774:100 *774:104 26.4136 
20 *774:104 *4885:CLK 23 
21 *774:104 *774:113 13.9821 
22 *774:113 *774:119 41.0614 
23 *774:119 *4844:CLK 23 
24 *774:113 *4884:CLK 24.0979 
25 *774:100 *4845:CLK 38 
26 *774:64 *4842:CLK 38 
27 *774:40 *4879:CLK 23 
28 *774:8 *4928:A 43.365 
*END

*D_NET *775 0.0157663
*CONN
*I *4929:A I *D sky130_fd_sc_hd__clkinv_4
*I *4851:CLK I *D sky130_fd_sc_hd__dfxtp_1
*I *4890:CLK I *D sky130_fd_sc_hd__dfxtp_1
*I *4850:CLK I *D sky130_fd_sc_hd__dfxtp_1
*I *4837:CLK I *D sky130_fd_sc_hd__dfxtp_1
*I *4889:CLK I *D sky130_fd_sc_hd__dfxtp_1
*I *4849:CLK I *D sky130_fd_sc_hd__dfxtp_1
*I *4888:CLK I *D sky130_fd_sc_hd__dfxtp_1
*I *4848:CLK I *D sky130_fd_sc_hd__dfxtp_1
*I *4921:X O *D sky130_fd_sc_hd__clkbuf_16
*CAP
1 *4929:A 0
2 *4851:CLK 0
3 *4890:CLK 0.000280615
4 *4850:CLK 0
5 *4837:CLK 0.000647602
6 *4889:CLK 0
7 *4849:CLK 2.81701e-05
8 *4888:CLK 0.00032157
9 *4848:CLK 0.000405656
10 *4921:X 0
11 *775:116 0.000213443
12 *775:89 0.00074158
13 *775:70 0.00138792
14 *775:59 0.000769162
15 *775:26 0.00107601
16 *775:22 0.00128776
17 *775:16 0.00150259
18 *775:14 0.000824753
19 *775:4 0.000936226
20 *4837:CLK *4191:C1 5.3304e-05
21 *4837:CLK *829:10 6.00325e-05
22 *4848:CLK *4184:A1 0.000276679
23 *4848:CLK *4185:C1 0.000218593
24 *4848:CLK *819:23 2.3529e-05
25 *4848:CLK *839:40 0
26 *4848:CLK *908:10 0.000191148
27 *4848:CLK *1010:52 0
28 *4888:CLK *1010:34 0.000135037
29 *4890:CLK *4945:A 5.50049e-05
30 *4890:CLK *843:10 2.26778e-05
31 *4890:CLK *843:108 0.000278081
32 *4890:CLK *843:116 0.000162452
33 *775:14 *4186:A1 0.000407438
34 *775:14 *4186:B2 0.000406628
35 *775:14 *822:12 5.33597e-05
36 *775:14 *972:16 0.000215178
37 *775:14 *973:10 0.000193729
38 *775:22 *839:62 0
39 *775:26 *819:23 0.000114656
40 *775:26 *839:62 0
41 *775:26 *843:50 0.0002542
42 *775:26 *908:10 0.000157299
43 *775:59 *4312:A 0
44 *775:59 *839:81 0
45 *775:59 *843:16 0.000249909
46 *775:59 *843:26 0.000114083
47 *775:59 *843:28 0
48 *775:59 *843:38 0
49 *775:59 *1009:16 0
50 *775:59 *1010:18 0
51 *775:70 *843:10 3.47781e-05
52 *775:70 *843:16 0.000437527
53 *775:70 *1009:16 0
54 *775:70 *1009:42 0
55 *775:89 *4191:A1 5.67058e-05
56 *775:89 *4191:C1 0.000176497
57 *775:89 *839:93 2.02872e-05
58 *775:89 *843:10 0.000115785
59 *775:89 *874:8 1.55169e-05
60 *775:89 *1009:42 3.85155e-05
61 *775:116 *4186:A1 2.93747e-05
62 *4837:D *4837:CLK 1.64354e-05
63 *4850:D *775:89 5.73018e-05
64 *4851:D *775:16 1.78697e-05
65 *4888:D *4888:CLK 0.000230553
66 *93:8 *775:89 5.45887e-05
67 *94:8 *775:59 0.000116314
68 *132:10 *775:59 0.000141879
69 *132:10 *775:70 3.92407e-05
70 *180:8 *775:22 0
71 *180:8 *775:26 0
72 *182:68 *775:26 0
73 *191:10 *4849:CLK 2.30292e-05
74 *191:10 *775:26 7.80251e-05
75 *192:12 *775:116 0
76 *193:10 *775:70 0
77 *249:29 *775:116 0
*RES
1 *4921:X *775:4 23 
2 *775:4 *775:14 48.9329 
3 *775:14 *775:16 2.05071 
4 *775:16 *775:22 30.4529 
5 *775:22 *775:26 9.57 
6 *775:26 *4848:CLK 49.0614 
7 *775:26 *4888:CLK 44.3386 
8 *775:22 *4849:CLK 38.6214 
9 *775:16 *775:59 26.2064 
10 *775:59 *4889:CLK 38 
11 *775:59 *775:70 21.4836 
12 *775:70 *4837:CLK 34.1236 
13 *775:70 *775:89 39.6943 
14 *775:89 *4850:CLK 23 
15 *775:89 *4890:CLK 30.3121 
16 *775:14 *4851:CLK 23 
17 *775:4 *775:116 33.9357 
18 *775:116 *4929:A 23 
*END

*D_NET *776 0.0167898
*CONN
*I *4876:CLK I *D sky130_fd_sc_hd__dfxtp_1
*I *4877:CLK I *D sky130_fd_sc_hd__dfxtp_1
*I *4852:CLK I *D sky130_fd_sc_hd__dfxtp_1
*I *4917:CLK I *D sky130_fd_sc_hd__dfxtp_1
*I *4892:CLK I *D sky130_fd_sc_hd__dfxtp_1
*I *4891:CLK I *D sky130_fd_sc_hd__dfxtp_1
*I *4930:A I *D sky130_fd_sc_hd__inv_6
*I *4922:X O *D sky130_fd_sc_hd__clkbuf_16
*CAP
1 *4876:CLK 0.00144201
2 *4877:CLK 0
3 *4852:CLK 0.000173193
4 *4917:CLK 0
5 *4892:CLK 0
6 *4891:CLK 0
7 *4930:A 0
8 *4922:X 8.59126e-05
9 *776:71 0.00193895
10 *776:56 0.00118941
11 *776:45 0.000480888
12 *776:32 0.00092745
13 *776:21 0.000590785
14 *776:17 0.00134389
15 *776:8 0.000766301
16 *4876:CLK *5021:A 0.000359332
17 *776:21 *825:6 0.000278944
18 *776:21 *836:29 0.000133152
19 *776:21 *844:48 4.5051e-05
20 *776:21 *1009:55 0.000618478
21 *776:32 *5037:A 0.000180812
22 *776:32 *824:10 2.3191e-05
23 *776:32 *825:6 0.00140441
24 *776:32 *836:29 0.000323563
25 *776:45 *825:6 2.18409e-05
26 *776:45 *1002:78 0.000106516
27 *776:45 *1009:100 0.000620453
28 *776:56 *843:129 4.3407e-05
29 *776:71 *839:110 0.00111097
30 *776:71 *972:131 0.000489584
31 *4369:B *776:17 0
32 *4408:A2 *776:17 0
33 *4852:D *4852:CLK 4.9054e-06
34 *4852:D *776:56 6.343e-05
35 *4877:D *4876:CLK 1.64354e-05
36 *4891:D *776:32 8.90341e-05
37 *120:8 *776:71 4.83778e-05
38 *199:10 *776:8 0.000165593
39 *199:10 *776:17 0.0012252
40 *199:10 *776:56 0.000360427
41 *199:10 *776:71 0
42 *288:8 *776:8 0
43 *291:8 *776:8 4.334e-05
44 *291:8 *776:17 7.45997e-05
45 *294:8 *776:17 0
*RES
1 *4922:X *776:8 40.2579 
2 *776:8 *4930:A 38 
3 *776:8 *776:17 16.6957 
4 *776:17 *776:21 22.7679 
5 *776:21 *4891:CLK 23 
6 *776:21 *776:32 16.7371 
7 *776:32 *4892:CLK 23 
8 *776:32 *776:45 41.6829 
9 *776:45 *4917:CLK 23 
10 *776:17 *776:56 24.0314 
11 *776:56 *4852:CLK 25.4236 
12 *776:56 *776:71 47.7521 
13 *776:71 *4877:CLK 23 
14 *776:71 *4876:CLK 48.3129 
*END

*D_NET *777 0.0181045
*CONN
*I *4863:CLK I *D sky130_fd_sc_hd__dfxtp_1
*I *4905:CLK I *D sky130_fd_sc_hd__dfxtp_1
*I *4870:CLK I *D sky130_fd_sc_hd__dfxtp_1
*I *4866:CLK I *D sky130_fd_sc_hd__dfxtp_1
*I *4906:CLK I *D sky130_fd_sc_hd__dfxtp_2
*I *4902:CLK I *D sky130_fd_sc_hd__dfxtp_1
*I *4931:A I *D sky130_fd_sc_hd__bufinv_16
*I *4865:CLK I *D sky130_fd_sc_hd__dfxtp_1
*I *4864:CLK I *D sky130_fd_sc_hd__dfxtp_1
*I *4855:CLK I *D sky130_fd_sc_hd__dfxtp_1
*I *4904:CLK I *D sky130_fd_sc_hd__dfxtp_1
*I *4923:X O *D sky130_fd_sc_hd__clkbuf_16
*CAP
1 *4863:CLK 0
2 *4905:CLK 0
3 *4870:CLK 0
4 *4866:CLK 0
5 *4906:CLK 0
6 *4902:CLK 0
7 *4931:A 0
8 *4865:CLK 0.000392077
9 *4864:CLK 0.000389394
10 *4855:CLK 0.000240565
11 *4904:CLK 0
12 *4923:X 0.000255253
13 *777:125 0.00068503
14 *777:117 0.0013539
15 *777:102 0.00108205
16 *777:95 0.000501899
17 *777:78 0.00113639
18 *777:76 0.00115563
19 *777:70 0.000790554
20 *777:62 0.000994737
21 *777:49 0.00102249
22 *777:23 0.000839251
23 *777:21 0.000700281
24 *777:12 0.000172714
25 *777:10 0.000255253
26 *4855:CLK *838:103 1.94347e-05
27 *4855:CLK *846:29 0
28 *4855:CLK *971:70 0
29 *4864:CLK *966:84 0.000289461
30 *4865:CLK *4224:A1 0.000143655
31 *4865:CLK *4224:C1 9.84851e-05
32 *777:10 *4221:B 5.50106e-05
33 *777:10 *971:62 0.0002263
34 *777:23 *806:16 0.00019747
35 *777:23 *846:29 0
36 *777:23 *971:70 0
37 *777:49 *806:16 9.26098e-05
38 *777:49 *806:29 0
39 *777:49 *846:25 0
40 *777:49 *846:27 0
41 *777:62 *846:25 0
42 *777:62 *967:91 0
43 *777:70 *4750:A1 0
44 *777:70 *4948:A 0.000405986
45 *777:70 *807:10 2.02872e-05
46 *777:70 *833:87 0
47 *777:70 *833:95 5.4936e-05
48 *777:76 *833:87 1.0177e-05
49 *777:76 *833:95 4.5707e-05
50 *777:78 *4745:A1 0
51 *777:78 *4750:B1 6.03784e-05
52 *777:78 *833:74 0
53 *777:78 *833:95 0
54 *777:78 *847:82 0.00064159
55 *777:78 *915:10 0.000138727
56 *777:95 *4733:A2 1.32314e-05
57 *777:95 *804:8 0.000180224
58 *777:95 *846:62 8.57765e-05
59 *777:95 *847:82 9.02129e-05
60 *777:102 *833:74 0
61 *777:117 *4234:B1 0.000139346
62 *777:117 *4234:C1 5.3304e-05
63 *777:117 *809:14 0.000359332
64 *777:117 *809:81 3.84349e-05
65 *777:117 *833:74 0
66 *777:117 *967:87 0.000107338
67 *777:125 *4226:A1 0.000143655
68 *777:125 *4226:B1 5.50106e-05
69 *777:125 *4226:C1 9.84851e-05
70 *777:125 *809:81 0.000335624
71 *777:125 *896:10 4.21594e-06
72 *777:125 *970:52 1.22822e-05
73 *777:125 *970:58 5.56356e-05
74 *4733:C1 *777:95 7.49745e-06
75 *4855:D *4855:CLK 5.56279e-05
76 *4870:D *777:117 6.85658e-05
77 *4904:D *777:21 0.000129529
78 *4905:D *777:70 0.000129006
79 *4905:D *777:76 2.4754e-05
80 *4923:A *777:95 0.000609704
81 *106:8 *777:62 0.000116314
82 *145:10 *777:95 5.24356e-05
83 *149:8 *777:117 0.000132509
84 *181:60 *777:10 0
85 *181:60 *777:125 0
86 *181:71 *777:125 0
87 *211:8 *4865:CLK 0.000267457
88 *212:8 *777:125 0.000134802
89 *682:10 *777:95 0.000136486
*RES
1 *4923:X *777:10 43.6136 
2 *777:10 *777:12 15 
3 *777:12 *4904:CLK 23 
4 *777:12 *777:21 18.48 
5 *777:21 *777:23 5.42714 
6 *777:23 *4855:CLK 42.35 
7 *777:23 *4864:CLK 45.7679 
8 *777:21 *777:49 6.13143 
9 *777:49 *4865:CLK 47.1971 
10 *777:49 *777:62 20.7793 
11 *777:62 *777:70 14.6243 
12 *777:70 *777:76 17.5479 
13 *777:76 *777:78 12.1179 
14 *777:78 *4931:A 38 
15 *777:78 *777:95 28.8786 
16 *777:95 *4902:CLK 23 
17 *777:76 *777:102 7.89214 
18 *777:102 *4906:CLK 38 
19 *777:102 *777:117 28.8786 
20 *777:117 *777:125 45.0179 
21 *777:125 *4866:CLK 23 
22 *777:117 *4870:CLK 23 
23 *777:70 *4905:CLK 23 
24 *777:62 *4863:CLK 23 
*END

*D_NET *778 0.0223367
*CONN
*I *4897:CLK I *D sky130_fd_sc_hd__dfxtp_1
*I *4895:CLK I *D sky130_fd_sc_hd__dfxtp_1
*I *4896:CLK I *D sky130_fd_sc_hd__dfxtp_1
*I *4900:CLK I *D sky130_fd_sc_hd__dfxtp_1
*I *4857:CLK I *D sky130_fd_sc_hd__dfxtp_1
*I *4899:CLK I *D sky130_fd_sc_hd__dfxtp_1
*I *4859:CLK I *D sky130_fd_sc_hd__dfxtp_1
*I *4862:CLK I *D sky130_fd_sc_hd__dfxtp_1
*I *4861:CLK I *D sky130_fd_sc_hd__dfxtp_1
*I *4856:CLK I *D sky130_fd_sc_hd__dfxtp_1
*I *4860:CLK I *D sky130_fd_sc_hd__dfxtp_1
*I *4858:CLK I *D sky130_fd_sc_hd__dfxtp_1
*I *4898:CLK I *D sky130_fd_sc_hd__dfxtp_1
*I *4901:CLK I *D sky130_fd_sc_hd__dfxtp_1
*I *4924:X O *D sky130_fd_sc_hd__clkbuf_16
*CAP
1 *4897:CLK 0
2 *4895:CLK 0
3 *4896:CLK 0
4 *4900:CLK 0
5 *4857:CLK 1.39009e-05
6 *4899:CLK 0
7 *4859:CLK 9.25114e-05
8 *4862:CLK 0
9 *4861:CLK 4.24511e-05
10 *4856:CLK 6.80678e-05
11 *4860:CLK 0
12 *4858:CLK 0
13 *4898:CLK 0.000294646
14 *4901:CLK 0.000167867
15 *4924:X 0.000120942
16 *778:193 0.000373095
17 *778:182 0.000596961
18 *778:171 0.000281926
19 *778:163 0.00103523
20 *778:161 0.00160294
21 *778:141 0.000590804
22 *778:110 0.000516435
23 *778:91 0.000760076
24 *778:80 0.000477387
25 *778:71 0.000710286
26 *778:67 0.00107115
27 *778:50 0.00122395
28 *778:33 0.00133071
29 *778:31 0.000512971
30 *778:29 0.00131343
31 *778:27 0.000904269
32 *778:25 0.00197021
33 *778:8 0.000793402
34 *4857:CLK *838:22 5.67058e-05
35 *4898:CLK *4656:A1 0
36 *4898:CLK *800:14 7.59964e-05
37 *4898:CLK *1011:54 0
38 *4901:CLK *916:10 0
39 *4901:CLK *1011:133 0
40 *778:25 *846:47 0
41 *778:25 *916:10 0.00025366
42 *778:25 *1011:133 7.76364e-06
43 *778:27 *1011:38 0
44 *778:27 *1011:40 0
45 *778:27 *1011:116 0
46 *778:27 *1011:133 9.48381e-06
47 *778:29 *849:51 0.000434083
48 *778:29 *849:55 0
49 *778:29 *849:102 0
50 *778:29 *1011:40 0
51 *778:29 *1011:42 0
52 *778:31 *4210:C1 0
53 *778:31 *849:55 0
54 *778:31 *1011:42 0
55 *778:31 *1011:44 0
56 *778:31 *1011:54 0
57 *778:33 *4210:C1 0
58 *778:33 *1011:54 0
59 *778:67 *4210:A1 7.88926e-05
60 *778:67 *4210:B1 0.000185434
61 *778:67 *929:12 0
62 *778:71 *4210:B1 0
63 *778:71 *4212:A2 2.71291e-05
64 *778:71 *838:57 0.000314985
65 *778:71 *849:121 0
66 *778:80 *838:57 0.000125802
67 *778:80 *838:66 9.88678e-05
68 *778:80 *849:121 0
69 *778:91 *838:66 0.000125802
70 *778:91 *838:75 0.000102365
71 *778:110 *838:75 9.6289e-05
72 *778:110 *838:88 0.000231699
73 *778:110 *879:10 0.000141879
74 *778:141 *838:22 5.56306e-05
75 *778:141 *849:55 0
76 *778:161 *4720:A 5.70419e-05
77 *778:161 *4721:B 4.75937e-05
78 *778:161 *964:14 0.000276925
79 *778:161 *1011:133 9.69792e-05
80 *778:171 *836:76 5.26204e-05
81 *778:182 *836:76 0.000511786
82 *778:193 *4620:B1 6.16439e-05
83 *778:193 *836:76 0
84 *778:193 *849:39 0.000166522
85 *778:193 *1011:21 0.000138727
86 *778:193 *1011:34 0.000194318
87 rdata[16] *778:110 0
88 *4703:A *778:161 5.41385e-05
89 *4722:B *778:161 9.62764e-05
90 *4723:A1 *778:161 0.000267173
91 *4723:A2 *778:161 0.000236507
92 *4857:D *4857:CLK 2.93845e-05
93 *4858:D *778:67 1.64354e-05
94 *4862:D *778:110 5.67058e-05
95 *99:10 *778:80 2.76611e-06
96 *99:10 *778:91 5.61414e-05
97 *101:8 *778:67 8.50457e-05
98 *102:10 *778:71 0
99 *103:10 *778:71 4.21594e-06
100 *103:10 *778:80 5.86165e-05
101 *104:10 *778:91 4.6318e-06
102 *104:10 *778:110 8.26569e-05
103 *140:10 *778:193 1.69668e-05
104 *143:8 *778:29 0
105 *181:60 *4901:CLK 0
106 *181:60 *778:8 0
107 *181:119 *778:141 1.86022e-05
108 *656:23 *778:161 6.9805e-05
109 *657:25 *778:25 0
110 *663:21 *778:161 3.32734e-05
111 *665:10 *778:29 0.000138708
112 *671:14 *778:193 0
113 *672:8 *778:161 4.73234e-05
114 *674:6 *778:161 1.03836e-05
115 *675:8 *778:25 5.87192e-05
116 *676:8 *778:27 0
*RES
1 *4924:X *778:8 40.2579 
2 *778:8 *4901:CLK 41.3143 
3 *778:8 *778:25 39.7357 
4 *778:25 *778:27 6.48357 
5 *778:27 *778:29 10.7093 
6 *778:29 *778:31 3.66643 
7 *778:31 *778:33 5.42714 
8 *778:33 *4898:CLK 43.1579 
9 *778:33 *778:50 28.485 
10 *778:50 *4858:CLK 23 
11 *778:50 *778:67 39.1143 
12 *778:67 *778:71 26.0614 
13 *778:71 *4860:CLK 38 
14 *778:71 *778:80 5.77929 
15 *778:80 *4856:CLK 39.0979 
16 *778:80 *778:91 5.77929 
17 *778:91 *4861:CLK 38.6214 
18 *778:91 *778:110 28.2779 
19 *778:110 *4862:CLK 23 
20 *778:67 *4859:CLK 24.5743 
21 *778:31 *4899:CLK 38 
22 *778:29 *778:141 39.8393 
23 *778:141 *4857:CLK 38.6214 
24 *778:27 *4900:CLK 38 
25 *778:25 *778:161 37.5371 
26 *778:161 *778:163 2.52714 
27 *778:163 *778:171 34.785 
28 *778:171 *4896:CLK 23 
29 *778:163 *778:182 43.5264 
30 *778:182 *4895:CLK 23 
31 *778:161 *778:193 38.9486 
32 *778:193 *4897:CLK 23 
*END

*D_NET *779 0.0235219
*CONN
*I *4872:CLK I *D sky130_fd_sc_hd__dfxtp_1
*I *4854:CLK I *D sky130_fd_sc_hd__dfxtp_1
*I *4871:CLK I *D sky130_fd_sc_hd__dfxtp_1
*I *4874:CLK I *D sky130_fd_sc_hd__dfxtp_1
*I *4853:CLK I *D sky130_fd_sc_hd__dfxtp_1
*I *4875:CLK I *D sky130_fd_sc_hd__dfxtp_1
*I *4916:CLK I *D sky130_fd_sc_hd__dfxtp_1
*I *4914:CLK I *D sky130_fd_sc_hd__dfxtp_1
*I *4873:CLK I *D sky130_fd_sc_hd__dfxtp_1
*I *4912:CLK I *D sky130_fd_sc_hd__dfxtp_1
*I *4913:CLK I *D sky130_fd_sc_hd__dfxtp_1
*I *4893:CLK I *D sky130_fd_sc_hd__dfxtp_1
*I *4915:CLK I *D sky130_fd_sc_hd__dfxtp_1
*I *4894:CLK I *D sky130_fd_sc_hd__dfxtp_1
*I *4925:X O *D sky130_fd_sc_hd__clkbuf_16
*CAP
1 *4872:CLK 0.000308322
2 *4854:CLK 0
3 *4871:CLK 0
4 *4874:CLK 2.18824e-05
5 *4853:CLK 0
6 *4875:CLK 0
7 *4916:CLK 0.000303004
8 *4914:CLK 0.000419582
9 *4873:CLK 0.000468656
10 *4912:CLK 0
11 *4913:CLK 0
12 *4893:CLK 0
13 *4915:CLK 0
14 *4894:CLK 0.000548854
15 *4925:X 0.000331207
16 *779:164 0.000105977
17 *779:158 0.000702518
18 *779:110 0.00126704
19 *779:102 0.000681012
20 *779:100 0.00103784
21 *779:92 0.00148592
22 *779:82 0.000682669
23 *779:80 0.000725447
24 *779:65 0.00123957
25 *779:56 0.000890688
26 *779:39 0.000997714
27 *779:29 0.00166132
28 *779:25 0.00112445
29 *779:10 0.0017613
30 *779:8 0.0015199
31 *4872:CLK *4202:A1 5.5792e-05
32 *4872:CLK *944:8 0.000399339
33 *4872:CLK *944:18 3.65917e-05
34 *4872:CLK *967:41 5.58003e-05
35 *4873:CLK *5023:A 0.000274078
36 *4873:CLK *897:10 0.000148698
37 *4873:CLK *946:12 8.2832e-05
38 *4894:CLK *4503:A 0
39 *4894:CLK *4800:A 4.6318e-06
40 *4894:CLK *832:44 0.000100733
41 *4894:CLK *845:28 0
42 *4894:CLK *845:88 0
43 *4914:CLK *820:16 6.11286e-05
44 *4914:CLK *820:36 1.62015e-05
45 *4916:CLK *4243:B 0.000735872
46 *779:8 *4792:B 5.67058e-05
47 *779:8 *814:40 0.000104959
48 *779:10 *4800:A 4.54033e-05
49 *779:10 *814:40 0.000194318
50 *779:10 *816:21 7.70038e-05
51 *779:10 *816:30 0.000273598
52 *779:10 *816:47 4.17929e-05
53 *779:10 *961:35 0.000157552
54 *779:25 *816:8 5.47808e-05
55 *779:39 *4819:B 5.50049e-05
56 *779:39 *844:81 0
57 *779:56 *816:47 0.000433035
58 *779:65 *4240:C1 0
59 *779:65 *816:47 2.96051e-05
60 *779:65 *966:102 0
61 *779:80 *4240:C1 0
62 *779:82 *4242:A1 3.46302e-05
63 *779:92 *891:10 3.6608e-05
64 *779:100 *4950:A 0.00018221
65 *779:100 *849:8 5.3304e-05
66 *779:102 *4947:A 0.000102971
67 *779:102 *845:10 3.2277e-05
68 *779:110 *820:36 4.73585e-05
69 *779:110 *839:131 0
70 *779:110 *883:10 1.70419e-05
71 *779:158 *944:8 7.50355e-05
72 *779:164 *885:10 6.35124e-05
73 *4202:B2 *4872:CLK 5.14826e-05
74 *4871:D *779:82 0.000149534
75 *4871:D *779:158 8.55549e-05
76 *4873:D *4873:CLK 0.000102732
77 *4874:D *779:92 3.11218e-05
78 *4893:D *779:29 1.64354e-05
79 *4913:D *779:25 5.73018e-05
80 *4916:D *4916:CLK 1.64354e-05
81 *97:8 *779:164 0.000143166
82 *114:8 *779:80 5.27729e-05
83 *118:8 *779:110 4.03343e-05
84 *158:8 *779:39 7.95478e-05
85 *217:8 *779:65 0
86 *217:8 *779:80 0
87 *221:10 *4916:CLK 0.000221084
88 *365:12 *779:39 1.94693e-05
89 *752:10 *779:56 0
90 *757:10 *779:39 1.94693e-05
91 *766:8 *4914:CLK 1.01436e-05
*RES
1 *4925:X *779:8 42.9093 
2 *779:8 *779:10 14.935 
3 *779:10 *4894:CLK 48.295 
4 *779:10 *779:25 23.7207 
5 *779:25 *779:29 11.1236 
6 *779:29 *779:39 48.415 
7 *779:39 *4915:CLK 23 
8 *779:29 *4893:CLK 23 
9 *779:25 *4913:CLK 23 
10 *779:8 *779:56 11.0614 
11 *779:56 *4912:CLK 38 
12 *779:56 *779:65 8.24429 
13 *779:65 *4873:CLK 48.7714 
14 *779:65 *779:80 20.7793 
15 *779:80 *779:82 3.00357 
16 *779:82 *779:92 38.1407 
17 *779:92 *779:100 45.7429 
18 *779:100 *779:102 3.00357 
19 *779:102 *779:110 24.9636 
20 *779:110 *4914:CLK 45.7471 
21 *779:110 *4916:CLK 46.7414 
22 *779:102 *4875:CLK 23 
23 *779:100 *4853:CLK 23 
24 *779:92 *4874:CLK 23.4971 
25 *779:82 *4871:CLK 23 
26 *779:80 *779:158 6.35929 
27 *779:158 *779:164 32.61 
28 *779:164 *4854:CLK 23 
29 *779:158 *4872:CLK 30.2914 
*END

*D_NET *780 0.0215546
*CONN
*I *4869:CLK I *D sky130_fd_sc_hd__dfxtp_1
*I *4908:CLK I *D sky130_fd_sc_hd__dfxtp_1
*I *4868:CLK I *D sky130_fd_sc_hd__dfxtp_1
*I *4867:CLK I *D sky130_fd_sc_hd__dfxtp_1
*I *4907:CLK I *D sky130_fd_sc_hd__dfxtp_1
*I *4911:CLK I *D sky130_fd_sc_hd__dfxtp_1
*I *4909:CLK I *D sky130_fd_sc_hd__dfxtp_1
*I *4932:A I *D sky130_fd_sc_hd__clkinvlp_4
*I *4910:CLK I *D sky130_fd_sc_hd__dfxtp_2
*I *4903:CLK I *D sky130_fd_sc_hd__dfxtp_1
*I *4926:X O *D sky130_fd_sc_hd__clkbuf_16
*CAP
1 *4869:CLK 0.000613759
2 *4908:CLK 0
3 *4868:CLK 0.000142641
4 *4867:CLK 0.000541561
5 *4907:CLK 0
6 *4911:CLK 0.00024699
7 *4909:CLK 0
8 *4932:A 8.24826e-05
9 *4910:CLK 0.000150427
10 *4903:CLK 0
11 *4926:X 0.000499803
12 *780:112 0.00137576
13 *780:101 0.00149138
14 *780:89 0.000897107
15 *780:83 0.000862109
16 *780:73 0.00219129
17 *780:49 0.000269177
18 *780:47 0.0016535
19 *780:18 0.000704989
20 *780:12 0.00157743
21 *780:10 0.000856744
22 *780:8 0.00137065
23 *4867:CLK *4228:A2 3.31683e-05
24 *4867:CLK *837:91 2.22079e-05
25 *4867:CLK *847:172 0
26 *4867:CLK *967:136 0
27 *4868:CLK *847:172 0
28 *4868:CLK *967:149 0
29 *4910:CLK *845:43 2.93747e-05
30 *4911:CLK *4777:A 0.000153381
31 *4911:CLK *4777:B 6.82097e-05
32 *780:8 *809:28 0.000136743
33 *780:10 *962:34 6.67764e-05
34 *780:12 *4751:A 0
35 *780:12 *4786:B1 2.19539e-05
36 *780:12 *833:17 0
37 *780:12 *962:34 1.83667e-05
38 *780:12 *971:37 2.58197e-05
39 *780:12 *971:41 0
40 *780:18 *4786:B1 7.76364e-06
41 *780:18 *805:10 0.000180218
42 *780:18 *805:42 0.00011218
43 *780:18 *845:49 4.83941e-05
44 *780:18 *971:41 0
45 *780:47 *4780:A4 0
46 *780:47 *834:60 0
47 *780:47 *835:77 0
48 *780:47 *835:94 6.28695e-05
49 *780:47 *962:34 2.3529e-05
50 *780:47 *962:75 0.00011218
51 *780:49 *4777:A 1.40958e-05
52 *780:49 *4777:B 2.93747e-05
53 *780:73 *4777:A 0.000119969
54 *780:73 *4777:B 0.000273722
55 *780:73 *812:6 2.93845e-05
56 *780:83 *4773:B1 3.70094e-05
57 *780:83 *834:12 0.000531529
58 *780:83 *847:12 8.4047e-05
59 *780:89 *4773:B1 7.53384e-06
60 *780:89 *811:6 4.97789e-05
61 *780:89 *811:12 9.88574e-06
62 *780:89 *847:33 0.000272383
63 *780:101 *4763:B1_N 0
64 *780:101 *4765:A1 0.00043674
65 *780:101 *4773:A1 0
66 *780:101 *4773:B1 0
67 *780:101 *810:6 8.35101e-05
68 *780:101 *834:12 0
69 *780:101 *834:18 0
70 *780:101 *847:33 0
71 *780:101 *847:35 0
72 *780:112 *4765:A2 0
73 *780:112 *810:6 0.000663284
74 *780:112 *810:71 8.62044e-05
75 *4784:B *780:12 0.00015795
76 *4785:A1 *780:12 0
77 *4903:D *780:18 0.000450528
78 *4907:D *780:101 5.67058e-05
79 *4907:D *780:112 0.000118231
80 *4908:D *780:89 1.94693e-05
81 *4909:D *780:73 5.92579e-05
82 *4910:D *4910:CLK 1.64354e-05
83 *110:10 *4867:CLK 0
84 *152:8 *780:47 1.19692e-05
85 *153:10 *780:12 0.000181934
86 *153:10 *780:18 1.01436e-05
87 *183:53 *4932:A 7.44257e-05
88 *710:8 *780:101 1.86973e-05
89 *723:10 *780:10 0.000139647
90 *723:10 *780:12 0.000231221
91 *723:10 *780:47 0.000225275
92 *726:21 *780:12 0
93 *728:8 *780:12 0.00035701
94 *745:8 *780:12 4.6323e-05
*RES
1 *4926:X *780:8 44.3386 
2 *780:8 *780:10 1.90571 
3 *780:10 *780:12 14.935 
4 *780:12 *780:18 30.5771 
5 *780:18 *4903:CLK 23 
6 *780:12 *4910:CLK 40.5479 
7 *780:10 *4932:A 39.5743 
8 *780:8 *780:47 32.7521 
9 *780:47 *780:49 0.621429 
10 *780:49 *4909:CLK 23 
11 *780:49 *4911:CLK 28.945 
12 *780:47 *780:73 31.82 
13 *780:73 *780:83 42.5114 
14 *780:83 *780:89 18.5007 
15 *780:89 *780:101 46.6336 
16 *780:101 *4907:CLK 23 
17 *780:101 *780:112 30.4114 
18 *780:112 *4867:CLK 48.0464 
19 *780:112 *4868:CLK 40.2579 
20 *780:89 *4908:CLK 23 
21 *780:73 *4869:CLK 49.4136 
*END

*D_NET *781 0.0114222
*CONN
*I *4992:A I *D sky130_fd_sc_hd__clkbuf_2
*I *4991:A I *D sky130_fd_sc_hd__buf_2
*I *4838:Q O *D sky130_fd_sc_hd__dfxtp_1
*CAP
1 *4992:A 0
2 *4991:A 0
3 *4838:Q 0
4 *781:41 0.000155649
5 *781:35 0.00237074
6 *781:23 0.00375552
7 *781:12 0.00018012
8 *781:4 0.00172055
9 *781:12 *990:74 7.91493e-05
10 *781:12 *1004:35 8.16253e-05
11 *781:12 *1007:23 0.00013965
12 *781:23 *782:12 8.85299e-06
13 *781:23 *782:29 0.000190016
14 *781:23 *841:77 4.96717e-05
15 *781:23 *841:94 0.000103637
16 *781:23 *973:41 8.62876e-05
17 *781:23 *988:55 6.99492e-05
18 *781:35 *4423:B1 4.50607e-05
19 *781:35 *4423:B2 5.50049e-05
20 *781:35 *977:64 6.99589e-05
21 *781:35 *985:105 6.33455e-05
22 *781:41 *1003:45 0.000136486
23 *781:41 *1003:54 0.000239765
24 *781:41 *1006:30 0.000110922
25 *781:41 *1006:45 0.000279936
26 *4424:B *781:35 5.67058e-05
27 *4429:A1 *781:35 0.000549706
28 *4429:A2 *781:35 1.4345e-05
29 *4483:C *781:35 2.44795e-05
30 *4484:A1 *781:35 0.000274078
31 *4484:B1 *781:35 2.93845e-05
32 *4839:D *781:23 4.86962e-05
33 *343:21 *781:35 2.02872e-05
34 *386:25 *781:23 8.4047e-05
35 *442:6 *781:35 6.24237e-05
36 *773:10 *781:12 0.00026614
*RES
1 *4838:Q *781:4 23 
2 *781:4 *781:12 35.2614 
3 *781:12 *4991:A 23 
4 *781:4 *781:23 36.3564 
5 *781:23 *781:35 48.93 
6 *781:35 *781:41 35.075 
7 *781:41 *4992:A 23 
*END

*D_NET *782 0.00703546
*CONN
*I *4990:A I *D sky130_fd_sc_hd__clkbuf_2
*I *4989:A I *D sky130_fd_sc_hd__buf_2
*I *4839:Q O *D sky130_fd_sc_hd__dfxtp_1
*CAP
1 *4990:A 1.38655e-05
2 *4989:A 0
3 *4839:Q 0
4 *782:29 0.00263588
5 *782:12 0.000209393
6 *782:4 0.00283141
7 *4990:A *977:64 2.33476e-05
8 *782:12 *1005:17 0
9 *782:29 *999:29 2.11157e-05
10 *4477:B1_N *782:29 9.88574e-06
11 *199:10 *782:29 0
12 *386:12 *782:29 5.3304e-05
13 *386:25 *782:29 0.000124306
14 *436:8 *782:29 0.000914085
15 *781:23 *782:12 8.85299e-06
16 *781:23 *782:29 0.000190016
*RES
1 *4839:Q *782:4 23 
2 *782:4 *782:12 33.0036 
3 *782:12 *4989:A 23 
4 *782:4 *782:29 46.9791 
5 *782:29 *4990:A 46.3211 
*END

*D_NET *783 0.000179268
*CONN
*I *4988:A I *D sky130_fd_sc_hd__buf_2
*I *4840:Q O *D sky130_fd_sc_hd__dfxtp_1
*CAP
1 *4988:A 5.98972e-05
2 *4840:Q 5.98972e-05
3 *4840:CLK *4988:A 5.94735e-05
*RES
1 *4840:Q *4988:A 47.4707 
*END

*D_NET *784 0.0140624
*CONN
*I *4986:A I *D sky130_fd_sc_hd__clkbuf_2
*I *4985:A I *D sky130_fd_sc_hd__buf_2
*I *4841:Q O *D sky130_fd_sc_hd__dfxtp_1
*CAP
1 *4986:A 0
2 *4985:A 3.71244e-05
3 *4841:Q 4.27488e-05
4 *784:25 0.000886194
5 *784:17 0.00341408
6 *784:15 0.00252789
7 *784:6 7.98732e-05
8 *4985:A *884:12 1.12349e-05
9 *784:6 *884:12 7.51453e-06
10 *784:6 *884:16 1.59071e-05
11 *784:17 *791:10 0
12 *784:17 *840:42 0.00013449
13 *784:17 *974:24 0
14 *784:17 *974:26 0
15 *784:17 *974:32 0
16 *784:17 *989:48 9.81497e-06
17 *784:17 *1004:27 5.86204e-05
18 *784:17 *1004:35 0.000283034
19 *784:17 *1004:43 0.000143925
20 *784:17 *1004:49 0.000235638
21 *784:17 *1004:57 4.20768e-05
22 *784:25 *4271:B 0.000126343
23 *784:25 *843:38 9.58908e-05
24 *784:25 *972:16 0
25 *784:25 *972:28 0.000694274
26 *784:25 *974:14 0.000143163
27 *784:25 *974:82 0.000230896
28 *784:25 *987:81 0.000183102
29 *784:25 *989:48 0.00026566
30 *784:25 *1001:20 0.000948295
31 *784:25 *1004:49 0
32 *784:25 *1004:57 6.56651e-05
33 *4162:S *784:17 0
34 *4268:B *784:17 0.000109343
35 *5068:A *784:25 0.000146197
36 *170:27 *784:17 0
37 *170:98 *784:17 6.40214e-05
38 *180:42 *784:17 7.5153e-05
39 *182:14 *784:17 0.000788086
40 *182:39 *784:17 3.78201e-05
41 *234:25 *784:17 0.000750516
42 *245:27 *784:25 0
43 *774:64 *784:17 0.00085478
44 *774:68 *784:17 0.000552982
*RES
1 *4841:Q *784:6 23.6214 
2 *784:6 *4985:A 23.8493 
3 *784:6 *784:15 15 
4 *784:15 *784:17 58.6732 
5 *784:17 *784:25 41.0068 
6 *784:25 *4986:A 23 
*END

*D_NET *785 0.00017475
*CONN
*I *4984:A I *D sky130_fd_sc_hd__buf_2
*I *4842:Q O *D sky130_fd_sc_hd__dfxtp_1
*CAP
1 *4984:A 7.26875e-05
2 *4842:Q 7.26875e-05
3 *4984:A *999:14 2.93747e-05
*RES
1 *4842:Q *4984:A 47.4707 
*END

*D_NET *786 0.00116346
*CONN
*I *4982:A I *D sky130_fd_sc_hd__buf_2
*I *4843:Q O *D sky130_fd_sc_hd__dfxtp_1
*CAP
1 *4982:A 8.00674e-05
2 *4843:Q 0.000247843
3 *786:8 0.000327911
4 *4982:A *895:30 7.88828e-05
5 *4982:A *997:23 6.51763e-05
6 *4982:A *998:19 0.000177899
7 *786:8 *895:30 0
8 *786:8 *995:40 0.000185676
9 *170:59 *786:8 0
10 *176:8 *786:8 0
*RES
1 *4843:Q *786:8 43.075 
2 *786:8 *4982:A 41.48 
*END

*D_NET *787 0.00100387
*CONN
*I *4980:A I *D sky130_fd_sc_hd__clkbuf_4
*I *4844:Q O *D sky130_fd_sc_hd__dfxtp_1
*CAP
1 *4980:A 0.000228113
2 *4844:Q 0.000146449
3 *787:8 0.000374562
4 *4980:A *792:23 0.000205083
5 *4980:A *981:21 4.9662e-05
6 *787:8 *981:31 0
7 *787:8 *983:10 0
8 *787:8 *983:29 0
*RES
1 *4844:Q *787:8 40.2579 
2 *787:8 *4980:A 42.4329 
*END

*D_NET *788 0.00606719
*CONN
*I *4978:A I *D sky130_fd_sc_hd__buf_6
*I *4977:A I *D sky130_fd_sc_hd__buf_2
*I *4845:Q O *D sky130_fd_sc_hd__dfxtp_2
*CAP
1 *4978:A 0
2 *4977:A 0.000395878
3 *4845:Q 0.000634605
4 *788:25 0.000937232
5 *788:8 0.00196771
6 *4977:A *4168:A0 0.000228903
7 *4977:A *4168:A1 6.69016e-05
8 *4977:A *4979:A 0.000272383
9 *4977:A *992:25 5.67058e-05
10 *4977:A *992:29 4.54033e-05
11 *4977:A *994:17 3.71198e-05
12 *788:8 *841:118 0.000198206
13 *788:8 *984:23 2.80924e-06
14 *788:8 *992:25 0.000225975
15 *788:25 *4554:A2 0
16 *788:25 *4979:A 0
17 *788:25 *981:31 0.000141888
18 *788:25 *981:68 0.000289034
19 *788:25 *981:85 0.000262187
20 *788:25 *981:98 0.000185104
21 *788:25 *992:29 3.47879e-05
22 *788:25 *993:19 0
23 *788:25 *994:43 2.72055e-05
24 *788:25 *995:21 0
25 *788:25 *995:40 0
26 *4168:S *4977:A 5.10686e-05
27 *475:10 *788:25 6.07611e-06
*RES
1 *4845:Q *788:8 47.6736 
2 *788:8 *4977:A 47.6736 
3 *788:8 *788:25 34.1607 
4 *788:25 *4978:A 23 
*END

*D_NET *789 0.00200598
*CONN
*I *4933:A I *D sky130_fd_sc_hd__clkbuf_1
*I *5102:A I *D sky130_fd_sc_hd__dlygate4sd1_1
*I *4976:A I *D sky130_fd_sc_hd__buf_8
*I *4878:Q O *D sky130_fd_sc_hd__dfxtp_4
*CAP
1 *4933:A 0.000177271
2 *5102:A 0
3 *4976:A 0.000236863
4 *4878:Q 9.44757e-05
5 *789:21 0.000285847
6 *789:8 0.000439915
7 *4933:A *859:8 5.70419e-05
8 *4976:A *990:10 0.000306054
9 *4976:A *990:14 4.67488e-05
10 *789:8 *4252:A1 1.01436e-05
11 *789:8 *852:25 0.000167443
12 *789:8 *866:16 0
13 *789:21 *852:25 0.000184174
14 *789:21 *866:16 0
*RES
1 *4878:Q *789:8 40.2579 
2 *789:8 *4976:A 42.4329 
3 *789:8 *789:21 17.61 
4 *789:21 *5102:A 23 
5 *789:21 *4933:A 26.48 
*END

*D_NET *790 0.00118126
*CONN
*I *4974:A I *D sky130_fd_sc_hd__buf_6
*I *4879:Q O *D sky130_fd_sc_hd__dfxtp_1
*CAP
1 *4974:A 7.58662e-05
2 *4879:Q 0.000135883
3 *790:8 0.000211749
4 *4974:A *988:21 0.000446275
5 *4974:A *990:14 0.000252161
6 *4928:A *790:8 2.47097e-05
7 *774:10 *790:8 2.26489e-05
8 *774:12 *790:8 1.19692e-05
*RES
1 *4879:Q *790:8 40.61 
2 *790:8 *4974:A 42.9093 
*END

*D_NET *791 0.00142998
*CONN
*I *4972:A I *D sky130_fd_sc_hd__buf_4
*I *4880:Q O *D sky130_fd_sc_hd__dfxtp_1
*CAP
1 *4972:A 0.000132824
2 *4880:Q 0.000407939
3 *791:10 0.000540763
4 *170:27 *791:10 0.000348456
5 *784:17 *791:10 0
*RES
1 *4880:Q *791:10 45.25 
2 *791:10 *4972:A 40.0507 
*END

*D_NET *792 0.0190087
*CONN
*I *4378:A1 I *D sky130_fd_sc_hd__a22o_1
*I *4314:A1 I *D sky130_fd_sc_hd__a22oi_1
*I *4970:A I *D sky130_fd_sc_hd__buf_6
*I *4881:Q O *D sky130_fd_sc_hd__dfxtp_2
*CAP
1 *4378:A1 0
2 *4314:A1 3.34952e-05
3 *4970:A 0.000109799
4 *4881:Q 0.000118679
5 *792:39 0.00124254
6 *792:33 0.00214218
7 *792:29 0.00224909
8 *792:25 0.00131595
9 *792:23 0.00196798
10 *792:21 0.00210733
11 *792:8 0.000367821
12 *4314:A1 *4314:A2 0.000124942
13 *4314:A1 *4314:B1 0.000185428
14 *4314:A1 *982:83 2.45645e-05
15 *4970:A *984:8 6.17437e-06
16 *4970:A *984:23 0.000121204
17 *792:8 *4162:A1 0
18 *792:21 *4162:A1 0
19 *792:23 *4258:A1 3.34129e-05
20 *792:23 *981:21 0.000455893
21 *792:23 *981:31 0.000521102
22 *792:23 *984:42 0.000526324
23 *792:23 *995:8 1.94812e-05
24 *792:29 *983:60 5.3402e-05
25 *792:29 *983:70 8.57661e-05
26 *792:29 *983:87 2.34278e-05
27 *792:29 *984:46 0
28 *792:29 *997:130 5.33213e-05
29 *792:29 *998:29 0.000528168
30 *792:29 *998:46 0.000139647
31 *792:29 *998:67 0.00094193
32 *792:29 *1000:43 0.000579729
33 *792:29 *1000:76 2.95125e-05
34 *792:29 *1000:89 0.000423833
35 *792:33 *793:23 0
36 *792:33 *982:23 0.00020195
37 *792:33 *982:38 7.49001e-05
38 *792:33 *983:87 6.52489e-06
39 *792:33 *984:59 0
40 *792:33 *1000:89 0.000432703
41 *792:39 *4378:B1 2.64616e-05
42 *792:39 *982:38 4.70953e-05
43 *792:39 *982:49 0
44 *792:39 *984:78 0.000338048
45 *792:39 *1000:93 0
46 *792:39 *1001:77 9.41704e-05
47 *4258:S *792:23 5.50106e-05
48 *4351:B *792:39 0
49 *4600:A *792:29 0.000372421
50 *4625:A2 *792:29 0.000118174
51 *4980:A *792:23 0.000205083
52 *229:10 *792:23 9.71035e-05
53 *310:10 *792:39 0
54 *314:8 *792:39 0.000138718
55 *339:8 *792:33 3.56537e-05
56 *350:10 *792:39 1.76557e-05
57 *385:10 *792:33 7.80251e-05
58 *391:22 *792:33 6.16531e-05
59 *554:8 *792:23 7.51868e-05
*RES
1 *4881:Q *792:8 39.9057 
2 *792:8 *4970:A 40.5271 
3 *792:8 *792:21 17.61 
4 *792:21 *792:23 42.0707 
5 *792:23 *792:25 15 
6 *792:25 *792:29 37.7518 
7 *792:29 *792:33 35.5589 
8 *792:33 *792:39 40.5407 
9 *792:39 *4314:A1 40.0507 
10 *792:33 *4378:A1 23 
*END

*D_NET *793 0.0110949
*CONN
*I *4968:A I *D sky130_fd_sc_hd__clkbuf_2
*I *4967:A I *D sky130_fd_sc_hd__buf_2
*I *4882:Q O *D sky130_fd_sc_hd__dfxtp_1
*CAP
1 *4968:A 0
2 *4967:A 0
3 *4882:Q 0
4 *793:23 0.00177079
5 *793:21 0.0039577
6 *793:12 0.000305085
7 *793:4 0.002492
8 *793:12 *840:53 0
9 *793:12 *1000:31 0.000150242
10 *793:21 *840:92 4.12995e-05
11 *793:23 *4468:A 0.000194309
12 *793:23 *4468:C 2.72055e-05
13 *793:23 *981:102 0.000659894
14 *793:23 *983:70 0
15 *793:23 *983:87 0
16 *793:23 *984:46 0.000558274
17 *793:23 *985:65 0.000133511
18 *793:23 *985:90 3.2457e-05
19 *793:23 *985:105 0.000245847
20 *793:23 *996:49 0.000104756
21 *793:23 *996:53 6.02277e-06
22 *793:23 *998:39 0.000168744
23 *793:23 *1000:93 0.000246757
24 *4459:B1 *793:23 0
25 *224:44 *793:12 0
26 *382:10 *793:23 0
27 *385:10 *793:23 0
28 *516:23 *793:23 0
29 *792:33 *793:23 0
*RES
1 *4882:Q *793:4 23 
2 *793:4 *793:12 35.2614 
3 *793:12 *4967:A 23 
4 *793:4 *793:21 42.7779 
5 *793:21 *793:23 41.6979 
6 *793:23 *4968:A 38 
*END

*D_NET *794 0.000586901
*CONN
*I *4966:A I *D sky130_fd_sc_hd__buf_2
*I *4883:Q O *D sky130_fd_sc_hd__dfxtp_1
*CAP
1 *4966:A 0
2 *4883:Q 0.000128987
3 *794:10 0.000128987
4 *794:10 *841:118 0.000163343
5 *794:10 *975:101 0.000165583
*RES
1 *4883:Q *794:10 40.8793 
2 *794:10 *4966:A 38 
*END

*D_NET *795 0.00106846
*CONN
*I *4964:A I *D sky130_fd_sc_hd__buf_2
*I *4884:Q O *D sky130_fd_sc_hd__dfxtp_1
*CAP
1 *4964:A 8.55661e-05
2 *4884:Q 0.000136339
3 *795:8 0.000221905
4 *4964:A *796:21 0.000446275
5 *4964:A *977:21 0.000178371
*RES
1 *4884:Q *795:8 40.2579 
2 *795:8 *4964:A 42.9093 
*END

*D_NET *796 0.0141809
*CONN
*I *4417:D I *D sky130_fd_sc_hd__and4b_1
*I *4461:D I *D sky130_fd_sc_hd__and4b_1
*I *4507:D I *D sky130_fd_sc_hd__and4b_1
*I *4962:A I *D sky130_fd_sc_hd__buf_6
*I *4885:Q O *D sky130_fd_sc_hd__dfxtp_2
*CAP
1 *4417:D 0
2 *4461:D 9.43886e-05
3 *4507:D 1.80874e-05
4 *4962:A 0
5 *4885:Q 0.000194929
6 *796:55 0.000722815
7 *796:36 0.00130838
8 *796:25 0.00227729
9 *796:23 0.00176803
10 *796:21 0.00219547
11 *796:12 0.00219547
12 *796:10 0.000194929
13 *4461:D *4461:C 0.00014196
14 *796:10 *4168:A1 0
15 *796:10 *917:25 8.51329e-05
16 *796:21 *975:63 0.000135037
17 *796:21 *977:6 1.39317e-05
18 *796:21 *977:21 0.000552599
19 *796:21 *994:90 8.06804e-06
20 *796:25 *4549:D 0
21 *796:25 *975:74 0
22 *796:25 *977:46 0.000335249
23 *796:36 *977:52 0
24 *796:55 *4418:B2 3.83243e-05
25 *4262:S *796:10 2.93845e-05
26 *4418:A1_N *796:55 0.000127538
27 *4623:A1 *796:25 6.38845e-05
28 *4633:B *796:25 0
29 *4634:A *796:25 0
30 *4964:A *796:21 0.000446275
31 *161:82 *796:36 9.48381e-06
32 *161:82 *796:55 0.00040327
33 *224:56 *796:10 2.64616e-05
34 *374:18 *796:55 2.15048e-05
35 *377:6 *796:55 5.67058e-05
36 *377:12 *796:55 7.49001e-05
37 *420:32 *796:55 0
38 *464:10 *4507:D 2.35426e-05
39 *465:23 *796:25 0
40 *466:10 *796:36 0
41 *479:18 *796:25 0
42 *506:12 *796:25 0
43 *507:10 *796:25 0.000354769
44 *509:8 *796:25 0
45 *519:20 *796:25 0
46 *546:10 *796:25 0.000263098
47 *547:27 *796:25 0
48 *548:10 *796:25 0
49 *549:8 *796:25 0
50 *585:10 *796:25 0
51 *587:10 *796:25 0
52 *590:8 *796:25 0
*RES
1 *4885:Q *796:10 41.3557 
2 *796:10 *796:12 15 
3 *796:12 *4962:A 23 
4 *796:12 *796:21 41.615 
5 *796:21 *796:23 15 
6 *796:23 *796:25 35.7114 
7 *796:25 *4507:D 38.2745 
8 *796:25 *796:36 8.94857 
9 *796:36 *4461:D 40.1802 
10 *796:36 *796:55 30.1577 
11 *796:55 *4417:D 23 
*END

*D_NET *797 0.00398217
*CONN
*I *4266:B1 I *D sky130_fd_sc_hd__a31o_1
*I *4267:A I *D sky130_fd_sc_hd__and3_1
*I *4177:B2 I *D sky130_fd_sc_hd__a22o_1
*I *4886:Q O *D sky130_fd_sc_hd__dfxtp_1
*CAP
1 *4266:B1 0
2 *4267:A 0
3 *4177:B2 0
4 *4886:Q 7.71481e-05
5 *797:32 0.00018179
6 *797:24 0.000695164
7 *797:12 0.000760688
8 *797:8 0.000324463
9 *797:24 *866:43 9.41704e-05
10 *797:24 *987:20 0.000356947
11 *797:24 *990:74 0.000140259
12 *797:24 *1005:17 0.000407208
13 *797:24 *1005:23 7.1349e-05
14 *797:32 *4177:A1 2.18506e-05
15 *797:32 *990:74 0.000161121
16 *797:32 *1004:35 0.000163361
17 *797:32 *1007:42 4.67488e-05
18 *4178:B1 *797:32 2.64616e-05
19 *4268:B *797:32 0.000177604
20 *4269:C *797:24 0.000253246
21 *180:82 *797:8 0
22 *181:38 *797:32 2.25927e-05
*RES
1 *4886:Q *797:8 39.9057 
2 *797:8 *797:12 19.4329 
3 *797:12 *797:24 44.3136 
4 *797:24 *797:32 34.785 
5 *797:32 *4177:B2 23 
6 *797:24 *4267:A 23 
7 *797:12 *4266:B1 23 
*END

*D_NET *798 0.0102321
*CONN
*I *4205:A I *D sky130_fd_sc_hd__and2_1
*I *4588:A2 I *D sky130_fd_sc_hd__o211a_1
*I *4582:A I *D sky130_fd_sc_hd__nand2_1
*I *4583:A I *D sky130_fd_sc_hd__xnor2_1
*I *4896:Q O *D sky130_fd_sc_hd__dfxtp_1
*CAP
1 *4205:A 0.000318008
2 *4588:A2 5.42616e-05
3 *4582:A 0
4 *4583:A 0
5 *4896:Q 0
6 *798:55 0.00142821
7 *798:29 0.000249438
8 *798:16 0.000966251
9 *798:8 0.00148822
10 *798:4 0.00182735
11 *4588:A2 *4588:B1 1.14154e-05
12 *798:8 *4588:B1 7.87994e-05
13 *798:16 *4588:B1 6.71408e-06
14 *798:55 *4588:B1 0.000190702
15 *798:55 *803:10 0.00148568
16 *798:55 *803:34 0
17 *798:55 *846:41 0.000128791
18 *798:55 *846:47 2.32004e-05
19 *798:55 *847:82 0.000481035
20 *798:55 *964:8 0.000185434
21 *798:55 *971:83 0
22 *798:55 *971:87 0
23 *4618:A2 *798:29 8.62783e-05
24 *4725:B1 *798:55 4.5051e-05
25 *4725:B2 *798:55 0.000227208
26 *4727:B1_N *798:55 9.84794e-05
27 *4896:D *798:8 4.58804e-05
28 *4901:D *798:55 0.000184548
29 *181:60 *798:55 0.000222183
30 *540:10 *798:16 0
31 *542:10 *798:16 0
32 *542:10 *798:29 0.000164291
33 *604:6 *798:29 0.000123924
34 *604:10 *798:29 8.93663e-05
35 *679:10 *798:55 2.13733e-05
*RES
1 *4896:Q *798:4 23 
2 *798:4 *798:8 10.1707 
3 *798:8 *798:16 40.585 
4 *798:16 *4583:A 23 
5 *798:16 *798:29 35.8414 
6 *798:29 *4582:A 23 
7 *798:8 *4588:A2 24.2014 
8 *798:4 *798:55 49.365 
9 *798:55 *4205:A 42.9093 
*END

*D_NET *799 0.00519291
*CONN
*I *5038:A I *D sky130_fd_sc_hd__dlygate4sd3_1
*I *4207:A I *D sky130_fd_sc_hd__and2_1
*I *4616:A I *D sky130_fd_sc_hd__and2_1
*I *4617:A I *D sky130_fd_sc_hd__xnor2_1
*I *4897:Q O *D sky130_fd_sc_hd__dfxtp_1
*CAP
1 *5038:A 0.000202877
2 *4207:A 0
3 *4616:A 0
4 *4617:A 0.000214821
5 *4897:Q 0
6 *799:38 0.000695639
7 *799:14 0.000719551
8 *799:8 0.00134011
9 *799:6 0.000342622
10 *4616:B *4617:A 0.000184759
11 *4616:B *799:14 0.00010018
12 *181:52 *799:38 0.000273746
13 *181:56 *799:38 0.000304969
14 *572:6 *799:14 0.000747994
15 *572:12 *799:8 1.19796e-05
16 *572:12 *799:14 5.3656e-05
17 *654:14 *5038:A 0
18 *654:14 *799:8 0
19 *671:14 *5038:A 0
20 *671:14 *799:8 0
21 *671:14 *799:14 0
*RES
1 *4897:Q *799:6 38 
2 *799:6 *799:8 2.61 
3 *799:8 *799:14 27.76 
4 *799:14 *4617:A 27.8264 
5 *799:14 *4616:A 23 
6 *799:8 *799:38 29.9557 
7 *799:38 *4207:A 23 
8 *799:6 *5038:A 41.6664 
*END

*D_NET *800 0.00446299
*CONN
*I *4209:A I *D sky130_fd_sc_hd__and2_1
*I *4652:A I *D sky130_fd_sc_hd__and2_1
*I *4653:B I *D sky130_fd_sc_hd__xnor2_2
*I *4656:A2 I *D sky130_fd_sc_hd__o211a_1
*I *4898:Q O *D sky130_fd_sc_hd__dfxtp_1
*CAP
1 *4209:A 0
2 *4652:A 0
3 *4653:B 0.000151985
4 *4656:A2 0
5 *4898:Q 0
6 *800:55 0.000499902
7 *800:42 0.000156738
8 *800:27 0.000699917
9 *800:14 0.000886721
10 *800:4 0.000995428
11 *800:14 *4656:A1 2.28308e-05
12 *800:14 *1011:54 6.93242e-05
13 *800:14 *1011:62 1.76557e-05
14 *800:27 *4656:A1 3.91386e-05
15 *800:27 *1011:62 0.000182832
16 *800:55 *4210:C1 0
17 *4654:A *800:27 2.4754e-05
18 *4654:A *800:42 1.02387e-05
19 *4654:B *800:27 0.000139357
20 *4655:B *800:27 4.73456e-05
21 *4656:C1 *800:14 1.37232e-05
22 *4656:C1 *800:27 5.70419e-05
23 *4898:CLK *800:14 7.59964e-05
24 *4898:D *800:14 0.00017248
25 *606:10 *800:42 0
26 *607:8 *800:42 4.31263e-05
27 *608:10 *800:42 3.70094e-05
28 *654:10 *4653:B 8.88006e-05
29 *654:14 *800:42 3.0647e-05
*RES
1 *4898:Q *800:4 23 
2 *800:4 *800:14 12.0143 
3 *800:14 *4656:A2 23 
4 *800:14 *800:27 8.90714 
5 *800:27 *4653:B 25.5479 
6 *800:27 *800:42 33.3143 
7 *800:42 *4652:A 23 
8 *800:4 *800:55 37.7264 
9 *800:55 *4209:A 23 
*END

*D_NET *801 0.00558963
*CONN
*I *4211:A I *D sky130_fd_sc_hd__and2_1
*I *4685:A2 I *D sky130_fd_sc_hd__o211a_1
*I *4709:A1 I *D sky130_fd_sc_hd__o21ai_2
*I *4708:A1 I *D sky130_fd_sc_hd__a21o_1
*I *4681:A I *D sky130_fd_sc_hd__xor2_1
*I *4899:Q O *D sky130_fd_sc_hd__dfxtp_1
*CAP
1 *4211:A 0.000183768
2 *4685:A2 2.24651e-05
3 *4709:A1 0
4 *4708:A1 0
5 *4681:A 0.000240696
6 *4899:Q 0
7 *801:29 0.000167122
8 *801:12 0.000477374
9 *801:10 0.000537735
10 *801:8 0.00119899
11 *801:4 0.000892118
12 *4211:A *4956:A 1.76557e-05
13 *4211:A *838:22 2.4754e-05
14 *4681:A *968:111 7.36613e-05
15 *4685:A2 *4685:B1 1.14154e-05
16 *4685:A2 *849:76 4.00259e-06
17 *801:8 *4956:A 3.88463e-05
18 *801:8 *849:76 0.000189298
19 *801:10 *4956:A 8.98344e-05
20 *801:10 *849:76 2.18409e-05
21 *801:10 *849:84 0.000103647
22 *801:10 *968:111 0.000229162
23 *801:12 *968:111 9.91895e-05
24 *4682:B1_N *801:29 0
25 *4709:B1 *4681:A 5.41385e-05
26 *181:119 *4211:A 0.000235062
27 *608:18 *801:10 0.000267167
28 *634:29 *801:29 9.39159e-05
29 *635:8 *801:29 4.21594e-06
30 *661:8 *801:29 0
31 *662:8 *801:10 0.000213063
32 *662:8 *801:12 9.84851e-05
33 *671:14 *801:29 0
*RES
1 *4899:Q *801:4 23 
2 *801:4 *801:8 10.5229 
3 *801:8 *801:10 12.5321 
4 *801:10 *801:12 2.05071 
5 *801:12 *4681:A 27.8264 
6 *801:12 *801:29 32.9621 
7 *801:29 *4708:A1 23 
8 *801:10 *4709:A1 23 
9 *801:8 *4685:A2 23.4971 
10 *801:4 *4211:A 27.3293 
*END

*D_NET *802 0.00468964
*CONN
*I *4213:A I *D sky130_fd_sc_hd__and2_1
*I *5031:A I *D sky130_fd_sc_hd__dlygate4sd3_1
*I *4704:A I *D sky130_fd_sc_hd__nor2_1
*I *4702:A I *D sky130_fd_sc_hd__nand2_1
*I *4900:Q O *D sky130_fd_sc_hd__dfxtp_1
*CAP
1 *4213:A 0
2 *5031:A 0
3 *4704:A 0
4 *4702:A 5.01169e-05
5 *4900:Q 0
6 *802:59 0.000206976
7 *802:46 0.000461825
8 *802:26 0.000139197
9 *802:24 0.00113927
10 *802:4 0.00130504
11 *802:24 *1011:40 0
12 *802:59 *849:132 0
13 *802:59 *971:87 0.000164282
14 *802:59 *971:89 3.70094e-05
15 *4704:B *4702:A 5.55168e-05
16 *4704:B *802:24 0
17 *4710:A1 *802:24 9.8542e-05
18 *4710:A2 *802:24 0.000103756
19 *4712:A1 *802:24 2.4754e-05
20 *4712:A2 *802:24 8.7283e-06
21 *4900:D *802:24 0.000146207
22 *655:10 *802:26 1.03836e-05
23 *657:10 *4702:A 2.9938e-05
24 *657:10 *802:26 5.25848e-05
25 *658:12 *802:24 0
26 *658:27 *802:24 7.53928e-05
27 *660:8 *802:24 0
28 *660:12 *802:24 7.80519e-05
29 *660:12 *802:26 5.51946e-05
30 *662:14 *4702:A 0.000143655
31 *662:14 *802:26 2.18409e-05
32 *662:42 *802:24 2.95542e-05
33 *662:42 *802:26 0.000111567
34 *665:10 *802:24 0.000140259
*RES
1 *4900:Q *802:4 23 
2 *802:4 *802:24 47.8039 
3 *802:24 *802:26 2.76536 
4 *802:26 *4702:A 25.5686 
5 *802:26 *4704:A 23 
6 *802:4 *802:46 4.80571 
7 *802:46 *5031:A 23 
8 *802:46 *802:59 33.7079 
9 *802:59 *4213:A 23 
*END

*D_NET *803 0.00574986
*CONN
*I *4215:A I *D sky130_fd_sc_hd__and2_1
*I *5041:A I *D sky130_fd_sc_hd__dlygate4sd3_1
*I *4721:A I *D sky130_fd_sc_hd__and2_4
*I *4720:A I *D sky130_fd_sc_hd__nor2_1
*I *4901:Q O *D sky130_fd_sc_hd__dfxtp_1
*CAP
1 *4215:A 5.70862e-05
2 *5041:A 0
3 *4721:A 0
4 *4720:A 3.57981e-05
5 *4901:Q 0
6 *803:34 0.000150813
7 *803:28 0.000248401
8 *803:12 3.57981e-05
9 *803:10 0.00165783
10 *803:4 0.00169833
11 *4215:A *4215:B 6.17437e-06
12 *4215:A *846:41 2.98648e-05
13 *4720:A *4721:B 0.000111596
14 *803:10 *846:41 3.07755e-05
15 *803:34 *971:81 7.18464e-05
16 *803:34 *971:83 3.04661e-05
17 *4722:B *803:10 2.11827e-05
18 *4727:B1_N *803:10 2.11887e-05
19 *181:60 *803:34 0
20 *778:161 *4720:A 5.70419e-05
21 *798:55 *803:10 0.00148568
22 *798:55 *803:34 0
*RES
1 *4901:Q *803:4 23 
2 *803:4 *803:10 39.9193 
3 *803:10 *803:12 15 
4 *803:12 *4720:A 24.595 
5 *803:12 *4721:A 23 
6 *803:4 *803:28 0.849286 
7 *803:28 *803:34 32.9621 
8 *803:34 *5041:A 23 
9 *803:28 *4215:A 24.0979 
*END

*D_NET *804 0.0100739
*CONN
*I *4217:A I *D sky130_fd_sc_hd__and2_1
*I *4733:A2 I *D sky130_fd_sc_hd__o211a_1
*I *4754:A4 I *D sky130_fd_sc_hd__o41a_1
*I *4741:A2 I *D sky130_fd_sc_hd__o21ai_1
*I *4735:A1 I *D sky130_fd_sc_hd__a21bo_1
*I *4726:A I *D sky130_fd_sc_hd__xnor2_4
*I *4902:Q O *D sky130_fd_sc_hd__dfxtp_1
*CAP
1 *4217:A 0.000201789
2 *4733:A2 3.22875e-05
3 *4754:A4 0.000121123
4 *4741:A2 0
5 *4735:A1 0
6 *4726:A 0
7 *4902:Q 0
8 *804:48 0.000917265
9 *804:44 0.00123889
10 *804:31 0.000536599
11 *804:22 0.00126998
12 *804:8 0.00167964
13 *804:4 0.000915265
14 *4217:A *971:70 9.91101e-05
15 *4754:A4 *4754:A2 5.50049e-05
16 *4754:A4 *805:42 5.50106e-05
17 *4754:A4 *805:53 8.52481e-05
18 *804:22 *4733:A1 9.41704e-05
19 *804:22 *964:32 0
20 *804:31 *4740:A 0
21 *804:48 *4741:B1 5.41385e-05
22 *804:48 *805:66 7.92721e-05
23 *804:48 *806:56 5.08729e-05
24 *4733:C1 *4733:A2 4.28848e-06
25 *4753:A2 *804:22 0.000307507
26 *4753:C1 *804:22 1.55097e-05
27 *145:10 *4733:A2 1.5769e-05
28 *145:10 *804:8 3.54023e-05
29 *145:10 *804:22 1.76557e-05
30 *671:35 *4754:A4 0.000108681
31 *671:35 *804:31 1.83667e-05
32 *671:35 *804:44 0.000283007
33 *679:14 *804:22 7.7407e-05
34 *700:8 *804:22 0.000228909
35 *700:10 *4754:A4 3.14377e-05
36 *700:10 *804:22 0.000163352
37 *700:10 *804:31 0.000601439
38 *700:10 *804:44 0.000486002
39 *777:95 *4733:A2 1.32314e-05
40 *777:95 *804:8 0.000180224
*RES
1 *4902:Q *804:4 23 
2 *804:4 *804:8 10.5229 
3 *804:8 *804:22 32.7314 
4 *804:22 *4726:A 38 
5 *804:22 *804:31 8.24429 
6 *804:31 *4735:A1 38 
7 *804:31 *804:44 8.07857 
8 *804:44 *804:48 27.0557 
9 *804:48 *4741:A2 23 
10 *804:44 *4754:A4 41.1279 
11 *804:8 *4733:A2 24.1186 
12 *804:4 *4217:A 26.8529 
*END

*D_NET *805 0.009003
*CONN
*I *4219:A I *D sky130_fd_sc_hd__and2_1
*I *4741:A1 I *D sky130_fd_sc_hd__o21ai_1
*I *4742:A1_N I *D sky130_fd_sc_hd__a2bb2o_4
*I *4754:A3 I *D sky130_fd_sc_hd__o41a_1
*I *4738:A2 I *D sky130_fd_sc_hd__o211a_1
*I *4734:A I *D sky130_fd_sc_hd__xnor2_4
*I *4903:Q O *D sky130_fd_sc_hd__dfxtp_1
*CAP
1 *4219:A 0
2 *4741:A1 0
3 *4742:A1_N 0.000232079
4 *4754:A3 0
5 *4738:A2 0
6 *4734:A 0.000300652
7 *4903:Q 0.000137788
8 *805:81 0.000582172
9 *805:66 0.000787301
10 *805:53 0.000909521
11 *805:42 0.00105721
12 *805:16 0.00048877
13 *805:10 0.0009108
14 *4734:A *4736:B1_N 0.000283088
15 *4734:A *833:19 1.14452e-05
16 *4742:A1_N *4739:A 5.94125e-05
17 *4742:A1_N *4741:B1 5.40762e-05
18 *4742:A1_N *806:56 8.4047e-05
19 *4742:A1_N *856:38 7.98052e-05
20 *805:16 *833:19 2.16033e-05
21 *805:16 *845:49 0.000114083
22 *805:42 *845:49 0.000239765
23 *805:42 *970:33 0.000605643
24 *805:53 *4741:B1 1.19796e-05
25 *805:53 *4754:A2 0.0001396
26 *805:53 *807:27 0.000731259
27 *805:53 *807:37 5.50049e-05
28 *805:53 *847:82 0
29 *805:53 *970:33 4.95081e-05
30 *805:66 *4741:B1 9.84851e-05
31 *805:81 *4223:A 0.000176515
32 *805:81 *833:95 0
33 *805:81 *847:70 1.01436e-05
34 *4754:A4 *805:42 5.50106e-05
35 *4754:A4 *805:53 8.52481e-05
36 *181:60 *805:81 0
37 *687:10 *4734:A 9.70962e-05
38 *687:10 *805:16 4.21594e-06
39 *689:25 *4742:A1_N 0.000108672
40 *693:10 *805:81 4.93341e-05
41 *694:14 *4742:A1_N 0
42 *695:10 *4742:A1_N 0
43 *695:10 *805:53 0
44 *780:18 *805:10 0.000180218
45 *780:18 *805:42 0.00011218
46 *804:48 *805:66 7.92721e-05
*RES
1 *4903:Q *805:10 40.5479 
2 *805:10 *805:16 3.50071 
3 *805:16 *4734:A 45.1671 
4 *805:16 *4738:A2 38 
5 *805:10 *805:42 30.37 
6 *805:42 *4754:A3 23 
7 *805:42 *805:53 27.6357 
8 *805:53 *4742:A1_N 43.7793 
9 *805:53 *805:66 18.9564 
10 *805:66 *4741:A1 23 
11 *805:66 *805:81 41.3514 
12 *805:81 *4219:A 23 
*END

*D_NET *806 0.00870752
*CONN
*I *4745:A2 I *D sky130_fd_sc_hd__o211a_1
*I *4754:A2 I *D sky130_fd_sc_hd__o41a_1
*I *4740:A I *D sky130_fd_sc_hd__xnor2_2
*I *4739:A I *D sky130_fd_sc_hd__nand2_1
*I *4221:A I *D sky130_fd_sc_hd__and2_1
*I *4904:Q O *D sky130_fd_sc_hd__dfxtp_1
*CAP
1 *4745:A2 1.75705e-05
2 *4754:A2 0.000375247
3 *4740:A 0.000360438
4 *4739:A 7.71504e-05
5 *4221:A 0
6 *4904:Q 0.00013591
7 *806:56 0.00121703
8 *806:37 0.00137161
9 *806:29 0.00161874
10 *806:16 0.000368952
11 *806:6 0.00129291
12 *4745:A2 *4745:A1 1.14154e-05
13 *806:6 *4222:C1 3.7122e-06
14 *806:16 *4221:B 0.000101764
15 *806:16 *846:27 0
16 *806:16 *846:29 0
17 *806:29 *4745:A1 2.4754e-05
18 *806:29 *846:27 5.12206e-05
19 *806:37 *4745:A1 0.000165709
20 *4742:A1_N *4739:A 5.94125e-05
21 *4742:A1_N *806:56 8.4047e-05
22 *4743:A *4739:A 5.50106e-05
23 *4743:A *806:37 0.000176736
24 *4747:B1 *4739:A 9.5877e-05
25 *4747:B1 *806:37 0.000139352
26 *4754:A4 *4754:A2 5.50049e-05
27 *671:35 *4740:A 0
28 *671:35 *4754:A2 0
29 *689:25 *4739:A 5.50049e-05
30 *692:10 *806:37 5.67058e-05
31 *694:14 *4739:A 0
32 *694:14 *4740:A 0.000185085
33 *694:14 *4754:A2 7.06021e-05
34 *777:23 *806:16 0.00019747
35 *777:49 *806:16 9.26098e-05
36 *777:49 *806:29 0
37 *804:31 *4740:A 0
38 *804:48 *806:56 5.08729e-05
39 *805:53 *4754:A2 0.0001396
*RES
1 *4904:Q *806:6 24.5743 
2 *806:6 *806:16 36.815 
3 *806:16 *4221:A 23 
4 *806:6 *806:29 42.76 
5 *806:29 *806:37 27.6979 
6 *806:37 *4739:A 39.9471 
7 *806:37 *806:56 36.5871 
8 *806:56 *4740:A 45.54 
9 *806:56 *4754:A2 44.4421 
10 *806:29 *4745:A2 23.4971 
*END

*D_NET *807 0.00655597
*CONN
*I *5040:A I *D sky130_fd_sc_hd__dlygate4sd3_1
*I *4754:A1 I *D sky130_fd_sc_hd__o41a_1
*I *4746:A I *D sky130_fd_sc_hd__xnor2_1
*I *4223:A I *D sky130_fd_sc_hd__and2_1
*I *4905:Q O *D sky130_fd_sc_hd__dfxtp_1
*CAP
1 *5040:A 0
2 *4754:A1 0
3 *4746:A 0
4 *4223:A 0.000436006
5 *4905:Q 0.000233321
6 *807:37 0.000183131
7 *807:27 0.000539141
8 *807:25 0.00035601
9 *807:10 0.000669326
10 *4223:A *833:95 0
11 *4223:A *847:70 3.47781e-05
12 *807:10 *4948:A 0.00014196
13 *807:10 *847:70 0.000136486
14 *807:27 *847:70 0.000700216
15 *807:27 *970:33 0.0017358
16 *807:37 *962:96 9.84794e-05
17 *807:37 *970:33 5.3304e-05
18 *671:35 *807:37 0.000192087
19 *700:10 *807:37 6.28591e-05
20 *777:70 *807:10 2.02872e-05
21 *805:53 *807:27 0.000731259
22 *805:53 *807:37 5.50049e-05
23 *805:81 *4223:A 0.000176515
*RES
1 *4905:Q *807:10 41.9564 
2 *807:10 *4223:A 46.0164 
3 *807:10 *807:25 15 
4 *807:25 *807:27 19.2021 
5 *807:27 *807:37 34.8057 
6 *807:37 *4746:A 23 
7 *807:27 *4754:A1 23 
8 *807:25 *5040:A 23 
*END

*D_NET *808 0.00547471
*CONN
*I *4274:B1 I *D sky130_fd_sc_hd__a21oi_1
*I *4273:A I *D sky130_fd_sc_hd__and3_1
*I *5032:A I *D sky130_fd_sc_hd__dlygate4sd3_1
*I *4181:A1 I *D sky130_fd_sc_hd__a211o_1
*I *4887:Q O *D sky130_fd_sc_hd__dfxtp_1
*CAP
1 *4274:B1 0
2 *4273:A 0.00040836
3 *5032:A 1.96933e-05
4 *4181:A1 0
5 *4887:Q 0.000160347
6 *808:34 0.00094756
7 *808:21 0.000732093
8 *808:14 0.000228571
9 *808:8 0.000562117
10 *4273:A *1004:43 0
11 *4273:A *1005:48 0
12 *4273:A *1007:74 0.000218503
13 *4273:A *1010:78 7.56417e-05
14 *808:8 *907:10 0.000141954
15 *808:14 *972:51 0.000585981
16 *808:14 *986:44 0.000585981
17 *808:21 *844:33 4.2366e-05
18 *808:34 *841:10 5.3304e-05
19 *808:34 *844:22 0.000530156
20 *808:34 *844:33 3.68387e-05
21 *808:34 *1004:43 0
22 *808:34 *1005:48 0
23 *182:49 *808:8 8.48502e-06
24 *182:49 *808:21 4.67488e-05
25 *238:27 *4273:A 3.9889e-05
26 *239:10 *4273:A 5.01247e-05
*RES
1 *4887:Q *808:8 25.5479 
2 *808:8 *808:14 37.8921 
3 *808:14 *4181:A1 23 
4 *808:8 *808:21 3.00357 
5 *808:21 *5032:A 23.4971 
6 *808:21 *808:34 25.0257 
7 *808:34 *4273:A 46.2443 
8 *808:34 *4274:B1 38 
*END

*D_NET *809 0.00929616
*CONN
*I *4225:A I *D sky130_fd_sc_hd__and2_1
*I *5043:A I *D sky130_fd_sc_hd__dlygate4sd3_1
*I *4762:A1 I *D sky130_fd_sc_hd__a21bo_1
*I *4769:A2 I *D sky130_fd_sc_hd__o21ai_1
*I *4780:A4 I *D sky130_fd_sc_hd__o41ai_2
*I *4751:A I *D sky130_fd_sc_hd__xnor2_1
*I *4906:Q O *D sky130_fd_sc_hd__dfxtp_2
*CAP
1 *4225:A 0
2 *5043:A 2.17273e-05
3 *4762:A1 4.82907e-05
4 *4769:A2 2.34823e-05
5 *4780:A4 0.000182525
6 *4751:A 0.000357463
7 *4906:Q 0
8 *809:81 0.000422861
9 *809:28 0.001239
10 *809:24 0.000952439
11 *809:20 0.000628008
12 *809:14 0.000702959
13 *809:4 0.000754322
14 *4751:A *963:12 0.000245809
15 *4762:A1 *4763:B1_N 0
16 *4780:A4 *962:86 9.84794e-05
17 *5043:A *847:49 8.60475e-05
18 *809:14 *847:60 0
19 *809:14 *967:87 0
20 *809:20 *847:49 0.000576699
21 *809:24 *4762:A2 6.33508e-05
22 *809:24 *4769:B1 2.93845e-05
23 *809:28 *4762:A2 0.000160727
24 *809:81 *4234:B1 6.53382e-05
25 *809:81 *4234:C1 2.64616e-05
26 *809:81 *967:87 5.50049e-05
27 *809:81 *970:52 0.000146663
28 *809:81 *970:58 0
29 *4762:B1_N *809:24 2.32004e-05
30 *4770:B1 *4762:A1 4.6318e-06
31 *181:60 *809:81 9.98891e-05
32 *183:63 *4751:A 6.07929e-05
33 *183:63 *5043:A 5.41385e-05
34 *183:63 *809:20 0.00032352
35 *183:81 *809:81 0.000141954
36 *183:103 *4751:A 0.000208548
37 *183:103 *4780:A4 0.000275473
38 *704:10 *809:20 0
39 *704:25 *4762:A1 2.24973e-05
40 *704:25 *809:20 0.000186687
41 *707:23 *809:24 0.000137651
42 *723:10 *4751:A 0
43 *723:10 *4780:A4 0
44 *725:14 *4751:A 0
45 *777:117 *809:14 0.000359332
46 *777:117 *809:81 3.84349e-05
47 *777:125 *809:81 0.000335624
48 *780:8 *809:28 0.000136743
49 *780:12 *4751:A 0
50 *780:47 *4780:A4 0
*RES
1 *4906:Q *809:4 23 
2 *809:4 *809:14 37.4157 
3 *809:14 *809:20 26.7657 
4 *809:20 *809:24 19.4329 
5 *809:24 *809:28 27.5321 
6 *809:28 *4751:A 45.8921 
7 *809:28 *4780:A4 42.7643 
8 *809:24 *4769:A2 23.4971 
9 *809:20 *4762:A1 38.8493 
10 *809:14 *5043:A 24.0979 
11 *809:4 *809:81 40.9993 
12 *809:81 *4225:A 23 
*END

*D_NET *810 0.00899716
*CONN
*I *4227:A I *D sky130_fd_sc_hd__and2_1
*I *4765:A2 I *D sky130_fd_sc_hd__o211a_1
*I *4770:A1_N I *D sky130_fd_sc_hd__a2bb2o_4
*I *4761:A I *D sky130_fd_sc_hd__xnor2_1
*I *4780:A3 I *D sky130_fd_sc_hd__o41ai_2
*I *4769:A1 I *D sky130_fd_sc_hd__o21ai_1
*I *4907:Q O *D sky130_fd_sc_hd__dfxtp_1
*CAP
1 *4227:A 0
2 *4765:A2 3.76283e-05
3 *4770:A1_N 2.00578e-05
4 *4761:A 0
5 *4780:A3 8.67136e-05
6 *4769:A1 0
7 *4907:Q 0
8 *810:71 0.000230251
9 *810:44 0.000289682
10 *810:29 0.00117087
11 *810:20 0.00016858
12 *810:14 0.00108696
13 *810:12 0.00100336
14 *810:6 0.0014929
15 *810:4 0.000826129
16 *4765:A2 *4765:A1 1.14154e-05
17 *4780:A3 *4780:B1 0
18 *4780:A3 *811:20 5.15762e-05
19 *4780:A3 *962:86 1.21972e-05
20 *810:6 *4765:A1 1.76557e-05
21 *810:12 *4765:A1 0.000177873
22 *810:14 *4770:A2_N 5.50106e-05
23 *810:20 *4766:B 0
24 *810:20 *962:88 0
25 *810:20 *962:90 0
26 *810:20 *963:23 2.08324e-05
27 *810:20 *963:34 0.000107548
28 *810:20 *963:49 1.22803e-05
29 *810:29 *811:20 0.00055735
30 *810:29 *962:86 2.62931e-05
31 *810:44 *4780:A1 6.16439e-05
32 *810:71 *4229:B 9.35649e-05
33 *4765:C1 *810:12 5.41385e-05
34 *183:103 *810:44 0.000487434
35 *715:8 *810:20 4.21594e-06
36 *780:101 *810:6 8.35101e-05
37 *780:112 *4765:A2 0
38 *780:112 *810:6 0.000663284
39 *780:112 *810:71 8.62044e-05
*RES
1 *4907:Q *810:4 23 
2 *810:4 *810:6 9.67357 
3 *810:6 *810:12 12.6979 
4 *810:12 *810:14 2.05071 
5 *810:14 *810:20 33.6664 
6 *810:20 *4769:A1 23 
7 *810:14 *810:29 11.6 
8 *810:29 *4780:A3 24.4707 
9 *810:29 *810:44 36.4836 
10 *810:44 *4761:A 23 
11 *810:12 *4770:A1_N 23.4971 
12 *810:6 *4765:A2 23.8493 
13 *810:4 *810:71 34.7643 
14 *810:71 *4227:A 23 
*END

*D_NET *811 0.00917294
*CONN
*I *4229:A I *D sky130_fd_sc_hd__and2_1
*I *4773:A2 I *D sky130_fd_sc_hd__o211a_1
*I *4766:A I *D sky130_fd_sc_hd__or2_1
*I *4767:A I *D sky130_fd_sc_hd__nand2_1
*I *4780:A2 I *D sky130_fd_sc_hd__o41ai_2
*I *4908:Q O *D sky130_fd_sc_hd__dfxtp_1
*CAP
1 *4229:A 0
2 *4773:A2 4.42025e-05
3 *4766:A 0
4 *4767:A 5.60875e-05
5 *4780:A2 0
6 *4908:Q 0
7 *811:58 0.00022244
8 *811:29 0.000144685
9 *811:20 0.000316935
10 *811:12 0.00133586
11 *811:6 0.00167491
12 *811:4 0.00092282
13 *4767:A *4767:B 0
14 *4767:A *4774:B 0.000141052
15 *4773:A2 *4773:B1 5.45064e-06
16 *811:6 *847:33 2.08776e-05
17 *811:12 *4773:B1 3.22879e-05
18 *811:20 *4766:B 2.49836e-05
19 *811:20 *4780:A1 5.50106e-05
20 *811:20 *962:86 0.000289688
21 *811:29 *4766:B 5.3304e-05
22 *811:29 *4774:B 8.54813e-05
23 *811:58 *847:33 0
24 *811:58 *847:147 0.000491657
25 *811:58 *967:64 0.000145823
26 *811:58 *967:68 1.37349e-05
27 *4230:A2 *811:58 0.000436652
28 *4768:A *4767:A 5.50106e-05
29 *4771:A *811:12 6.9805e-05
30 *4773:C1 *4773:A2 6.9969e-06
31 *4773:C1 *811:12 0.00010018
32 *4780:A3 *811:20 5.15762e-05
33 *4908:D *811:6 0.000169878
34 *181:71 *811:58 3.47781e-05
35 *181:77 *811:58 0.000381207
36 *712:12 *4767:A 4.04206e-05
37 *712:12 *811:12 4.08537e-05
38 *712:12 *811:29 0.000141052
39 *713:14 *811:20 0.000324733
40 *713:27 *811:12 6.19021e-05
41 *713:27 *811:20 7.75329e-06
42 *716:8 *811:12 0.000205566
43 *718:12 *811:12 0
44 *718:12 *811:20 0
45 *718:25 *811:20 0.000349367
46 *719:10 *811:12 8.91468e-07
47 *780:89 *811:6 4.97789e-05
48 *780:89 *811:12 9.88574e-06
49 *810:29 *811:20 0.00055735
*RES
1 *4908:Q *811:4 23 
2 *811:4 *811:6 9.67357 
3 *811:6 *811:12 29.0857 
4 *811:12 *811:20 27.615 
5 *811:20 *4780:A2 23 
6 *811:12 *811:29 17.5271 
7 *811:29 *4767:A 25.0714 
8 *811:29 *4766:A 23 
9 *811:6 *4773:A2 23.8493 
10 *811:4 *811:58 40.1086 
11 *811:58 *4229:A 23 
*END

*D_NET *812 0.00503957
*CONN
*I *4231:A I *D sky130_fd_sc_hd__and2_1
*I *4774:A I *D sky130_fd_sc_hd__xnor2_1
*I *4780:A1 I *D sky130_fd_sc_hd__o41ai_2
*I *4777:B I *D sky130_fd_sc_hd__nor2_1
*I *4909:Q O *D sky130_fd_sc_hd__dfxtp_1
*CAP
1 *4231:A 0.000287841
2 *4774:A 0.000164969
3 *4780:A1 0.000277804
4 *4777:B 0.000508527
5 *4909:Q 3.65899e-05
6 *812:19 0.000755284
7 *812:17 0.000600351
8 *812:6 0.000545116
9 *4231:A *1002:12 1.47563e-05
10 *4774:A *4774:B 0.000313249
11 *4780:A1 *962:86 5.67058e-05
12 *4909:D *4777:B 6.09588e-05
13 *4911:CLK *4777:B 6.82097e-05
14 *183:103 *4231:A 0.000436152
15 *183:103 *4780:A1 0.000182055
16 *183:103 *812:19 0.000281862
17 *718:12 *812:19 0
18 *720:8 *4231:A 0
19 *720:8 *812:19 0
20 *780:49 *4777:B 2.93747e-05
21 *780:73 *4777:B 0.000273722
22 *780:73 *812:6 2.93845e-05
23 *810:44 *4780:A1 6.16439e-05
24 *811:20 *4780:A1 5.50106e-05
*RES
1 *4909:Q *812:6 23.6214 
2 *812:6 *4777:B 31.1407 
3 *812:6 *812:17 15 
4 *812:17 *812:19 7.54 
5 *812:19 *4780:A1 44.4007 
6 *812:19 *4774:A 41.9564 
7 *812:17 *4231:A 45.25 
*END

*D_NET *813 0.0139269
*CONN
*I *4233:A I *D sky130_fd_sc_hd__and2_1
*I *5042:A I *D sky130_fd_sc_hd__dlygate4sd3_1
*I *4788:A1 I *D sky130_fd_sc_hd__a21boi_1
*I *4807:A4 I *D sky130_fd_sc_hd__o41a_1
*I *4795:A2 I *D sky130_fd_sc_hd__o21ai_1
*I *4779:A I *D sky130_fd_sc_hd__xnor2_1
*I *4910:Q O *D sky130_fd_sc_hd__dfxtp_2
*CAP
1 *4233:A 0
2 *5042:A 0
3 *4788:A1 0.00027894
4 *4807:A4 0
5 *4795:A2 8.0784e-05
6 *4779:A 0.000245135
7 *4910:Q 7.59234e-05
8 *813:79 0.00168213
9 *813:62 0.00171144
10 *813:48 0.00128221
11 *813:38 0.00169089
12 *813:25 0.000601822
13 *813:12 0.00121997
14 *813:8 0.00068877
15 *4779:A *4779:B 0.000315857
16 *4779:A *962:21 1.40958e-05
17 *813:8 *971:41 5.56203e-05
18 *813:12 *918:8 0.000135726
19 *813:12 *962:21 1.94812e-05
20 *813:25 *833:17 0
21 *813:25 *833:19 0
22 *813:25 *835:62 0.000339903
23 *813:25 *836:46 0
24 *813:25 *962:21 0.000737906
25 *813:38 *835:62 4.92689e-05
26 *813:38 *962:21 5.94125e-05
27 *813:38 *1002:26 4.73585e-05
28 *813:48 *4795:A1 6.48142e-05
29 *813:48 *4796:A1_N 0.000121021
30 *813:48 *4807:A2 0.00026025
31 *813:48 *4807:A3 1.21972e-05
32 *813:48 *4807:B1 5.42901e-06
33 *813:48 *814:12 7.48331e-05
34 *813:48 *961:27 5.61255e-06
35 *813:48 *968:97 0.000141869
36 *813:62 *971:41 2.84912e-05
37 *813:79 *971:41 8.15327e-05
38 *4794:B *813:48 0.000168821
39 *4926:A *4788:A1 0.000395895
40 *4926:A *813:48 0.000224605
41 *4953:A *813:25 0
42 *153:10 *813:12 0.000310647
43 *183:53 *4795:A2 9.58714e-05
44 *701:10 *813:8 0
45 *701:10 *813:62 0
46 *701:10 *813:79 0
47 *703:10 *813:79 3.22879e-05
48 *722:10 *813:25 0.000123282
49 *726:21 *813:38 2.09183e-05
50 *734:12 *813:48 2.02872e-05
51 *736:10 *813:38 8.4047e-05
52 *737:10 *813:48 0.00030373
53 *745:24 *813:48 1.78098e-05
*RES
1 *4910:Q *813:8 39.5536 
2 *813:8 *813:12 26.5793 
3 *813:12 *4779:A 28.2821 
4 *813:12 *813:25 26.0614 
5 *813:25 *4795:A2 39.0979 
6 *813:25 *813:38 17.9621 
7 *813:38 *813:48 48.8707 
8 *813:48 *4807:A4 23 
9 *813:38 *4788:A1 27.4329 
10 *813:8 *813:62 0.849286 
11 *813:62 *5042:A 38 
12 *813:62 *813:79 44.2486 
13 *813:79 *4233:A 23 
*END

*D_NET *814 0.00867525
*CONN
*I *4790:B I *D sky130_fd_sc_hd__nor2_1
*I *4235:A I *D sky130_fd_sc_hd__and2_1
*I *4787:A I *D sky130_fd_sc_hd__xnor2_1
*I *4807:A3 I *D sky130_fd_sc_hd__o41a_1
*I *4796:A1_N I *D sky130_fd_sc_hd__a2bb2o_4
*I *4795:A1 I *D sky130_fd_sc_hd__o21ai_1
*I *4911:Q O *D sky130_fd_sc_hd__dfxtp_1
*CAP
1 *4790:B 0.000202682
2 *4235:A 0.000477138
3 *4787:A 4.24211e-05
4 *4807:A3 2.53676e-05
5 *4796:A1_N 7.42893e-05
6 *4795:A1 0.000270079
7 *4911:Q 0
8 *814:62 0.000754633
9 *814:40 0.000550236
10 *814:12 0.000476476
11 *814:10 0.000900727
12 *814:8 0.000647144
13 *814:6 0.000435785
14 *4235:A *4237:B 0.000496432
15 *4235:A *968:95 4.75206e-05
16 *4235:A *970:125 0.00010018
17 *4790:B *835:94 6.00453e-05
18 *4795:A1 *835:54 0.000351508
19 *4795:A1 *836:46 4.36401e-06
20 *4795:A1 *837:85 0
21 *4795:A1 *968:97 5.45669e-05
22 *4807:A3 *4807:A2 6.17437e-06
23 *4807:A3 *961:27 5.50106e-05
24 *814:8 *837:85 0
25 *814:8 *968:97 0.000355643
26 *814:10 *837:85 0
27 *814:10 *968:97 0.000250582
28 *814:12 *837:85 0
29 *814:12 *968:97 4.85126e-05
30 *814:40 *4792:B 0.000202653
31 *814:40 *816:30 1.01436e-05
32 *814:40 *816:47 0.000178782
33 *814:62 *837:85 0
34 *814:62 *968:97 4.95442e-05
35 *733:10 *814:40 0.000650619
36 *745:24 *4796:A1_N 0.000184088
37 *772:94 *4795:A1 0.000139764
38 *779:8 *814:40 0.000104959
39 *779:10 *814:40 0.000194318
40 *813:48 *4795:A1 6.48142e-05
41 *813:48 *4796:A1_N 0.000121021
42 *813:48 *4807:A3 1.21972e-05
43 *813:48 *814:12 7.48331e-05
*RES
1 *4911:Q *814:6 38 
2 *814:6 *814:8 9.30071 
3 *814:8 *814:10 6.48357 
4 *814:10 *814:12 2.61 
5 *814:12 *4795:A1 44.5664 
6 *814:12 *4796:A1_N 40.5271 
7 *814:10 *814:40 43.2364 
8 *814:40 *4807:A3 38.6214 
9 *814:8 *4787:A 38.6214 
10 *814:6 *814:62 16.5536 
11 *814:62 *4235:A 33.3157 
12 *814:62 *4790:B 26.9979 
*END

*D_NET *815 0.00538395
*CONN
*I *4237:A I *D sky130_fd_sc_hd__and2_1
*I *5036:A I *D sky130_fd_sc_hd__dlygate4sd3_1
*I *4792:A I *D sky130_fd_sc_hd__or2_1
*I *4807:A2 I *D sky130_fd_sc_hd__o41a_1
*I *4793:A I *D sky130_fd_sc_hd__nand2_1
*I *4912:Q O *D sky130_fd_sc_hd__dfxtp_1
*CAP
1 *4237:A 0
2 *5036:A 0.00012394
3 *4792:A 0
4 *4807:A2 0.000115584
5 *4793:A 2.55832e-05
6 *4912:Q 3.50064e-05
7 *815:54 0.000224734
8 *815:16 0.000221448
9 *815:14 0.00061178
10 *815:8 0.000695555
11 *815:6 0.000299856
12 *4793:A *966:102 6.16439e-05
13 *4807:A2 *4807:A1 2.64616e-05
14 *4807:A2 *961:27 1.88687e-05
15 *5036:A *832:121 0.000255642
16 *815:14 *832:98 5.86328e-05
17 *815:14 *832:121 0.000228909
18 *815:14 *832:134 8.68575e-05
19 *815:14 *966:102 0.000857642
20 *815:16 *966:102 0.000187986
21 *815:54 *845:103 0
22 *4807:A3 *4807:A2 6.17437e-06
23 *200:10 *815:54 0.000177925
24 *734:12 *4807:A2 0.000135037
25 *738:10 *4793:A 6.16439e-05
26 *738:10 *815:14 0.000428951
27 *738:10 *815:16 0.000177843
28 *813:48 *4807:A2 0.00026025
*RES
1 *4912:Q *815:6 23.6214 
2 *815:6 *815:8 0.849286 
3 *815:8 *815:14 30.8464 
4 *815:14 *815:16 2.61 
5 *815:16 *4793:A 38.8493 
6 *815:16 *4807:A2 41.0036 
7 *815:14 *4792:A 38 
8 *815:8 *5036:A 26.0036 
9 *815:6 *815:54 34.7229 
10 *815:54 *4237:A 23 
*END

*D_NET *816 0.00650377
*CONN
*I *4239:A I *D sky130_fd_sc_hd__and2_1
*I *4807:A1 I *D sky130_fd_sc_hd__o41a_1
*I *5046:A I *D sky130_fd_sc_hd__dlygate4sd3_1
*I *4800:A I *D sky130_fd_sc_hd__xnor2_1
*I *4913:Q O *D sky130_fd_sc_hd__dfxtp_1
*CAP
1 *4239:A 0
2 *4807:A1 2.77218e-05
3 *5046:A 0
4 *4800:A 0.000108058
5 *4913:Q 0.000182872
6 *816:47 0.000812519
7 *816:30 0.0011364
8 *816:21 0.000370756
9 *816:8 0.000365525
10 *4800:A *845:88 4.54033e-05
11 *4807:A1 *961:27 5.3304e-05
12 *816:21 *845:88 6.08032e-05
13 *816:30 *845:88 0.000225111
14 *816:47 *4815:A1 7.58343e-06
15 *816:47 *832:98 1.47563e-05
16 *816:47 *832:134 0.000502835
17 *816:47 *845:88 0.000833007
18 *4807:A2 *4807:A1 2.64616e-05
19 *4894:CLK *4800:A 4.6318e-06
20 *155:10 *816:47 0.000169674
21 *741:8 *816:21 3.92407e-05
22 *741:8 *816:30 0.000347536
23 *753:8 *816:47 2.54193e-05
24 *779:10 *4800:A 4.54033e-05
25 *779:10 *816:21 7.70038e-05
26 *779:10 *816:30 0.000273598
27 *779:10 *816:47 4.17929e-05
28 *779:25 *816:8 5.47808e-05
29 *779:56 *816:47 0.000433035
30 *779:65 *816:47 2.96051e-05
31 *814:40 *816:30 1.01436e-05
32 *814:40 *816:47 0.000178782
*RES
1 *4913:Q *816:8 40.5271 
2 *816:8 *4800:A 40.2993 
3 *816:8 *816:21 2.25786 
4 *816:21 *5046:A 38 
5 *816:21 *816:30 8.24429 
6 *816:30 *4807:A1 38.6214 
7 *816:30 *816:47 37.475 
8 *816:47 *4239:A 23 
*END

*D_NET *817 0.00366823
*CONN
*I *5035:A I *D sky130_fd_sc_hd__dlygate4sd3_1
*I *4241:A I *D sky130_fd_sc_hd__and2_1
*I *4809:A I *D sky130_fd_sc_hd__and2_1
*I *4810:A I *D sky130_fd_sc_hd__nor2_1
*I *4826:A2 I *D sky130_fd_sc_hd__o21ai_1
*I *4914:Q O *D sky130_fd_sc_hd__dfxtp_1
*CAP
1 *5035:A 0.00024375
2 *4241:A 9.28253e-05
3 *4809:A 0
4 *4810:A 2.34823e-05
5 *4826:A2 0.000160683
6 *4914:Q 0
7 *817:14 0.000222182
8 *817:12 0.00027697
9 *817:8 0.000432162
10 *817:4 0.000344135
11 *4241:A *970:100 0.000308661
12 *4810:A *961:65 0
13 *4826:A2 *961:65 0.000394988
14 *817:12 *970:100 0.00058375
15 *817:14 *4810:B 5.50049e-05
16 *817:14 *961:65 0.000129522
17 *4827:A1 *4826:A2 7.44257e-05
18 *198:10 *4241:A 0.000105594
19 *198:10 *817:12 0.000195345
20 *749:10 *817:14 2.4754e-05
*RES
1 *4914:Q *817:4 23 
2 *817:4 *817:8 16.0979 
3 *817:8 *817:12 22.8921 
4 *817:12 *817:14 1.57429 
5 *817:14 *4826:A2 27.4329 
6 *817:14 *4810:A 23.4971 
7 *817:12 *4809:A 23 
8 *817:8 *4241:A 42.0186 
9 *817:4 *5035:A 27.3293 
*END

*D_NET *818 0.0039438
*CONN
*I *4816:A I *D sky130_fd_sc_hd__xor2_1
*I *4243:A I *D sky130_fd_sc_hd__and2_1
*I *4826:A1 I *D sky130_fd_sc_hd__o21ai_1
*I *5045:A I *D sky130_fd_sc_hd__dlygate4sd3_1
*I *4915:Q O *D sky130_fd_sc_hd__dfxtp_1
*CAP
1 *4816:A 4.89523e-05
2 *4243:A 0
3 *4826:A1 0
4 *5045:A 9.69818e-05
5 *4915:Q 8.95044e-05
6 *818:36 0.000770298
7 *818:23 0.00113941
8 *818:12 0.000644295
9 *818:8 0.000316658
10 *4816:A *835:27 0.00014196
11 *818:8 *4816:B 0
12 *818:8 *4819:B 5.37348e-06
13 *818:8 *835:27 2.69037e-05
14 *818:12 *4938:A 0
15 *818:12 *845:18 0
16 *818:12 *921:8 5.00543e-05
17 *818:23 *845:18 0
18 *818:36 *845:12 0
19 *818:36 *845:18 0
20 *4827:A1 *818:23 0.000130056
21 *4827:A1 *818:36 1.83564e-05
22 *4827:A2 *818:23 4.43717e-05
23 *4828:C *818:23 7.8128e-05
24 *157:8 *818:36 0.000116314
25 *762:8 *5045:A 5.70419e-05
26 *762:10 *818:23 0.000169142
27 *764:36 *818:36 0
28 *765:10 *818:36 0
*RES
1 *4915:Q *818:8 24.9471 
2 *818:8 *818:12 17.9621 
3 *818:12 *5045:A 40.0507 
4 *818:12 *818:23 8.59643 
5 *818:23 *4826:A1 38 
6 *818:23 *818:36 30.0179 
7 *818:36 *4243:A 23 
8 *818:8 *4816:A 24.5743 
*END

*D_NET *819 0.0040406
*CONN
*I *4287:A I *D sky130_fd_sc_hd__nand2_1
*I *4288:A I *D sky130_fd_sc_hd__or2_1
*I *5033:A I *D sky130_fd_sc_hd__dlygate4sd3_1
*I *4184:A1 I *D sky130_fd_sc_hd__a211o_1
*I *4888:Q O *D sky130_fd_sc_hd__dfxtp_1
*CAP
1 *4287:A 0
2 *4288:A 0
3 *5033:A 3.76539e-05
4 *4184:A1 0.000333339
5 *4888:Q 0
6 *819:53 0.000156374
7 *819:40 5.4787e-05
8 *819:34 0.000641694
9 *819:23 0.000673292
10 *819:6 0.000538444
11 *4184:A1 *4184:A2 4.37033e-05
12 *4184:A1 *1010:52 0
13 *819:23 *1010:52 0
14 *819:40 *1010:18 0
15 *819:53 *974:14 1.232e-05
16 *819:53 *1001:20 2.72882e-05
17 *4184:B1 *4184:A1 2.02517e-05
18 *4289:A *819:34 7.2804e-05
19 *4289:A *819:53 0.000270671
20 *4289:B *819:34 0.000144501
21 *4848:CLK *4184:A1 0.000276679
22 *4848:CLK *819:23 2.3529e-05
23 *182:68 *819:23 0
24 *252:6 *819:53 4.21048e-05
25 *254:27 *819:34 0.000187418
26 *254:27 *819:40 2.72882e-05
27 *254:27 *819:53 8.60758e-05
28 *257:8 *4184:A1 0.000141888
29 *257:8 *819:23 1.14452e-05
30 *274:8 *819:53 0.000102389
31 *775:26 *819:23 0.000114656
*RES
1 *4888:Q *819:6 38 
2 *819:6 *4184:A1 46.7829 
3 *819:6 *819:23 18.6664 
4 *819:23 *5033:A 23.6214 
5 *819:23 *819:34 8.265 
6 *819:34 *819:40 30.8493 
7 *819:40 *4288:A 23 
8 *819:34 *819:53 34.3293 
9 *819:53 *4287:A 23 
*END

*D_NET *820 0.00412285
*CONN
*I *5044:A I *D sky130_fd_sc_hd__dlygate4sd3_1
*I *4245:A I *D sky130_fd_sc_hd__and2_1
*I *4821:A I *D sky130_fd_sc_hd__nor2_1
*I *4822:A I *D sky130_fd_sc_hd__and2_1
*I *4916:Q O *D sky130_fd_sc_hd__dfxtp_1
*CAP
1 *5044:A 0
2 *4245:A 0
3 *4821:A 0
4 *4822:A 7.20401e-05
5 *4916:Q 5.29834e-05
6 *820:44 0.000391222
7 *820:36 0.000692808
8 *820:16 0.000560246
9 *820:10 0.000842775
10 *4822:A *4832:B 0
11 *4822:A *961:77 4.7881e-05
12 *4822:A *961:79 5.67058e-05
13 *820:16 *920:8 0.000224345
14 *820:16 *961:77 9.84794e-05
15 *820:16 *1009:117 0
16 *820:36 *839:131 2.70366e-05
17 *820:36 *920:8 0.000150977
18 *820:44 *5025:A 0
19 *820:44 *951:23 0
20 *820:44 *968:40 0
21 *820:44 *972:142 6.07611e-06
22 *4827:B1 *4822:A 0
23 *4914:CLK *820:16 6.11286e-05
24 *4914:CLK *820:36 1.62015e-05
25 *163:19 *820:36 0.000193729
26 *163:19 *820:44 0.000268011
27 *221:10 *820:10 5.50106e-05
28 *758:10 *4822:A 2.93747e-05
29 *760:10 *820:16 2.76611e-06
30 *764:36 *820:16 0
31 *766:8 *820:16 0.000225691
32 *779:110 *820:36 4.73585e-05
*RES
1 *4916:Q *820:10 39.1186 
2 *820:10 *820:16 27.1593 
3 *820:16 *4822:A 25.0714 
4 *820:16 *4821:A 23 
5 *820:10 *820:36 21.9186 
6 *820:36 *820:44 37.9957 
7 *820:44 *4245:A 23 
8 *820:36 *5044:A 23 
*END

*D_NET *821 0.00515617
*CONN
*I *4832:A I *D sky130_fd_sc_hd__xnor2_1
*I *4247:A I *D sky130_fd_sc_hd__and2_1
*I *5047:A I *D sky130_fd_sc_hd__dlygate4sd3_1
*I *4917:Q O *D sky130_fd_sc_hd__dfxtp_1
*CAP
1 *4832:A 0.000686223
2 *4247:A 0
3 *5047:A 0.000391746
4 *4917:Q 0
5 *821:25 0.000710591
6 *821:8 0.00115346
7 *821:4 0.000737341
8 *821:25 *972:142 0.00118534
9 *4917:D *4832:A 0.00017248
10 *768:12 *4832:A 1.24376e-05
11 *770:6 *4832:A 0.00010655
*RES
1 *4917:Q *821:4 23 
2 *821:4 *821:8 15.6214 
3 *821:8 *5047:A 44.67 
4 *821:8 *821:25 32.7314 
5 *821:25 *4247:A 23 
6 *821:4 *4832:A 37.0443 
*END

*D_NET *822 0.00494021
*CONN
*I *5034:A I *D sky130_fd_sc_hd__dlygate4sd3_1
*I *4307:A I *D sky130_fd_sc_hd__nand2_1
*I *4308:A I *D sky130_fd_sc_hd__or2_1
*I *4186:B2 I *D sky130_fd_sc_hd__a22o_1
*I *4889:Q O *D sky130_fd_sc_hd__dfxtp_1
*CAP
1 *5034:A 0.00030966
2 *4307:A 0
3 *4308:A 0.000388104
4 *4186:B2 0.000294613
5 *4889:Q 0
6 *822:12 0.000702172
7 *822:10 0.000411702
8 *822:4 0.000701905
9 *4186:B2 *4186:A1 0.000396241
10 *4186:B2 *844:18 0.000111253
11 *4186:B2 *972:85 3.4825e-05
12 *4186:B2 *973:10 6.51763e-05
13 *4186:B2 *974:82 5.3304e-05
14 *822:10 *844:18 0.000260887
15 *822:10 *972:16 0.000267467
16 *822:12 *844:18 1.80023e-05
17 *4186:A2 *4186:B2 0
18 *4187:C1 *4186:B2 0
19 *4335:A2 *4308:A 4.38923e-05
20 *270:20 *822:10 1.34542e-05
21 *270:20 *822:12 6.07611e-06
22 *271:6 *4308:A 0.000139346
23 *271:19 *4308:A 4.08664e-05
24 *272:14 *4308:A 0.000180588
25 *298:10 *4308:A 4.06849e-05
26 *775:14 *4186:B2 0.000406628
27 *775:14 *822:12 5.33597e-05
*RES
1 *4889:Q *822:4 23 
2 *822:4 *822:10 26.3307 
3 *822:10 *822:12 0.849286 
4 *822:12 *4186:B2 47.6529 
5 *822:12 *4308:A 45.9543 
6 *822:10 *4307:A 38 
7 *822:4 *5034:A 27.93 
*END

*D_NET *823 0.00598744
*CONN
*I *4333:B1 I *D sky130_fd_sc_hd__a21o_1
*I *4332:A I *D sky130_fd_sc_hd__and3_1
*I *4190:A1 I *D sky130_fd_sc_hd__a211o_1
*I *4337:A0 I *D sky130_fd_sc_hd__mux2_1
*I *4890:Q O *D sky130_fd_sc_hd__dfxtp_1
*CAP
1 *4333:B1 0
2 *4332:A 9.35516e-05
3 *4190:A1 0
4 *4337:A0 0.000126743
5 *4890:Q 0
6 *823:40 0.000827822
7 *823:29 0.000391662
8 *823:12 0.000707992
9 *823:4 0.000923857
10 *4337:A0 *839:93 0.000272377
11 *823:12 *839:93 0.000216471
12 *823:29 *972:10 0.000399437
13 *823:29 *972:99 0.000264924
14 *823:29 *972:107 2.53762e-05
15 *823:40 *825:12 0.000127809
16 *823:40 *843:116 0.00019975
17 *823:40 *972:131 2.11887e-05
18 *4190:C1 *823:29 0.000706221
19 *182:91 *4332:A 0
20 *182:91 *823:40 0
21 *183:18 *823:29 6.9805e-05
22 *196:10 *4332:A 0.000168754
23 *196:10 *823:40 0.000427499
24 *295:26 *4332:A 2.76611e-06
25 *295:26 *823:40 1.34354e-05
26 *299:8 *823:29 0
*RES
1 *4890:Q *823:4 23 
2 *823:4 *823:12 34.0807 
3 *823:12 *4337:A0 26.0036 
4 *823:12 *823:29 43.0086 
5 *823:29 *4190:A1 23 
6 *823:4 *823:40 29.6657 
7 *823:40 *4332:A 40.2579 
8 *823:40 *4333:B1 38 
*END

*D_NET *824 0.00831793
*CONN
*I *5037:A I *D sky130_fd_sc_hd__dlygate4sd3_1
*I *4366:B1 I *D sky130_fd_sc_hd__a31o_1
*I *4365:A I *D sky130_fd_sc_hd__and4_1
*I *4193:A1 I *D sky130_fd_sc_hd__a211o_1
*I *4891:Q O *D sky130_fd_sc_hd__dfxtp_1
*CAP
1 *5037:A 0.000169658
2 *4366:B1 0.000145947
3 *4365:A 0
4 *4193:A1 0
5 *4891:Q 0
6 *824:35 0.000174361
7 *824:26 0.000642458
8 *824:16 0.00155986
9 *824:10 0.0016256
10 *824:4 0.000849436
11 *824:10 *912:8 3.81081e-05
12 *4326:A2 *824:16 5.50049e-05
13 *4328:C *824:16 0.000131154
14 *4329:A1 *824:16 3.78927e-05
15 *4329:A2 *824:16 0.000266265
16 *4331:B1_N *824:26 4.94073e-05
17 *4365:B *4366:B1 9.24795e-06
18 *4366:A2 *4366:B1 0.000182832
19 *4366:A2 *824:35 9.67842e-05
20 *199:10 *824:26 0.000185755
21 *268:23 *824:26 0.00023879
22 *279:20 *824:16 0.000185434
23 *289:6 *824:16 0.000225393
24 *291:40 *824:16 0.000193379
25 *292:8 *824:26 0
26 *293:10 *824:26 0.00035673
27 *293:28 *824:26 5.50049e-05
28 *293:34 *824:16 6.16531e-05
29 *293:47 *824:10 9.8139e-05
30 *293:47 *824:16 8.67978e-05
31 *323:44 *4366:B1 3.22879e-05
32 *324:10 *824:10 5.24393e-05
33 *324:10 *824:16 0.000110922
34 *326:10 *824:10 4.08537e-05
35 *327:10 *824:10 1.69668e-05
36 *328:10 *4366:B1 4.2573e-05
37 *328:10 *824:10 0
38 *328:10 *824:35 9.67842e-05
39 *329:8 *824:10 0
40 *331:10 *824:10 0
41 *776:32 *5037:A 0.000180812
42 *776:32 *824:10 2.3191e-05
*RES
1 *4891:Q *824:4 23 
2 *824:4 *824:10 27.1593 
3 *824:10 *824:16 35.3414 
4 *824:16 *824:26 43.7336 
5 *824:26 *4193:A1 23 
6 *824:10 *824:35 16.0979 
7 *824:35 *4365:A 23 
8 *824:35 *4366:B1 26.5007 
9 *824:4 *5037:A 27.3293 
*END

*D_NET *825 0.0106667
*CONN
*I *5039:A I *D sky130_fd_sc_hd__dlygate4sd3_1
*I *4405:A I *D sky130_fd_sc_hd__and3_1
*I *4406:B1 I *D sky130_fd_sc_hd__a21o_1
*I *4196:A1 I *D sky130_fd_sc_hd__a211o_1
*I *4892:Q O *D sky130_fd_sc_hd__dfxtp_1
*CAP
1 *5039:A 0.00017481
2 *4405:A 0.000179544
3 *4406:B1 0
4 *4196:A1 0
5 *4892:Q 0
6 *825:25 0.000640947
7 *825:19 0.000849648
8 *825:12 0.000150115
9 *825:6 0.00238733
10 *825:4 0.00245065
11 *5039:A *4819:A 0
12 *825:6 *836:29 0.000416411
13 *825:6 *839:93 6.70361e-05
14 *825:6 *1002:44 0.000270682
15 *825:6 *1009:55 9.52619e-05
16 *825:12 *4196:A2 8.82299e-05
17 *825:12 *972:131 0.000199063
18 *825:25 *844:81 0.000243298
19 *825:25 *1010:146 0.000167053
20 *4405:B *4405:A 4.95081e-05
21 *4405:B *825:25 4.334e-05
22 *4406:A2 *4405:A 5.92727e-05
23 *4407:A_N *4405:A 3.91386e-05
24 *4892:D *825:6 2.5622e-05
25 *196:10 *825:12 1.01436e-05
26 *365:12 *4405:A 4.37555e-05
27 *366:8 *4405:A 0.000182832
28 *776:21 *825:6 0.000278944
29 *776:32 *825:6 0.00140441
30 *776:45 *825:6 2.18409e-05
31 *823:40 *825:12 0.000127809
*RES
1 *4892:Q *825:4 23 
2 *825:4 *825:6 35.4007 
3 *825:6 *825:12 34.0186 
4 *825:12 *4196:A1 23 
5 *825:4 *825:19 2.52714 
6 *825:19 *825:25 39.6529 
7 *825:25 *4406:B1 23 
8 *825:25 *4405:A 28.3029 
9 *825:19 *5039:A 25.4236 
*END

*D_NET *826 0.00465531
*CONN
*I *4198:A I *D sky130_fd_sc_hd__and2_1
*I *4451:B1 I *D sky130_fd_sc_hd__a21oi_1
*I *4450:A I *D sky130_fd_sc_hd__and3_1
*I *5029:A I *D sky130_fd_sc_hd__dlygate4sd3_1
*I *4893:Q O *D sky130_fd_sc_hd__dfxtp_1
*CAP
1 *4198:A 0.00039613
2 *4451:B1 0
3 *4450:A 0.000265219
4 *5029:A 0
5 *4893:Q 0
6 *826:27 0.000666037
7 *826:12 0.000580265
8 *826:6 0.000575576
9 *4198:A *4198:B 0.000187129
10 *4198:A *4959:A 8.1796e-05
11 *4198:A *835:35 0
12 *4198:A *849:12 6.43005e-05
13 *4198:A *970:19 1.40958e-05
14 *4198:A *971:25 4.39607e-05
15 *826:12 *835:35 0
16 *826:12 *845:26 0.00010018
17 *826:12 *849:12 0.000154396
18 *826:27 *835:35 0.00021673
19 *826:27 *838:124 0.000219319
20 *826:27 *845:26 4.17736e-05
21 *826:27 *849:12 0
22 *826:27 *849:14 0.000494368
23 *4450:C *4450:A 3.22076e-05
24 *4451:A1 *4450:A 1.32939e-05
25 *4451:A2 *4450:A 6.99571e-05
26 *4456:C1 *826:12 9.84851e-05
27 *4456:C1 *826:27 5.50049e-05
28 *409:6 *4450:A 7.39261e-05
29 *410:10 *4450:A 2.83349e-05
30 *410:10 *826:27 0.00018282
31 *410:26 *4450:A 0
*RES
1 *4893:Q *826:6 38 
2 *826:6 *826:12 20.1164 
3 *826:12 *5029:A 23 
4 *826:12 *826:27 41.6207 
5 *826:27 *4450:A 28.0957 
6 *826:27 *4451:B1 23 
7 *826:6 *4198:A 46.7207 
*END

*D_NET *827 0.00475167
*CONN
*I *4201:A I *D sky130_fd_sc_hd__and2_1
*I *4502:A0 I *D sky130_fd_sc_hd__mux2_1
*I *4498:A I *D sky130_fd_sc_hd__or2_1
*I *4497:A I *D sky130_fd_sc_hd__and2_1
*I *4894:Q O *D sky130_fd_sc_hd__dfxtp_1
*CAP
1 *4201:A 9.31596e-05
2 *4502:A0 0
3 *4498:A 0
4 *4497:A 0
5 *4894:Q 0.000195598
6 *827:34 0.000241983
7 *827:22 0.00119085
8 *827:14 0.00117649
9 *827:8 0.000516387
10 *4201:A *966:102 0
11 *4201:A *970:31 0.000135557
12 *827:8 *970:33 0.000228909
13 *827:14 *832:44 0.000141692
14 *827:14 *966:102 0
15 *827:14 *968:97 0
16 *827:14 *970:31 3.70094e-05
17 *827:22 *838:122 0.000172821
18 *827:22 *966:100 0
19 *827:22 *968:97 0
20 *827:34 *838:122 1.73399e-05
21 *4499:B *827:22 0
22 *4502:A1 *827:14 9.67842e-05
23 *4504:B1 *827:34 2.02872e-05
24 *455:8 *827:34 3.61695e-05
25 *455:21 *827:34 0.000240358
26 *457:10 *827:22 5.67058e-05
27 *457:10 *827:34 0
28 *459:33 *827:22 0
29 *460:10 *827:14 3.70094e-05
30 *460:10 *827:22 0.000116565
31 *501:8 *827:22 0
*RES
1 *4894:Q *827:8 41.0036 
2 *827:8 *827:14 20.4686 
3 *827:14 *827:22 49.5129 
4 *827:22 *827:34 35.075 
5 *827:34 *4497:A 23 
6 *827:22 *4498:A 23 
7 *827:14 *4502:A0 23 
8 *827:8 *4201:A 39.9057 
*END

*D_NET *828 0.00377636
*CONN
*I *4203:A I *D sky130_fd_sc_hd__and2_1
*I *5030:A I *D sky130_fd_sc_hd__dlygate4sd3_1
*I *4539:A I *D sky130_fd_sc_hd__nand2_1
*I *4541:A I *D sky130_fd_sc_hd__nor2_1
*I *4895:Q O *D sky130_fd_sc_hd__dfxtp_1
*CAP
1 *4203:A 0.000381394
2 *5030:A 0
3 *4539:A 9.26033e-05
4 *4541:A 0
5 *4895:Q 0
6 *828:38 0.00042818
7 *828:30 0.000995344
8 *828:12 0.000540648
9 *828:4 0.000633815
10 *4203:A *1012:49 0.000252007
11 *828:12 *1012:23 8.26569e-05
12 *828:30 *1012:49 5.12328e-05
13 *828:38 *4736:B1_N 5.50106e-05
14 *828:38 *836:76 0
15 *828:38 *1012:15 5.33213e-05
16 *828:38 *1012:23 2.99716e-05
17 *4541:B *4539:A 5.26134e-05
18 *4895:D *828:30 2.13733e-05
19 *497:19 *4539:A 7.44354e-05
20 *497:19 *828:12 3.17516e-05
*RES
1 *4895:Q *828:4 23 
2 *828:4 *828:12 38.5964 
3 *828:12 *4541:A 23 
4 *828:12 *4539:A 25.5686 
5 *828:4 *828:30 2.52714 
6 *828:30 *828:38 37.105 
7 *828:38 *5030:A 23 
8 *828:30 *4203:A 29.235 
*END

*D_NET *829 0.00170734
*CONN
*I *4939:A I *D sky130_fd_sc_hd__clkbuf_2
*I *4837:Q O *D sky130_fd_sc_hd__dfxtp_1
*CAP
1 *4939:A 0
2 *4837:Q 0.000587763
3 *829:10 0.000587763
4 *829:10 *4191:C1 7.21314e-05
5 *829:10 *839:81 0.000158999
6 *829:10 *1009:16 1.91149e-05
7 *829:10 *1009:42 0.000138607
8 *4837:CLK *829:10 6.00325e-05
9 *193:10 *829:10 8.29264e-05
*RES
1 *4837:Q *829:10 47.0729 
2 *829:10 *4939:A 38 
*END

*D_NET *830 0.0015494
*CONN
*I *4172:B I *D sky130_fd_sc_hd__or3b_2
*I *4149:B I *D sky130_fd_sc_hd__or4b_1
*I *4154:B I *D sky130_fd_sc_hd__nor4_1
*I *5048:X O *D sky130_fd_sc_hd__buf_1
*CAP
1 *4172:B 0
2 *4149:B 0
3 *4154:B 3.84776e-05
4 *5048:X 0.000238444
5 *830:38 8.6045e-05
6 *830:25 0.000284457
7 *830:10 0.00023689
8 *830:8 0.000238444
9 *830:8 *925:12 5.561e-05
10 *830:8 *925:23 0
11 *830:25 *4149:C 3.04516e-05
12 *5048:A *830:8 6.16635e-05
13 *4:17 *830:8 0
14 *164:10 *830:38 8.62783e-05
15 *169:10 *830:25 9.84794e-05
16 *169:10 *830:38 9.41578e-05
*RES
1 *5048:X *830:8 42.7229 
2 *830:8 *830:10 15 
3 *830:10 *4154:B 23.6214 
4 *830:10 *830:25 3.54214 
5 *830:25 *4149:B 23 
6 *830:25 *830:38 31.8229 
7 *830:38 *4172:B 23 
*END

*D_NET *831 0.00283037
*CONN
*I *4174:B I *D sky130_fd_sc_hd__and2b_4
*I *4148:B I *D sky130_fd_sc_hd__and3_1
*I *4249:A I *D sky130_fd_sc_hd__and3_4
*I *4175:B I *D sky130_fd_sc_hd__nand2b_4
*I *4155:A I *D sky130_fd_sc_hd__and3_4
*I *5049:X O *D sky130_fd_sc_hd__clkbuf_2
*CAP
1 *4174:B 3.2539e-05
2 *4148:B 0
3 *4249:A 2.80902e-05
4 *4175:B 0
5 *4155:A 0
6 *5049:X 9.96059e-05
7 *831:33 0.000266226
8 *831:18 0.000429445
9 *831:14 0.000389937
10 *831:8 0.000330773
11 *4174:B *924:8 2.93845e-05
12 *4249:A *4249:B 0.000187129
13 *831:14 *842:6 1.56662e-06
14 *831:14 *842:17 1.02949e-05
15 *831:18 *4148:C 0.000135032
16 *831:18 *842:17 4.62398e-06
17 *831:33 *4148:C 1.76557e-05
18 *831:33 *4249:B 0.000216471
19 *831:33 *844:35 9.64022e-05
20 *831:33 *924:26 5.3304e-05
21 *831:33 *924:32 0.000195248
22 *79:17 *831:14 0
23 *164:8 *831:18 5.67058e-05
24 *164:10 *831:8 5.61414e-05
25 *164:10 *831:14 5.0135e-05
26 *182:10 *4249:A 0.000143655
*RES
1 *5049:X *831:8 40.2579 
2 *831:8 *831:14 18.3557 
3 *831:14 *831:18 4.45357 
4 *831:18 *4155:A 23 
5 *831:18 *831:33 36.235 
6 *831:33 *4175:B 23 
7 *831:33 *4249:A 25.0507 
8 *831:14 *4148:B 23 
9 *831:8 *4174:B 38.6214 
*END

*D_NET *832 0.0189144
*CONN
*I *4814:A I *D sky130_fd_sc_hd__nand2_1
*I *4815:A1 I *D sky130_fd_sc_hd__o211a_1
*I *4791:A2 I *D sky130_fd_sc_hd__a211oi_1
*I *4799:A1 I *D sky130_fd_sc_hd__o211a_1
*I *4798:A I *D sky130_fd_sc_hd__nand2_1
*I *4803:A I *D sky130_fd_sc_hd__nor2_1
*I *4804:A2 I *D sky130_fd_sc_hd__a211oi_1
*I *4502:S I *D sky130_fd_sc_hd__mux2_1
*I *4455:B1_N I *D sky130_fd_sc_hd__a21bo_1
*I *4456:A1 I *D sky130_fd_sc_hd__o211a_1
*I *4935:X O *D sky130_fd_sc_hd__buf_2
*CAP
1 *4814:A 0
2 *4815:A1 0.00104266
3 *4791:A2 0
4 *4799:A1 0
5 *4798:A 0
6 *4803:A 0
7 *4804:A2 1.50079e-05
8 *4502:S 0
9 *4455:B1_N 0
10 *4456:A1 0
11 *4935:X 0
12 *832:134 0.0014053
13 *832:121 0.000682466
14 *832:102 0.000707852
15 *832:98 0.000463336
16 *832:89 0.000270544
17 *832:87 0.00110266
18 *832:63 1.50079e-05
19 *832:61 0.00147051
20 *832:44 0.00098818
21 *832:29 0.00126814
22 *832:23 0.00122375
23 *832:14 0.00021476
24 *832:4 0.000595469
25 *4815:A1 *4815:A2 3.38098e-05
26 *4815:A1 *4815:B1 1.94693e-05
27 *832:14 *4456:A2 8.12205e-05
28 *832:14 *845:26 0.000183733
29 *832:14 *849:12 0.000164291
30 *832:23 *835:35 0.000119457
31 *832:44 *966:102 9.70859e-05
32 *832:61 *838:124 0
33 *832:61 *971:25 2.65879e-05
34 *832:61 *1002:115 0
35 *832:87 *845:88 0.000302134
36 *832:87 *966:102 9.15507e-05
37 *832:87 *970:23 0.000330416
38 *832:87 *1002:115 0
39 *832:89 *845:88 0.000595473
40 *832:98 *845:88 0.000158229
41 *832:102 *845:88 5.50106e-05
42 *832:121 *4799:A2 0.00026193
43 *832:121 *845:88 1.22822e-05
44 *832:121 *845:103 0.000169683
45 *832:121 *911:8 0
46 *832:134 *966:102 0
47 *4455:A1 *832:29 5.72217e-05
48 *4455:A1 *832:44 7.63554e-05
49 *4455:A2 *832:29 5.37348e-06
50 *4456:C1 *832:14 9.84794e-05
51 *4502:A1 *832:44 0.000182826
52 *4503:B *832:44 1.32314e-05
53 *4804:B1 *4804:A2 5.50049e-05
54 *4804:B1 *832:61 0.000185428
55 *4894:CLK *832:44 0.000100733
56 *4894:D *832:44 8.15899e-06
57 *4912:D *832:134 1.64354e-05
58 *5036:A *832:121 0.000255642
59 *155:10 *832:134 0.000167443
60 *156:8 *832:61 0.000194318
61 *200:10 *832:121 0
62 *415:8 *832:29 4.07715e-05
63 *415:8 *832:61 8.92944e-05
64 *734:12 *832:87 0.000186448
65 *738:10 *832:87 0.00023356
66 *738:10 *832:89 0.000295597
67 *738:10 *832:98 6.07611e-06
68 *742:10 *4804:A2 5.50049e-05
69 *753:8 *4815:A1 0.00114258
70 *772:14 *832:29 0.000114083
71 *772:28 *832:23 0.000109125
72 *772:86 *832:23 1.59094e-05
73 *815:14 *832:98 5.86328e-05
74 *815:14 *832:121 0.000228909
75 *815:14 *832:134 8.68575e-05
76 *816:47 *4815:A1 7.58343e-06
77 *816:47 *832:98 1.47563e-05
78 *816:47 *832:134 0.000502835
79 *827:14 *832:44 0.000141692
*RES
1 *4935:X *832:4 23 
2 *832:4 *832:14 35.7586 
3 *832:14 *4456:A1 23 
4 *832:4 *832:23 21.3386 
5 *832:23 *832:29 20.1371 
6 *832:29 *4455:B1_N 23 
7 *832:29 *832:44 46.82 
8 *832:44 *4502:S 23 
9 *832:23 *832:61 41.5379 
10 *832:61 *832:63 15 
11 *832:63 *4804:A2 23.6214 
12 *832:63 *4803:A 23 
13 *832:61 *832:87 46.8821 
14 *832:87 *832:89 7.89214 
15 *832:89 *4798:A 38 
16 *832:89 *832:98 2.61 
17 *832:98 *832:102 15.6214 
18 *832:102 *4799:A1 23 
19 *832:102 *832:121 44.3757 
20 *832:121 *4791:A2 23 
21 *832:98 *832:134 25.0257 
22 *832:134 *4815:A1 40.6071 
23 *832:134 *4814:A 23 
*END

*D_NET *833 0.013406
*CONN
*I *4750:A1 I *D sky130_fd_sc_hd__o211a_1
*I *4744:A I *D sky130_fd_sc_hd__nand2_1
*I *4745:A1 I *D sky130_fd_sc_hd__o211a_1
*I *4749:A I *D sky130_fd_sc_hd__nand2_1
*I *4760:A1 I *D sky130_fd_sc_hd__o211a_1
*I *4759:B1_N I *D sky130_fd_sc_hd__a21bo_1
*I *4786:A1 I *D sky130_fd_sc_hd__o211a_1
*I *4738:A1 I *D sky130_fd_sc_hd__o211a_1
*I *4736:B1_N I *D sky130_fd_sc_hd__a21boi_1
*I *4785:B1_N I *D sky130_fd_sc_hd__a21bo_1
*I *4936:X O *D sky130_fd_sc_hd__buf_2
*CAP
1 *4750:A1 1.17411e-05
2 *4744:A 0
3 *4745:A1 0.000347988
4 *4749:A 0
5 *4760:A1 3.83602e-05
6 *4759:B1_N 0
7 *4786:A1 0
8 *4738:A1 0
9 *4736:B1_N 0.000441267
10 *4785:B1_N 0
11 *4936:X 0.000100257
12 *833:95 0.000959626
13 *833:87 0.000821734
14 *833:74 0.000882822
15 *833:59 0.00106428
16 *833:52 7.99533e-05
17 *833:46 0.00163783
18 *833:19 0.000929325
19 *833:17 0.000857036
20 *833:13 0.00168094
21 *833:6 0.000195798
22 *4745:A1 *846:68 0
23 *833:17 *4786:B1 6.07611e-06
24 *833:17 *962:21 0
25 *833:17 *971:37 1.09886e-05
26 *833:19 *4786:B1 0.000147278
27 *833:19 *845:49 0.000252442
28 *833:46 *971:37 2.80512e-05
29 *833:74 *4750:B1 4.21594e-06
30 *833:74 *919:10 0
31 *4223:A *833:95 0
32 *4734:A *4736:B1_N 0.000283088
33 *4734:A *833:19 1.14452e-05
34 *4745:A2 *4745:A1 1.14154e-05
35 *4749:B *833:87 0
36 *4750:C1 *833:87 8.28419e-05
37 *4757:A *833:46 4.95081e-05
38 *4757:B *833:46 0.000141052
39 *4782:A1 *833:46 9.84794e-05
40 *4784:A *833:6 0.000141052
41 *4784:A *833:13 0.000128723
42 *4784:A *833:46 0.00021477
43 *4905:D *833:95 0.00017248
44 *146:8 *833:19 3.56537e-05
45 *149:8 *4760:A1 4.00259e-06
46 *149:8 *833:74 6.17437e-06
47 *687:10 *4736:B1_N 0.000156058
48 *692:10 *4745:A1 7.03766e-05
49 *692:10 *833:95 6.07611e-06
50 *693:10 *4745:A1 0
51 *695:10 *833:74 0
52 *698:8 *833:46 9.51143e-05
53 *698:25 *833:46 5.42593e-05
54 *704:10 *833:59 9.58714e-05
55 *705:8 *833:52 0
56 *706:10 *833:52 0
57 *725:6 *833:46 0.000616664
58 *725:14 *833:46 5.50106e-05
59 *728:8 *833:17 0
60 *777:70 *4750:A1 0
61 *777:70 *833:87 0
62 *777:70 *833:95 5.4936e-05
63 *777:76 *833:87 1.0177e-05
64 *777:76 *833:95 4.5707e-05
65 *777:78 *4745:A1 0
66 *777:78 *833:74 0
67 *777:78 *833:95 0
68 *777:102 *833:74 0
69 *777:117 *833:74 0
70 *780:12 *833:17 0
71 *805:16 *833:19 2.16033e-05
72 *805:81 *833:95 0
73 *806:29 *4745:A1 2.4754e-05
74 *806:37 *4745:A1 0.000165709
75 *813:25 *833:17 0
76 *813:25 *833:19 0
77 *828:38 *4736:B1_N 5.50106e-05
*RES
1 *4936:X *833:6 24.5743 
2 *833:6 *4785:B1_N 23 
3 *833:6 *833:13 1.57429 
4 *833:13 *833:17 21.4836 
5 *833:17 *833:19 11.4136 
6 *833:19 *4736:B1_N 48.6886 
7 *833:19 *4738:A1 38 
8 *833:17 *4786:A1 38 
9 *833:13 *833:46 18.7257 
10 *833:46 *833:52 31.2014 
11 *833:52 *4759:B1_N 23 
12 *833:46 *833:59 4.43286 
13 *833:59 *4760:A1 23.8493 
14 *833:59 *833:74 41.2271 
15 *833:74 *4749:A 23 
16 *833:74 *833:87 4.01857 
17 *833:87 *833:95 25.005 
18 *833:95 *4745:A1 45.4157 
19 *833:95 *4744:A 38 
20 *833:87 *4750:A1 23.4971 
*END

*D_NET *834 0.00775895
*CONN
*I *4778:A2 I *D sky130_fd_sc_hd__a211oi_1
*I *4777:A I *D sky130_fd_sc_hd__nor2_1
*I *4772:A I *D sky130_fd_sc_hd__nand2_1
*I *4773:A1 I *D sky130_fd_sc_hd__o211a_1
*I *4765:A1 I *D sky130_fd_sc_hd__o211a_1
*I *4763:B1_N I *D sky130_fd_sc_hd__a21boi_1
*I *4937:X O *D sky130_fd_sc_hd__dlymetal6s2s_1
*CAP
1 *4778:A2 9.7825e-05
2 *4777:A 0.000440808
3 *4772:A 0
4 *4773:A1 5.05431e-05
5 *4765:A1 0.000220257
6 *4763:B1_N 0.000149683
7 *4937:X 0
8 *834:60 0.000732234
9 *834:18 0.000840646
10 *834:16 0.000731882
11 *834:12 0.0013529
12 *834:4 0.00133587
13 *4778:A2 *1002:12 1.83667e-05
14 *834:12 *4773:B1 3.55887e-05
15 *834:12 *847:12 4.60263e-05
16 *4762:A1 *4763:B1_N 0
17 *4765:A2 *4765:A1 1.14154e-05
18 *4765:C1 *4765:A1 9.84851e-05
19 *4911:CLK *4777:A 0.000153381
20 *152:8 *4778:A2 0
21 *152:8 *834:60 0
22 *183:103 *4778:A2 3.80069e-05
23 *183:103 *834:60 0.000107173
24 *710:8 *4763:B1_N 0
25 *714:10 *4763:B1_N 0
26 *714:10 *834:18 0
27 *721:8 *4778:A2 0
28 *780:47 *834:60 0
29 *780:49 *4777:A 1.40958e-05
30 *780:73 *4777:A 0.000119969
31 *780:83 *834:12 0.000531529
32 *780:101 *4763:B1_N 0
33 *780:101 *4765:A1 0.00043674
34 *780:101 *4773:A1 0
35 *780:101 *834:12 0
36 *780:101 *834:18 0
37 *810:6 *4765:A1 1.76557e-05
38 *810:12 *4765:A1 0.000177873
*RES
1 *4937:X *834:4 23 
2 *834:4 *834:12 36.8329 
3 *834:12 *834:16 2.37179 
4 *834:16 *834:18 8.42036 
5 *834:18 *4763:B1_N 40.61 
6 *834:18 *4765:A1 45.3121 
7 *834:16 *4773:A1 38.9425 
8 *834:12 *4772:A 38 
9 *834:4 *834:60 19.1946 
10 *834:60 *4777:A 45.8196 
11 *834:60 *4778:A2 40.0818 
*END

*D_NET *835 0.0192573
*CONN
*I *4790:A I *D sky130_fd_sc_hd__nor2_1
*I *4937:A I *D sky130_fd_sc_hd__dlymetal6s2s_1
*I *4936:A I *D sky130_fd_sc_hd__buf_2
*I *4935:A I *D sky130_fd_sc_hd__buf_2
*I *4819:A I *D sky130_fd_sc_hd__nor2_1
*I *4938:X O *D sky130_fd_sc_hd__dlymetal6s2s_1
*CAP
1 *4790:A 0
2 *4937:A 0.000231085
3 *4936:A 0
4 *4935:A 0
5 *4819:A 0.000404353
6 *4938:X 9.07631e-05
7 *835:94 0.000848249
8 *835:77 0.00216541
9 *835:62 0.000242364
10 *835:54 0.00254207
11 *835:35 0.000650025
12 *835:27 0.00263353
13 *835:10 0.00117423
14 *835:8 9.07631e-05
15 *4819:A *4819:B 0.000529132
16 *4819:A *836:29 0.000101071
17 *835:8 *4938:A 4.58924e-05
18 *835:27 *4816:B 0.00039238
19 *835:27 *4819:B 0.000213069
20 *835:27 *961:35 0.000395895
21 *835:35 *838:124 0.00111088
22 *835:35 *849:12 0
23 *835:54 *836:46 0.000180268
24 *835:54 *961:35 0.000864279
25 *835:62 *971:25 2.93747e-05
26 *835:62 *1002:26 7.56417e-05
27 *835:77 *4795:B1 5.3304e-05
28 *835:77 *962:34 0.00035673
29 *835:77 *962:75 8.05114e-05
30 *835:94 *1002:22 0.000230252
31 *4198:A *835:35 0
32 *4784:A *835:62 5.3304e-05
33 *4790:B *835:94 6.00453e-05
34 *4795:A1 *835:54 0.000351508
35 *4801:A1 *835:54 0.000421749
36 *4801:A2 *835:54 4.5051e-05
37 *4816:A *835:27 0.00014196
38 *5039:A *4819:A 0
39 *152:8 *835:94 0
40 *183:49 *835:54 0.000234865
41 *183:53 *835:54 0.000117614
42 *183:53 *835:77 1.41129e-05
43 *721:8 *835:94 0.000114083
44 *722:10 *835:62 1.83564e-05
45 *722:25 *835:62 7.91596e-05
46 *726:21 *835:77 0
47 *730:10 *835:77 0
48 *735:23 *835:54 0.000261951
49 *736:10 *835:77 2.93845e-05
50 *738:10 *835:54 5.3304e-05
51 *745:8 *835:77 0.000241355
52 *772:28 *835:35 0.000225393
53 *772:94 *835:54 0.000247435
54 *780:47 *835:77 0
55 *780:47 *835:94 6.28695e-05
56 *813:25 *835:62 0.000339903
57 *813:38 *835:62 4.92689e-05
58 *818:8 *835:27 2.69037e-05
59 *826:12 *835:35 0
60 *826:27 *835:35 0.00021673
61 *832:23 *835:35 0.000119457
*RES
1 *4938:X *835:8 39.9057 
2 *835:8 *835:10 15 
3 *835:10 *4819:A 30.3329 
4 *835:10 *835:27 14.6036 
5 *835:27 *835:35 47.4621 
6 *835:35 *4935:A 23 
7 *835:27 *835:54 28.1507 
8 *835:54 *835:62 36.0486 
9 *835:62 *4936:A 23 
10 *835:54 *835:77 38.0757 
11 *835:77 *4937:A 41.9564 
12 *835:77 *835:94 29.8729 
13 *835:94 *4790:A 23 
*END

*D_NET *836 0.0285382
*CONN
*I *4995:A I *D sky130_fd_sc_hd__buf_2
*I *4996:A I *D sky130_fd_sc_hd__dlymetal6s2s_1
*I *4544:B1 I *D sky130_fd_sc_hd__o21ai_1
*I *4938:A I *D sky130_fd_sc_hd__dlymetal6s2s_1
*I *4994:A I *D sky130_fd_sc_hd__buf_2
*I *4939:X O *D sky130_fd_sc_hd__clkbuf_2
*CAP
1 *4995:A 0
2 *4996:A 0
3 *4544:B1 0.000125844
4 *4938:A 0.00011533
5 *4994:A 0.000561889
6 *4939:X 1.50079e-05
7 *836:76 0.0013193
8 *836:65 0.00178254
9 *836:46 0.00483148
10 *836:29 0.00859801
11 *836:8 0.00481719
12 *4544:B1 *838:122 3.22879e-05
13 *4938:A *921:8 5.00543e-05
14 *4994:A *839:81 0.000102437
15 *4994:A *844:18 0
16 *4994:A *972:16 0.000163361
17 *836:29 *4819:B 0.000113225
18 *836:29 *839:81 7.80671e-05
19 *836:29 *843:116 0.000117707
20 *836:29 *844:12 0
21 *836:29 *844:18 0
22 *836:29 *874:8 8.22421e-06
23 *836:29 *1002:54 0.0014194
24 *836:29 *1009:42 0.000104572
25 *836:46 *837:85 0.000211608
26 *836:46 *845:57 0.000230326
27 *836:46 *961:35 0.000180268
28 *836:46 *968:97 0
29 *836:65 *4545:A1 0.000446275
30 *836:65 *966:92 5.26362e-05
31 *836:65 *966:100 2.73825e-05
32 *836:76 *4203:B 0
33 *836:76 *4620:B1 0
34 *836:76 *966:92 0.00019975
35 *836:76 *1011:34 0
36 *836:76 *1012:36 0
37 *4540:A *4544:B1 1.83667e-05
38 *4542:B1 *836:65 2.02517e-05
39 *4795:A1 *836:46 4.36401e-06
40 *4819:A *836:29 0.000101071
41 *4889:D *4994:A 9.04092e-05
42 *4953:A *836:46 0
43 *138:8 *4544:B1 0
44 *183:18 *836:8 5.50049e-05
45 *183:28 *836:29 0
46 *183:28 *836:46 0
47 *183:49 *836:46 0.000142871
48 *193:10 *836:8 5.50049e-05
49 *498:10 *836:46 1.22803e-05
50 *498:14 *836:65 4.67488e-05
51 *499:30 *4544:B1 0.000221184
52 *499:30 *836:46 5.01986e-05
53 *500:10 *836:65 1.24376e-05
54 *502:8 *4544:B1 0.000137788
55 *502:8 *836:46 1.14452e-05
56 *573:8 *836:76 8.16356e-05
57 *576:14 *836:76 0.000109281
58 *671:51 *836:46 0
59 *776:21 *836:29 0.000133152
60 *776:32 *836:29 0.000323563
61 *778:171 *836:76 5.26204e-05
62 *778:182 *836:76 0.000511786
63 *778:193 *836:76 0
64 *813:25 *836:46 0
65 *818:12 *4938:A 0
66 *825:6 *836:29 0.000416411
67 *828:38 *836:76 0
68 *835:8 *4938:A 4.58924e-05
69 *835:54 *836:46 0.000180268
*RES
1 *4939:X *836:8 38.6214 
2 *836:8 *4994:A 47.0625 
3 *836:8 *836:29 23.3786 
4 *836:29 *4938:A 48.4339 
5 *836:29 *836:46 45.9861 
6 *836:46 *4544:B1 41.5836 
7 *836:46 *836:65 24.715 
8 *836:65 *4996:A 23 
9 *836:65 *836:76 44.1036 
10 *836:76 *4995:A 38 
*END

*D_NET *837 0.0289309
*CONN
*I *4238:A2 I *D sky130_fd_sc_hd__o221a_1
*I *4228:A2 I *D sky130_fd_sc_hd__o221a_1
*I *4226:A2 I *D sky130_fd_sc_hd__o221a_1
*I *4220:A2 I *D sky130_fd_sc_hd__o221a_1
*I *4224:A2 I *D sky130_fd_sc_hd__o221a_1
*I *4202:A2 I *D sky130_fd_sc_hd__o221a_1
*I *4236:A2 I *D sky130_fd_sc_hd__o221a_1
*I *4240:A2 I *D sky130_fd_sc_hd__o221a_1
*I *4200:A2 I *D sky130_fd_sc_hd__o221a_1
*I *4242:A2 I *D sky130_fd_sc_hd__o221a_1
*I *4940:X O *D sky130_fd_sc_hd__clkbuf_4
*CAP
1 *4238:A2 4.09737e-05
2 *4228:A2 0.000298461
3 *4226:A2 0
4 *4220:A2 0.00042267
5 *4224:A2 0.000123456
6 *4202:A2 0
7 *4236:A2 0
8 *4240:A2 0
9 *4200:A2 0.000445
10 *4242:A2 0
11 *4940:X 0
12 *837:93 0.00102285
13 *837:91 0.000761192
14 *837:89 0.00058293
15 *837:87 0.00374545
16 *837:85 0.00525786
17 *837:73 0.00197515
18 *837:64 0.000155416
19 *837:58 0.000863031
20 *837:51 3.94722e-05
21 *837:45 0.000987942
22 *837:38 0.000349234
23 *837:28 0.00125427
24 *837:10 0.000152893
25 *837:4 0.000840308
26 *4200:A2 *968:61 4.59272e-05
27 *4200:A2 *968:70 0.000578078
28 *4220:A2 *4220:A1 4.5051e-05
29 *4220:A2 *4220:B1 0.000444823
30 *4220:A2 *967:110 0.0002134
31 *4224:A2 *967:110 9.63918e-05
32 *4228:A2 *967:136 0.000438998
33 *837:10 *838:124 8.88885e-05
34 *837:38 *4240:A1 5.67058e-05
35 *837:38 *4240:C1 0
36 *837:38 *838:124 0
37 *837:38 *897:10 3.21327e-05
38 *837:38 *946:12 2.3696e-05
39 *837:38 *970:108 3.50723e-05
40 *837:38 *970:125 6.17437e-06
41 *837:45 *848:44 0.000675087
42 *837:58 *848:44 0.000399336
43 *837:64 *885:10 1.0092e-05
44 *837:64 *944:18 2.56377e-05
45 *837:64 *967:22 0.000136338
46 *837:73 *4949:A 9.08709e-06
47 *837:73 *848:44 0.000167317
48 *837:85 *968:97 0
49 *837:85 *968:136 0
50 *837:85 *1002:22 0
51 *837:85 *1002:26 1.58805e-05
52 *837:87 *896:10 3.90707e-05
53 *837:87 *963:12 0.000139352
54 *837:87 *963:23 0.00100364
55 *837:87 *1002:28 9.67842e-05
56 *837:91 *4226:B1 1.08118e-05
57 *837:91 *967:136 0.000162609
58 *837:93 *4226:B1 2.76611e-06
59 *837:93 *4226:C1 0
60 *837:93 *893:8 7.03869e-05
61 *837:93 *967:110 1.12487e-05
62 rdata[20] *837:93 0
63 *4238:B2 *837:73 0.000174899
64 *4783:A2 *837:87 0.000120466
65 *4783:B1 *837:87 2.61526e-05
66 *4789:A *837:85 5.24393e-05
67 *4795:A1 *837:85 0
68 *4867:CLK *4228:A2 3.31683e-05
69 *4867:CLK *837:91 2.22079e-05
70 *110:10 *4228:A2 0.00014196
71 *110:10 *837:91 0
72 *116:8 *837:38 5.56203e-05
73 *183:63 *837:87 0.00132518
74 *200:10 *837:64 1.98991e-05
75 *217:8 *837:51 6.12484e-05
76 *220:10 *837:10 0.000274798
77 *671:47 *837:87 4.10038e-05
78 *729:10 *837:85 0.000969866
79 *731:10 *837:85 0.000384805
80 *732:8 *837:85 0.000177822
81 *744:8 *837:87 0.000438462
82 *814:8 *837:85 0
83 *814:10 *837:85 0
84 *814:12 *837:85 0
85 *814:62 *837:85 0
86 *836:46 *837:85 0.000211608
*RES
1 *4940:X *837:4 23 
2 *837:4 *837:10 33.6664 
3 *837:10 *4242:A2 23 
4 *837:4 *4200:A2 31.7621 
5 *837:4 *837:28 3.00357 
6 *837:28 *837:38 35.9657 
7 *837:38 *4240:A2 23 
8 *837:28 *837:45 10.15 
9 *837:45 *837:51 30.8493 
10 *837:51 *4236:A2 23 
11 *837:45 *837:58 4.43286 
12 *837:58 *837:64 33.6664 
13 *837:64 *4202:A2 23 
14 *837:58 *837:73 21.3386 
15 *837:73 *837:85 47.4386 
16 *837:85 *837:87 54.9343 
17 *837:87 *837:89 15 
18 *837:89 *837:91 6.83571 
19 *837:91 *837:93 8.94857 
20 *837:93 *4224:A2 40.61 
21 *837:93 *4220:A2 46.7414 
22 *837:91 *4226:A2 38 
23 *837:89 *4228:A2 45.4364 
24 *837:73 *4238:A2 38.8493 
*END

*D_NET *838 0.0330397
*CONN
*I *4222:A2 I *D sky130_fd_sc_hd__o221a_1
*I *4940:A I *D sky130_fd_sc_hd__clkbuf_4
*I *4204:A2 I *D sky130_fd_sc_hd__o221a_1
*I *4218:A2 I *D sky130_fd_sc_hd__o221a_1
*I *4216:A2 I *D sky130_fd_sc_hd__o221a_1
*I *4206:A2 I *D sky130_fd_sc_hd__o221a_1
*I *4214:A2 I *D sky130_fd_sc_hd__o221a_1
*I *4212:A2 I *D sky130_fd_sc_hd__o221a_1
*I *4210:A2 I *D sky130_fd_sc_hd__o221a_1
*I *4208:A2 I *D sky130_fd_sc_hd__o221a_1
*I *4941:X O *D sky130_fd_sc_hd__clkbuf_4
*CAP
1 *4222:A2 0.000381136
2 *4940:A 0
3 *4204:A2 0
4 *4218:A2 0
5 *4216:A2 9.53167e-05
6 *4206:A2 0
7 *4214:A2 0
8 *4212:A2 0.000260744
9 *4210:A2 0
10 *4208:A2 0
11 *4941:X 0
12 *838:124 0.00269422
13 *838:122 0.00447333
14 *838:118 0.00455306
15 *838:103 0.00360111
16 *838:97 0.0012953
17 *838:88 0.000367106
18 *838:75 0.000509274
19 *838:66 0.000288736
20 *838:57 0.000475649
21 *838:42 0.000645808
22 *838:33 0.000180953
23 *838:22 0.000447295
24 *838:8 0.000695823
25 *838:4 0.00013186
26 *4212:A2 *4210:B1 2.96051e-05
27 *4216:A2 *4216:A1 1.24376e-05
28 *4216:A2 *4216:B1 6.17437e-06
29 *4222:A2 *4222:B1 0.000154658
30 *4222:A2 *888:8 0
31 *4222:A2 *966:80 0.000118797
32 *838:8 *4956:A 0.000282121
33 *838:22 *4956:A 0.000489549
34 *838:22 *849:55 0
35 *838:22 *966:33 4.79612e-05
36 *838:33 *4209:B 6.28695e-05
37 *838:33 *971:91 1.19692e-05
38 *838:42 *4212:B1 5.12254e-05
39 *838:42 *4956:A 4.95081e-05
40 *838:57 *4210:B1 2.60152e-05
41 *838:57 *966:23 0.000219717
42 *838:57 *966:40 0.000192681
43 *838:57 *966:49 6.07611e-06
44 *838:66 *966:49 0.000215096
45 *838:66 *966:58 6.07611e-06
46 *838:75 *966:58 0.000192578
47 *838:88 *879:10 7.28526e-05
48 *838:88 *966:58 3.82956e-05
49 *838:88 *966:71 0.000307234
50 *838:88 *966:80 1.83564e-05
51 *838:97 *966:80 6.32688e-05
52 *838:103 *960:10 9.64801e-06
53 *838:118 *4203:B 5.50106e-05
54 *838:118 *4204:C1 0.000270682
55 *838:118 *4726:B 5.50106e-05
56 *838:118 *846:62 0.000531529
57 *838:118 *1012:49 0.000118086
58 *838:124 *849:12 0
59 *838:124 *849:14 0.000380072
60 *838:124 *968:80 6.7177e-06
61 *838:124 *970:114 0
62 *838:124 *1002:115 0
63 *4211:A *838:22 2.4754e-05
64 *4544:A2 *838:118 0
65 *4544:A2 *838:122 5.66784e-05
66 *4544:B1 *838:122 3.22879e-05
67 *4730:A *838:118 0.000146741
68 *4730:B *838:118 2.18506e-05
69 *4732:A1 *838:118 0.000221992
70 *4812:A *838:124 0.000197479
71 *4813:A *838:124 0
72 *4813:B *838:124 0.000308661
73 *4855:CLK *838:103 1.94347e-05
74 *4855:D *838:103 3.10633e-05
75 *4857:CLK *838:22 5.67058e-05
76 *4895:D *838:118 0.00074965
77 *102:10 *4212:A2 0.00014196
78 *107:8 *4222:A2 0.000126473
79 *116:8 *838:124 3.81391e-05
80 *181:119 *838:8 8.76309e-05
81 *181:119 *838:22 0.000741704
82 *201:8 *838:103 3.91386e-05
83 *201:8 *838:118 0.000419838
84 *205:6 *4212:A2 0.000443679
85 *205:6 *838:8 9.13336e-05
86 *205:6 *838:42 0.0002263
87 *210:10 *4222:A2 7.03766e-05
88 *219:10 *838:124 0
89 *220:10 *838:124 0.000141558
90 *411:23 *838:124 2.36844e-05
91 *414:8 *838:124 0.00014411
92 *415:8 *838:124 0.000120477
93 *498:10 *838:122 5.27215e-06
94 *681:6 *838:118 9.84794e-05
95 *747:8 *838:124 0
96 *750:10 *838:124 0.000169665
97 *751:10 *838:124 5.61207e-05
98 *752:10 *838:124 0
99 *772:14 *838:124 0
100 *778:71 *4212:A2 2.71291e-05
101 *778:71 *838:57 0.000314985
102 *778:80 *838:57 0.000125802
103 *778:80 *838:66 9.88678e-05
104 *778:91 *838:66 0.000125802
105 *778:91 *838:75 0.000102365
106 *778:110 *838:75 9.6289e-05
107 *778:110 *838:88 0.000231699
108 *778:141 *838:22 5.56306e-05
109 *826:27 *838:124 0.000219319
110 *827:22 *838:122 0.000172821
111 *827:34 *838:122 1.73399e-05
112 *832:61 *838:124 0
113 *835:35 *838:124 0.00111088
114 *837:10 *838:124 8.88885e-05
115 *837:38 *838:124 0
*RES
1 *4941:X *838:4 23 
2 *838:4 *838:8 3.50071 
3 *838:8 *838:22 43.2779 
4 *838:22 *4208:A2 23 
5 *838:8 *838:33 33.3143 
6 *838:33 *4210:A2 23 
7 *838:4 *838:42 17.5271 
8 *838:42 *4212:A2 44.7321 
9 *838:42 *838:57 11.4136 
10 *838:57 *4214:A2 38 
11 *838:57 *838:66 5.77929 
12 *838:66 *4206:A2 38 
13 *838:66 *838:75 5.075 
14 *838:75 *4216:A2 39.595 
15 *838:75 *838:88 9.30071 
16 *838:88 *4218:A2 38 
17 *838:88 *838:97 1.90571 
18 *838:97 *838:103 26.3514 
19 *838:103 *4204:A2 23 
20 *838:103 *838:118 47.2596 
21 *838:118 *838:122 39.2046 
22 *838:122 *838:124 63.1786 
23 *838:124 *4940:A 38 
24 *838:97 *4222:A2 47.9221 
*END

*D_NET *839 0.0285173
*CONN
*I *4191:A2 I *D sky130_fd_sc_hd__o211a_1
*I *4248:A2 I *D sky130_fd_sc_hd__o221a_1
*I *4244:A2 I *D sky130_fd_sc_hd__o221a_1
*I *4246:A2 I *D sky130_fd_sc_hd__o221a_1
*I *4197:A2 I *D sky130_fd_sc_hd__o211a_1
*I *4194:A2 I *D sky130_fd_sc_hd__o211a_1
*I *4188:A2 I *D sky130_fd_sc_hd__o211a_1
*I *4185:A2 I *D sky130_fd_sc_hd__o211a_1
*I *4182:A2 I *D sky130_fd_sc_hd__o211a_1
*I *4179:A2 I *D sky130_fd_sc_hd__o211a_1
*I *4942:X O *D sky130_fd_sc_hd__clkbuf_4
*CAP
1 *4191:A2 0
2 *4248:A2 7.7866e-05
3 *4244:A2 0
4 *4246:A2 3.25721e-05
5 *4197:A2 0
6 *4194:A2 3.16304e-05
7 *4188:A2 0
8 *4185:A2 0
9 *4182:A2 0
10 *4179:A2 0.00033801
11 *4942:X 0
12 *839:131 0.00114567
13 *839:114 0.00233181
14 *839:110 0.00197839
15 *839:93 0.00163043
16 *839:81 0.00148692
17 *839:62 0.00164455
18 *839:49 0.0014989
19 *839:40 0.00154561
20 *839:23 0.0013385
21 *839:6 0.000620322
22 *4179:A2 *4179:A1 5.67058e-05
23 *4179:A2 *841:37 0
24 *4179:A2 *844:35 0
25 *4248:A2 *4248:A1 6.00355e-05
26 *4248:A2 *4248:B1 2.02517e-05
27 *839:23 *841:22 4.21594e-06
28 *839:23 *841:37 0
29 *839:23 *869:10 1.14452e-05
30 *839:40 *4185:C1 6.07611e-06
31 *839:40 *844:35 0.000651055
32 *839:40 *871:10 1.14452e-05
33 *839:40 *938:25 0.000141879
34 *839:40 *1010:52 0
35 *839:49 *4185:C1 0.000218583
36 *839:49 *843:50 0.0001872
37 *839:49 *870:10 1.14452e-05
38 *839:49 *871:10 0.000130424
39 *839:49 *1010:34 0.000171906
40 *839:62 *4172:A 6.16531e-05
41 *839:62 *4194:A1 0.000103415
42 *839:62 *5001:A 0.000183457
43 *839:62 *5096:A 0.000613273
44 *839:62 *870:10 0.000371119
45 *839:81 *4312:A 6.16439e-05
46 *839:81 *843:28 0.000250839
47 *839:81 *972:16 9.43568e-05
48 *839:81 *1009:16 0.000308556
49 *839:93 *4191:A1 0.000182832
50 *839:93 *4337:S 0
51 *839:93 *1009:42 0.00111399
52 *839:93 *1009:55 0.000505064
53 *839:110 *972:131 5.24177e-05
54 *839:114 *4246:C1 0.000891146
55 *839:114 *4248:A1 0.000564556
56 *839:114 *968:23 2.9938e-05
57 *839:114 *968:40 5.70419e-05
58 *839:131 *4246:A1 8.1796e-05
59 *839:131 *5025:A 0.000100733
60 *839:131 *920:8 0.000292856
61 *839:131 *968:40 0.000170003
62 *4182:B1 *839:40 3.91386e-05
63 *4337:A0 *839:93 0.000272377
64 *4337:A1 *839:93 9.84851e-05
65 *4831:A1 *839:131 0.000131304
66 *4847:D *839:40 0.000169061
67 *4848:CLK *839:40 0
68 *4994:A *839:81 0.000102437
69 *89:8 *4179:A2 5.56203e-05
70 *91:8 *839:40 0
71 *95:8 *839:110 5.26101e-05
72 *131:8 *839:49 0.000114083
73 *159:10 *839:131 5.3304e-05
74 *164:10 *839:40 0
75 *164:10 *839:49 0
76 *164:10 *839:62 0
77 *169:26 *839:62 0.000829
78 *179:10 *839:62 0
79 *180:8 *839:62 0
80 *185:10 *4179:A2 0.000107031
81 *191:10 *839:49 6.07611e-06
82 *191:10 *839:62 8.76088e-05
83 *193:10 *839:81 6.30049e-05
84 *195:12 *4194:A2 3.85196e-05
85 *195:12 *839:81 9.82009e-05
86 *197:10 *839:93 0.000190581
87 *199:10 *839:93 0
88 *199:10 *839:110 0
89 *221:10 *839:131 0.000400277
90 *275:10 *839:81 0.00035701
91 *300:10 *839:93 5.83407e-05
92 *767:8 *839:131 3.98818e-05
93 *773:53 *4179:A2 0
94 *773:53 *839:23 0
95 *775:22 *839:62 0
96 *775:26 *839:62 0
97 *775:59 *839:81 0
98 *775:89 *839:93 2.02872e-05
99 *776:71 *839:110 0.00111097
100 *779:110 *839:131 0
101 *820:36 *839:131 2.70366e-05
102 *823:12 *839:93 0.000216471
103 *825:6 *839:93 6.70361e-05
104 *829:10 *839:81 0.000158999
105 *836:29 *839:81 7.80671e-05
*RES
1 *4942:X *839:6 38 
2 *839:6 *4179:A2 45.3743 
3 *839:6 *839:23 20.4271 
4 *839:23 *4182:A2 23 
5 *839:23 *839:40 36.9157 
6 *839:40 *4185:A2 38 
7 *839:40 *839:49 13.8786 
8 *839:49 *4188:A2 38 
9 *839:49 *839:62 41.5557 
10 *839:62 *4194:A2 23.8493 
11 *839:62 *839:81 46.2193 
12 *839:81 *839:93 42.7157 
13 *839:93 *4197:A2 38 
14 *839:93 *839:110 34.0364 
15 *839:110 *839:114 26.5971 
16 *839:114 *4246:A2 23.4971 
17 *839:114 *839:131 37.62 
18 *839:131 *4244:A2 38 
19 *839:110 *4248:A2 25.0714 
20 *839:81 *4191:A2 23 
*END

*D_NET *840 0.0156518
*CONN
*I *4255:A I *D sky130_fd_sc_hd__and2_1
*I *4261:A I *D sky130_fd_sc_hd__and2_1
*I *4167:A I *D sky130_fd_sc_hd__and2_1
*I *4259:A I *D sky130_fd_sc_hd__and2_1
*I *4171:A I *D sky130_fd_sc_hd__and2_1
*I *4263:A I *D sky130_fd_sc_hd__and2_1
*I *4265:A I *D sky130_fd_sc_hd__and2_1
*I *4165:A I *D sky130_fd_sc_hd__and2_1
*I *4163:A I *D sky130_fd_sc_hd__and2_1
*I *4257:A I *D sky130_fd_sc_hd__and2_1
*I *4943:X O *D sky130_fd_sc_hd__clkbuf_2
*CAP
1 *4255:A 0.000123952
2 *4261:A 0.000310396
3 *4167:A 5.97382e-05
4 *4259:A 0
5 *4171:A 4.56652e-05
6 *4263:A 0.000368981
7 *4265:A 0
8 *4165:A 0
9 *4163:A 0
10 *4257:A 0.000565548
11 *4943:X 0.000190909
12 *840:92 0.000930826
13 *840:61 0.00103873
14 *840:57 0.00117449
15 *840:55 0.00158808
16 *840:53 0.000469485
17 *840:51 0.00172926
18 *840:42 0.000125071
19 *840:34 0.00206817
20 *840:14 0.000751088
21 *840:12 0.00121208
22 *840:10 0.000605595
23 *4167:A *1000:31 9.84794e-05
24 *4261:A *978:10 7.70737e-05
25 *4261:A *978:20 0.00021263
26 *4261:A *999:27 0.000103637
27 *4263:A *975:12 3.26241e-05
28 *4263:A *975:25 0.000258078
29 *4263:A *976:14 9.91548e-05
30 *840:10 *841:53 5.47808e-05
31 *840:42 *895:10 2.64616e-05
32 *840:53 *975:101 0
33 *840:53 *978:20 3.70094e-05
34 *840:55 *975:101 0
35 *840:57 *975:101 0
36 *840:61 *975:12 0
37 *840:61 *975:101 0
38 *4167:B *4167:A 1.83444e-05
39 *4171:B *4171:A 9.84794e-05
40 *4265:B *4263:A 6.708e-05
41 *4880:D *4255:A 6.17437e-06
42 *4882:D *840:92 0.00017248
43 *88:8 *840:57 0
44 *170:27 *840:42 0
45 *170:40 *840:42 2.64616e-05
46 *174:10 *4257:A 0.000168744
47 *174:10 *840:14 1.14452e-05
48 *227:8 *840:10 6.57551e-05
49 *227:8 *840:12 1.83564e-05
50 *230:10 *4261:A 0
51 *773:14 *840:10 0
52 *773:14 *840:12 0
53 *773:18 *4257:A 0
54 *773:18 *840:12 0
55 *773:18 *840:14 0
56 *774:18 *4261:A 2.70366e-05
57 *774:18 *840:53 0.000125802
58 *774:89 *840:92 4.75206e-05
59 *774:100 *840:55 0
60 *774:100 *840:57 0
61 *774:100 *840:92 0.000264332
62 *774:104 *840:57 0
63 *774:104 *840:61 0
64 *784:17 *840:42 0.00013449
65 *793:12 *840:53 0
66 *793:21 *840:92 4.12995e-05
*RES
1 *4943:X *840:10 41.8321 
2 *840:10 *840:12 5.075 
3 *840:12 *840:14 3.66643 
4 *840:14 *4257:A 49.4136 
5 *840:14 *4163:A 38 
6 *840:12 *840:34 24.1971 
7 *840:34 *840:42 32.5271 
8 *840:42 *4165:A 23 
9 *840:34 *840:51 30.3907 
10 *840:51 *840:53 4.37071 
11 *840:53 *840:55 3.31429 
12 *840:55 *840:57 7.89214 
13 *840:57 *840:61 26.4136 
14 *840:61 *4265:A 23 
15 *840:61 *4263:A 32.3629 
16 *840:57 *4171:A 39.0979 
17 *840:55 *840:92 28.8579 
18 *840:92 *4259:A 23 
19 *840:53 *4167:A 39.595 
20 *840:51 *4261:A 44.7736 
21 *840:10 *4255:A 40.0507 
*END

*D_NET *841 0.0214679
*CONN
*I *4278:B1 I *D sky130_fd_sc_hd__o211a_1
*I *4179:C1 I *D sky130_fd_sc_hd__o211a_1
*I *4157:A I *D sky130_fd_sc_hd__and2_1
*I *4169:A I *D sky130_fd_sc_hd__and2_1
*I *4253:A I *D sky130_fd_sc_hd__and2_1
*I *4269:A I *D sky130_fd_sc_hd__and3_1
*I *4159:A I *D sky130_fd_sc_hd__and2_1
*I *4251:A I *D sky130_fd_sc_hd__and2_1
*I *4943:A I *D sky130_fd_sc_hd__clkbuf_2
*I *4182:C1 I *D sky130_fd_sc_hd__o211a_1
*I *4944:X O *D sky130_fd_sc_hd__buf_2
*CAP
1 *4278:B1 0
2 *4179:C1 4.24511e-05
3 *4157:A 0
4 *4169:A 0
5 *4253:A 4.01155e-05
6 *4269:A 0
7 *4159:A 0
8 *4251:A 3.93866e-05
9 *4943:A 0
10 *4182:C1 0
11 *4944:X 0.000114792
12 *841:118 0.00102955
13 *841:112 0.00193917
14 *841:101 0.00114596
15 *841:94 0.000611248
16 *841:77 0.00103929
17 *841:69 0.0012735
18 *841:60 0.00081336
19 *841:53 0.000516703
20 *841:43 0.00107177
21 *841:39 0.000533992
22 *841:37 0.000632903
23 *841:22 0.000734916
24 *841:18 0.000644628
25 *841:10 0.000511298
26 *841:18 *907:10 5.24393e-05
27 *841:18 *972:51 1.86869e-05
28 *841:18 *1010:61 0.000140259
29 *841:18 *1010:78 0.000355966
30 *841:22 *869:10 0
31 *841:22 *907:10 1.14452e-05
32 *841:22 *972:51 0.00014521
33 *841:37 *972:51 1.01436e-05
34 *841:37 *986:44 0.000327828
35 *841:53 *4254:A1 0.000128723
36 *841:53 *844:35 0
37 *841:53 *863:6 0.00010018
38 *841:53 *863:12 0.00012077
39 *841:53 *1004:8 0.000114092
40 *841:77 *4252:A1 7.14186e-05
41 *841:77 *852:25 5.8637e-05
42 *841:77 *990:10 8.94487e-05
43 *841:77 *990:74 0.000580867
44 *841:77 *1004:35 9.40162e-05
45 *841:94 *866:43 0
46 *841:94 *990:74 0
47 *841:94 *1010:78 1.09886e-05
48 *841:118 *975:101 0.000926105
49 *841:118 *979:10 0.000368752
50 *841:118 *984:23 0.000141173
51 *4179:A2 *841:37 0
52 *4182:B1 *841:37 5.50106e-05
53 *4253:B *841:112 2.93747e-05
54 *4554:B1 *841:118 0
55 *4839:CLK *841:94 0.000192087
56 *4839:D *841:94 7.53384e-06
57 *4840:CLK *841:53 6.343e-05
58 *4840:CLK *841:60 4.27352e-05
59 *4840:CLK *841:69 4.40271e-05
60 *4878:D *841:69 0.000106382
61 *4879:D *841:112 0.000169878
62 *4886:CLK *841:94 0.000421708
63 *4887:CLK *841:22 0
64 *170:12 *841:43 0.000148687
65 *170:12 *841:53 0.000164291
66 *170:55 *841:118 6.07929e-05
67 *170:59 *841:118 0.000423269
68 *180:34 *841:10 8.29264e-05
69 *185:10 *841:37 0.000113033
70 *185:10 *841:39 4.21594e-06
71 *224:10 *841:77 0.00032025
72 *233:10 *841:94 7.60112e-05
73 *773:12 *841:39 0.000188256
74 *773:14 *841:39 1.14452e-05
75 *773:14 *841:43 0.000934716
76 *773:14 *841:53 0
77 *773:47 *841:37 0.000195248
78 *773:47 *841:39 2.55642e-05
79 *774:40 *841:112 7.52861e-05
80 *774:42 *841:69 5.42593e-05
81 *774:42 *841:101 0.000102313
82 *774:42 *841:112 2.80512e-05
83 *774:44 *841:69 9.77744e-05
84 *781:23 *841:77 4.96717e-05
85 *781:23 *841:94 0.000103637
86 *788:8 *841:118 0.000198206
87 *794:10 *841:118 0.000163343
88 *808:34 *841:10 5.3304e-05
89 *839:23 *841:22 4.21594e-06
90 *839:23 *841:37 0
91 *840:10 *841:53 5.47808e-05
*RES
1 *4944:X *841:10 39.8229 
2 *841:10 *841:18 36.235 
3 *841:18 *841:22 20.7793 
4 *841:22 *4182:C1 23 
5 *841:22 *841:37 28.2779 
6 *841:37 *841:39 2.96214 
7 *841:39 *841:43 27.47 
8 *841:43 *841:53 41.7657 
9 *841:53 *4943:A 23 
10 *841:43 *841:60 1.57429 
11 *841:60 *4251:A 23.8493 
12 *841:60 *841:69 8.72071 
13 *841:69 *841:77 43.5679 
14 *841:77 *4159:A 23 
15 *841:77 *841:94 44.0029 
16 *841:94 *4269:A 23 
17 *841:69 *841:101 3.00357 
18 *841:101 *4253:A 23.8493 
19 *841:101 *841:112 27.5321 
20 *841:112 *841:118 46.2164 
21 *841:118 *4169:A 23 
22 *841:39 *4157:A 38 
23 *841:37 *4179:C1 38.6214 
24 *841:18 *4278:B1 38 
*END

*D_NET *842 0.00513424
*CONN
*I *4156:A1 I *D sky130_fd_sc_hd__mux2_1
*I *4250:A1 I *D sky130_fd_sc_hd__mux2_1
*I *4148:A I *D sky130_fd_sc_hd__and3_1
*I *5050:X O *D sky130_fd_sc_hd__buf_1
*CAP
1 *4156:A1 0.000151793
2 *4250:A1 0.000452915
3 *4148:A 2.34823e-05
4 *5050:X 4.56861e-05
5 *842:17 0.00161947
6 *842:6 0.00108393
7 *4156:A1 *974:32 0.000194318
8 *4250:A1 *986:44 0
9 *4250:A1 *1004:27 5.79559e-05
10 *842:17 *4148:C 0.000420892
11 *842:17 *974:32 0.00012377
12 *4158:S *4156:A1 3.85196e-05
13 *170:6 *842:17 9.84794e-05
14 *170:98 *4156:A1 0.0001001
15 *170:98 *842:17 0.00060397
16 *182:10 *4156:A1 4.68412e-05
17 *224:8 *4156:A1 5.56356e-05
18 *831:14 *842:6 1.56662e-06
19 *831:14 *842:17 1.02949e-05
20 *831:18 *842:17 4.62398e-06
*RES
1 *5050:X *842:6 23.6214 
2 *842:6 *4148:A 23.4971 
3 *842:6 *842:17 31.3436 
4 *842:17 *4250:A1 45.4571 
5 *842:17 *4156:A1 42.4329 
*END

*D_NET *843 0.0220278
*CONN
*I *4338:A I *D sky130_fd_sc_hd__and2_1
*I *4246:C1 I *D sky130_fd_sc_hd__o221a_1
*I *4248:C1 I *D sky130_fd_sc_hd__o221a_1
*I *4197:C1 I *D sky130_fd_sc_hd__o211a_1
*I *4191:C1 I *D sky130_fd_sc_hd__o211a_1
*I *4313:B1 I *D sky130_fd_sc_hd__o211a_1
*I *4194:C1 I *D sky130_fd_sc_hd__o211a_1
*I *4188:C1 I *D sky130_fd_sc_hd__o211a_1
*I *4293:B1 I *D sky130_fd_sc_hd__o211a_1
*I *4185:C1 I *D sky130_fd_sc_hd__o211a_1
*I *4945:X O *D sky130_fd_sc_hd__buf_2
*CAP
1 *4338:A 0
2 *4246:C1 0.000284771
3 *4248:C1 0
4 *4197:C1 0
5 *4191:C1 7.46914e-05
6 *4313:B1 0.000108845
7 *4194:C1 2.95011e-05
8 *4188:C1 0
9 *4293:B1 0.000141491
10 *4185:C1 0.000197714
11 *4945:X 0
12 *843:131 0.000284771
13 *843:129 0.00096294
14 *843:116 0.0016235
15 *843:108 0.0007924
16 *843:50 0.000569198
17 *843:42 0.000626172
18 *843:38 0.00116826
19 *843:28 0.000975012
20 *843:26 0.000484643
21 *843:16 0.000882645
22 *843:10 0.00135605
23 *843:4 0.000950603
24 *4185:C1 *908:10 6.25829e-05
25 *4185:C1 *1010:34 6.48142e-05
26 *4191:C1 *1009:42 6.17437e-06
27 *4246:C1 *4248:A1 0.000269775
28 *4246:C1 *968:23 0.00183486
29 *4293:B1 *1010:34 6.17437e-06
30 *4313:B1 *4313:A1 1.59071e-05
31 *4313:B1 *4313:A2 4.344e-05
32 *843:10 *4945:A 2.93747e-05
33 *843:10 *5095:A 1.39431e-05
34 *843:16 *1010:18 0
35 *843:16 *1010:114 3.54728e-05
36 *843:38 *972:16 0
37 *843:38 *1010:18 0.000457416
38 *843:50 *908:10 0.000293785
39 *843:50 *1010:34 0.000102638
40 *843:129 *4197:A1 0.000272377
41 *843:129 *5028:A 0.000280866
42 *843:129 *956:21 0.000988326
43 *843:129 *968:8 3.70187e-05
44 *4185:B1 *4185:C1 5.67058e-05
45 *4313:C1 *4313:B1 1.8788e-05
46 *4837:CLK *4191:C1 5.3304e-05
47 *4848:CLK *4185:C1 0.000218593
48 *4850:D *843:10 5.73018e-05
49 *4890:CLK *843:10 2.26778e-05
50 *4890:CLK *843:108 0.000278081
51 *4890:CLK *843:116 0.000162452
52 *4890:D *843:116 0.00017248
53 *5068:A *843:38 0.000405617
54 *132:10 *4313:B1 2.45549e-06
55 *132:10 *843:16 1.85916e-05
56 *180:8 *843:38 0
57 *180:22 *843:38 0.000192077
58 *182:68 *843:38 0
59 *182:80 *843:38 0.000451285
60 *183:10 *843:16 2.71902e-05
61 *191:10 *843:50 1.01436e-05
62 *195:12 *4194:C1 5.50106e-05
63 *199:10 *843:129 0
64 *223:10 *843:129 3.14377e-05
65 *775:26 *843:50 0.0002542
66 *775:59 *843:16 0.000249909
67 *775:59 *843:26 0.000114083
68 *775:59 *843:28 0
69 *775:59 *843:38 0
70 *775:70 *843:10 3.47781e-05
71 *775:70 *843:16 0.000437527
72 *775:89 *4191:C1 0.000176497
73 *775:89 *843:10 0.000115785
74 *776:56 *843:129 4.3407e-05
75 *784:25 *843:38 9.58908e-05
76 *823:40 *843:116 0.00019975
77 *829:10 *4191:C1 7.21314e-05
78 *836:29 *843:116 0.000117707
79 *839:40 *4185:C1 6.07611e-06
80 *839:49 *4185:C1 0.000218583
81 *839:49 *843:50 0.0001872
82 *839:81 *843:28 0.000250839
83 *839:114 *4246:C1 0.000891146
*RES
1 *4945:X *843:4 23 
2 *843:4 *843:10 26.1029 
3 *843:10 *843:16 25.3986 
4 *843:16 *843:26 49.5571 
5 *843:26 *843:28 4.01857 
6 *843:28 *843:38 49.3264 
7 *843:38 *843:42 21.3386 
8 *843:42 *843:50 23.3064 
9 *843:50 *4185:C1 45.105 
10 *843:50 *4293:B1 39.9471 
11 *843:42 *4188:C1 23 
12 *843:28 *4194:C1 38.6214 
13 *843:16 *4313:B1 25.0714 
14 *843:10 *4191:C1 40.5271 
15 *843:4 *843:108 3.85286 
16 *843:108 *843:116 15.5771 
17 *843:116 *4197:C1 23 
18 *843:116 *843:129 39.0079 
19 *843:129 *843:131 15 
20 *843:131 *4248:C1 23 
21 *843:131 *4246:C1 43.155 
22 *843:108 *4338:A 23 
*END

*D_NET *844 0.033512
*CONN
*I *4945:A I *D sky130_fd_sc_hd__buf_2
*I *4371:B1 I *D sky130_fd_sc_hd__o211a_1
*I *4244:C1 I *D sky130_fd_sc_hd__o221a_1
*I *4411:B1 I *D sky130_fd_sc_hd__o211a_1
*I *4161:A I *D sky130_fd_sc_hd__and2_1
*I *4944:A I *D sky130_fd_sc_hd__buf_2
*I *4946:X O *D sky130_fd_sc_hd__buf_2
*CAP
1 *4945:A 1.80505e-05
2 *4371:B1 0
3 *4244:C1 0
4 *4411:B1 0
5 *4161:A 4.13136e-05
6 *4944:A 0
7 *4946:X 0.0002553
8 *844:81 0.00139409
9 *844:75 0.00165321
10 *844:64 0.000706227
11 *844:52 0.000558404
12 *844:48 0.00196325
13 *844:35 0.00175832
14 *844:33 0.00267377
15 *844:22 0.00125852
16 *844:18 0.00246028
17 *844:12 0.00425024
18 *844:10 0.000513122
19 *844:10 *874:8 0
20 *844:12 *874:8 0
21 *844:18 *909:8 0.000141888
22 *844:18 *972:16 0
23 *844:18 *972:28 0
24 *844:18 *987:64 0
25 *844:18 *989:39 0
26 *844:18 *1001:38 4.88204e-05
27 *844:18 *1004:43 0
28 *844:18 *1004:49 0
29 *844:18 *1004:84 0
30 *844:18 *1005:48 0.000201474
31 *844:18 *1005:93 0
32 *844:35 *924:32 2.96805e-05
33 *844:35 *1004:8 0
34 *844:35 *1010:52 0
35 *844:48 *1009:42 0.000834949
36 *844:48 *1009:55 0.00184947
37 *844:52 *1009:55 6.92121e-05
38 *844:64 *1002:54 0.00170649
39 *844:64 *1009:55 6.07611e-06
40 *844:64 *1009:63 1.34542e-05
41 *844:64 *1009:65 2.8314e-06
42 *844:64 *1009:100 4.77164e-06
43 *844:75 *4411:A2 0.000570905
44 *844:75 *4820:A1 5.97296e-05
45 *844:75 *1002:44 0.000481931
46 *844:75 *1009:80 5.53367e-05
47 *844:81 *968:40 0.000310638
48 *844:81 *968:44 0.000279227
49 *844:81 *1002:95 0.00035793
50 *844:81 *1009:117 0
51 *844:81 *1010:146 0.000211315
52 *4161:B *4161:A 9.84794e-05
53 *4179:A2 *844:35 0
54 *4186:B2 *844:18 0.000111253
55 *4311:B *844:18 0.000185387
56 *4833:A2 *844:81 0.000114083
57 *4834:A1 *844:81 2.47097e-05
58 *4887:CLK *844:33 5.12328e-05
59 *4887:CLK *844:35 0.000204868
60 *4887:D *844:33 3.46673e-05
61 *4890:CLK *4945:A 5.50049e-05
62 *4994:A *844:18 0
63 *83:8 *844:35 0
64 *89:8 *844:35 0
65 *134:10 *844:52 8.4047e-05
66 *159:10 *844:81 0.000194309
67 *164:10 *844:35 0
68 *181:8 *844:35 0
69 *182:49 *844:33 0.000166072
70 *183:28 *844:64 0.00165787
71 *192:12 *844:18 0
72 *221:10 *844:81 0
73 *237:8 *844:18 0
74 *244:10 *844:18 0
75 *245:27 *844:18 4.70953e-05
76 *246:8 *844:18 0.0001113
77 *247:10 *844:18 0
78 *248:8 *844:18 0.000294132
79 *270:20 *844:18 2.33476e-05
80 *274:10 *844:18 0.000949323
81 *300:10 *844:12 0
82 *331:10 *844:52 2.75733e-06
83 *331:10 *844:64 6.10551e-06
84 *759:10 *844:81 5.26204e-05
85 *764:12 *844:81 0.000114083
86 *773:53 *844:35 0.000235568
87 *776:21 *844:48 4.5051e-05
88 *779:39 *844:81 0
89 *808:21 *844:33 4.2366e-05
90 *808:34 *844:22 0.000530156
91 *808:34 *844:33 3.68387e-05
92 *822:10 *844:18 0.000260887
93 *822:12 *844:18 1.80023e-05
94 *825:25 *844:81 0.000243298
95 *831:33 *844:35 9.64022e-05
96 *836:29 *844:12 0
97 *836:29 *844:18 0
98 *839:40 *844:35 0.000651055
99 *841:53 *844:35 0
100 *843:10 *4945:A 2.93747e-05
*RES
1 *4946:X *844:10 41.8321 
2 *844:10 *844:12 3.66643 
3 *844:12 *844:18 48.0986 
4 *844:18 *844:22 22.2914 
5 *844:22 *4944:A 23 
6 *844:22 *844:33 28.2571 
7 *844:33 *844:35 37.8243 
8 *844:35 *4161:A 39.0979 
9 *844:12 *844:48 45.6364 
10 *844:48 *844:52 17.2579 
11 *844:52 *844:64 34.7893 
12 *844:64 *4411:B1 23 
13 *844:64 *844:75 24.0936 
14 *844:75 *844:81 48.785 
15 *844:81 *4244:C1 23 
16 *844:52 *4371:B1 38 
17 *844:10 *4945:A 38.6214 
*END

*D_NET *845 0.0273864
*CONN
*I *4200:C1 I *D sky130_fd_sc_hd__o221a_1
*I *4815:B1 I *D sky130_fd_sc_hd__o211a_1
*I *4456:B1 I *D sky130_fd_sc_hd__o211a_1
*I *4202:C1 I *D sky130_fd_sc_hd__o221a_1
*I *4236:C1 I *D sky130_fd_sc_hd__o221a_1
*I *4799:B1 I *D sky130_fd_sc_hd__o211a_1
*I *4786:B1 I *D sky130_fd_sc_hd__o211a_1
*I *4738:B1 I *D sky130_fd_sc_hd__o211a_1
*I *4545:B1 I *D sky130_fd_sc_hd__o211a_1
*I *4503:A I *D sky130_fd_sc_hd__and2_1
*I *4947:X O *D sky130_fd_sc_hd__buf_2
*CAP
1 *4200:C1 0.000104247
2 *4815:B1 1.97948e-05
3 *4456:B1 0
4 *4202:C1 0
5 *4236:C1 0
6 *4799:B1 2.0995e-05
7 *4786:B1 0.000130169
8 *4738:B1 3.25721e-05
9 *4545:B1 0
10 *4503:A 0.000259466
11 *4947:X 0.000479438
12 *845:120 0.00026426
13 *845:103 0.000980617
14 *845:88 0.00179055
15 *845:57 0.000793807
16 *845:49 0.00106793
17 *845:43 0.00176538
18 *845:28 0.00183611
19 *845:26 0.00230641
20 *845:18 0.00249928
21 *845:12 0.00195088
22 *845:10 0.00108572
23 *4200:C1 *4200:A1 5.58003e-05
24 *4200:C1 *968:70 5.82853e-05
25 *4503:A *966:102 0
26 *4799:B1 *4799:A2 1.14154e-05
27 *4815:B1 *4815:A2 5.50049e-05
28 *845:10 *4947:A 0.000242956
29 *845:18 *849:12 0
30 *845:26 *849:12 0
31 *845:28 *966:102 0
32 *845:57 *904:10 0.000168744
33 *845:88 *4799:A2 2.93747e-05
34 *845:88 *966:102 0
35 *845:103 *4799:A2 6.70361e-05
36 *845:103 *966:102 0.000539045
37 *845:120 *4236:A1 5.58003e-05
38 *845:120 *848:44 0.000237252
39 *845:120 *967:10 5.75756e-06
40 *845:120 *967:22 0.000150076
41 *845:120 *968:136 0.000132831
42 *4456:C1 *845:26 0.000171097
43 *4800:A *845:88 4.54033e-05
44 *4815:A1 *4815:B1 1.94693e-05
45 *4827:A1 *845:18 0
46 *4853:D *845:10 6.01634e-05
47 *4894:CLK *4503:A 0
48 *4894:CLK *845:28 0
49 *4894:CLK *845:88 0
50 *4910:CLK *845:43 2.93747e-05
51 *4960:A *845:18 1.34542e-05
52 *136:8 *845:18 0
53 *137:8 *4503:A 6.63698e-05
54 *153:10 *4786:B1 9.63815e-05
55 *155:10 *845:88 2.45549e-06
56 *157:8 *845:12 0
57 *198:10 *4200:C1 1.13812e-05
58 *198:10 *845:12 0.000857789
59 *198:10 *845:18 0.0016451
60 *200:8 *845:43 2.65879e-05
61 *200:10 *845:103 0
62 *200:10 *845:120 0.000132638
63 *413:8 *4503:A 0
64 *459:20 *4503:A 1.19692e-05
65 *498:10 *845:57 3.70094e-05
66 *728:8 *4786:B1 6.07611e-06
67 *734:12 *845:88 0.000183362
68 *739:10 *845:103 3.70187e-05
69 *741:8 *845:88 0.000373109
70 *762:10 *845:18 0
71 *772:86 *845:43 0.000525417
72 *779:102 *845:10 3.2277e-05
73 *780:12 *4786:B1 2.19539e-05
74 *780:18 *4786:B1 7.76364e-06
75 *780:18 *845:49 4.83941e-05
76 *805:16 *845:49 0.000114083
77 *805:42 *845:49 0.000239765
78 *815:54 *845:103 0
79 *816:21 *845:88 6.08032e-05
80 *816:30 *845:88 0.000225111
81 *816:47 *845:88 0.000833007
82 *818:12 *845:18 0
83 *818:23 *845:18 0
84 *818:36 *845:12 0
85 *818:36 *845:18 0
86 *826:12 *845:26 0.00010018
87 *826:27 *845:26 4.17736e-05
88 *832:14 *845:26 0.000183733
89 *832:87 *845:88 0.000302134
90 *832:89 *845:88 0.000595473
91 *832:98 *845:88 0.000158229
92 *832:102 *845:88 5.50106e-05
93 *832:121 *845:88 1.22822e-05
94 *832:121 *845:103 0.000169683
95 *833:17 *4786:B1 6.07611e-06
96 *833:19 *4786:B1 0.000147278
97 *833:19 *845:49 0.000252442
98 *836:46 *845:57 0.000230326
*RES
1 *4947:X *845:10 45.54 
2 *845:10 *845:12 12.1179 
3 *845:12 *845:18 30.5121 
4 *845:18 *845:26 48.1457 
5 *845:26 *845:28 3.31429 
6 *845:28 *4503:A 43.075 
7 *845:28 *845:43 49.2021 
8 *845:43 *845:49 22.3329 
9 *845:49 *845:57 46.5921 
10 *845:57 *4545:B1 23 
11 *845:49 *4738:B1 23.4971 
12 *845:43 *4786:B1 42.0186 
13 *845:26 *845:88 43.3164 
14 *845:88 *4799:B1 23.4971 
15 *845:88 *845:103 46.5093 
16 *845:103 *4236:C1 23 
17 *845:103 *845:120 37.3329 
18 *845:120 *4202:C1 23 
19 *845:18 *4456:B1 38 
20 *845:12 *4815:B1 38.6214 
21 *845:10 *4200:C1 40.5686 
*END

*D_NET *846 0.0148484
*CONN
*I *4226:C1 I *D sky130_fd_sc_hd__o221a_1
*I *4224:C1 I *D sky130_fd_sc_hd__o221a_1
*I *4222:C1 I *D sky130_fd_sc_hd__o221a_1
*I *4218:C1 I *D sky130_fd_sc_hd__o221a_1
*I *4216:C1 I *D sky130_fd_sc_hd__o221a_1
*I *4725:C1 I *D sky130_fd_sc_hd__o221a_1
*I *4204:C1 I *D sky130_fd_sc_hd__o221a_1
*I *4745:B1 I *D sky130_fd_sc_hd__o211a_1
*I *4733:B1 I *D sky130_fd_sc_hd__o211a_1
*I *4220:C1 I *D sky130_fd_sc_hd__o221a_1
*I *4948:X O *D sky130_fd_sc_hd__buf_2
*CAP
1 *4226:C1 0.000322425
2 *4224:C1 2.01521e-05
3 *4222:C1 4.08693e-05
4 *4218:C1 4.56369e-05
5 *4216:C1 0
6 *4725:C1 0
7 *4204:C1 5.31195e-05
8 *4745:B1 0
9 *4733:B1 0
10 *4220:C1 0.000108406
11 *4948:X 7.98292e-05
12 *846:68 0.000638935
13 *846:62 0.000950012
14 *846:47 0.000732111
15 *846:41 0.00166696
16 *846:33 0.00164056
17 *846:29 0.00108209
18 *846:27 0.000930336
19 *846:25 0.000541328
20 *846:23 0.000820887
21 *846:10 0.000386465
22 *846:8 7.98292e-05
23 *4220:C1 *4219:B 0
24 *4220:C1 *4220:B1 5.79559e-05
25 *4226:C1 *4226:B1 2.76611e-06
26 *4226:C1 *967:91 0.000579694
27 *846:23 *4220:A1 0.000403003
28 *846:23 *4220:B1 0.000106042
29 *846:25 *967:91 5.86204e-05
30 *846:25 *967:110 0
31 *846:27 *4222:B1 2.76611e-06
32 *846:29 *4222:B1 5.77294e-05
33 *846:29 *960:10 4.48671e-05
34 *846:29 *960:27 7.13673e-05
35 *846:29 *966:80 0
36 *846:33 *966:58 0
37 *846:33 *966:71 0
38 *846:33 *971:81 0
39 *846:33 *971:83 0
40 *846:41 *4215:B 0.000138588
41 *846:47 *847:82 1.73338e-05
42 *4215:A *846:41 2.98648e-05
43 *4216:B2 *846:41 0.000146195
44 *4220:B2 *4220:C1 4.50289e-05
45 *4725:B1 *846:41 6.99492e-05
46 *4725:B2 *846:41 2.9938e-05
47 *4725:B2 *846:47 9.84851e-05
48 *4745:A1 *846:68 0
49 *4855:CLK *846:29 0
50 *4865:CLK *4224:C1 9.84851e-05
51 *4901:D *846:41 0.000256827
52 *4923:A *846:47 7.91596e-05
53 *4923:A *846:62 1.17152e-05
54 *147:8 *846:68 0
55 *181:60 *846:68 0
56 *183:81 *846:8 5.119e-05
57 *201:8 *4204:C1 0.000145611
58 *201:8 *846:62 0.000301679
59 *208:6 *4218:C1 9.84851e-05
60 *211:8 *4224:C1 9.84851e-05
61 *212:8 *4226:C1 9.84851e-05
62 *657:25 *846:47 4.21594e-06
63 *682:10 *846:62 1.14452e-05
64 *683:8 *846:62 0.000164766
65 *693:10 *846:68 6.07611e-06
66 *772:118 *846:47 9.74132e-05
67 *777:23 *846:29 0
68 *777:49 *846:25 0
69 *777:49 *846:27 0
70 *777:62 *846:25 0
71 *777:95 *846:62 8.57765e-05
72 *777:125 *4226:C1 9.84851e-05
73 *778:25 *846:47 0
74 *798:55 *846:41 0.000128791
75 *798:55 *846:47 2.32004e-05
76 *803:10 *846:41 3.07755e-05
77 *806:6 *4222:C1 3.7122e-06
78 *806:16 *846:27 0
79 *806:16 *846:29 0
80 *806:29 *846:27 5.12206e-05
81 *837:93 *4226:C1 0
82 *838:118 *4204:C1 0.000270682
83 *838:118 *846:62 0.000531529
*RES
1 *4948:X *846:8 39.5536 
2 *846:8 *846:10 15 
3 *846:10 *4220:C1 25.0714 
4 *846:10 *846:23 20.8621 
5 *846:23 *846:25 3.66643 
6 *846:25 *846:27 5.77929 
7 *846:27 *846:29 11.4136 
8 *846:29 *846:33 23.2443 
9 *846:33 *846:41 18.6636 
10 *846:41 *846:47 24.8186 
11 *846:47 *4733:B1 38 
12 *846:47 *846:62 24.7979 
13 *846:62 *846:68 41.4136 
14 *846:68 *4745:B1 23 
15 *846:62 *4204:C1 26.0036 
16 *846:41 *4725:C1 23 
17 *846:33 *4216:C1 23 
18 *846:29 *4218:C1 39.0979 
19 *846:27 *4222:C1 38.6214 
20 *846:25 *4224:C1 39.0979 
21 *846:23 *4226:C1 46.99 
*END

*D_NET *847 0.0290829
*CONN
*I *4232:C1 I *D sky130_fd_sc_hd__o221a_1
*I *4228:C1 I *D sky130_fd_sc_hd__o221a_1
*I *4230:C1 I *D sky130_fd_sc_hd__o221a_1
*I *4765:B1 I *D sky130_fd_sc_hd__o211a_1
*I *4234:C1 I *D sky130_fd_sc_hd__o221a_1
*I *4948:A I *D sky130_fd_sc_hd__buf_2
*I *4750:B1 I *D sky130_fd_sc_hd__o211a_1
*I *4588:B1 I *D sky130_fd_sc_hd__o211a_1
*I *4760:B1 I *D sky130_fd_sc_hd__o211a_1
*I *4773:B1 I *D sky130_fd_sc_hd__o211a_1
*I *4949:X O *D sky130_fd_sc_hd__clkbuf_4
*CAP
1 *4232:C1 0
2 *4228:C1 0
3 *4230:C1 0
4 *4765:B1 0
5 *4234:C1 2.77218e-05
6 *4948:A 0.000215998
7 *4750:B1 0.000177184
8 *4588:B1 0.00143578
9 *4760:B1 0
10 *4773:B1 6.05018e-05
11 *4949:X 0
12 *847:187 0.000247318
13 *847:172 0.000881872
14 *847:147 0.00153373
15 *847:82 0.00270044
16 *847:70 0.00191176
17 *847:62 0.00115184
18 *847:60 0.000692379
19 *847:49 0.000438642
20 *847:39 0.00115741
21 *847:35 0.000677774
22 *847:33 0.00161403
23 *847:12 0.00257457
24 *847:4 0.00195696
25 *4588:B1 *964:8 7.24484e-05
26 *4750:B1 *915:10 0.000140958
27 *847:12 *881:10 0.000102971
28 *847:49 *919:10 0.000671938
29 *847:70 *970:33 2.02872e-05
30 *847:82 *4732:B1_N 5.94125e-05
31 *847:82 *4733:A1 0.000164282
32 *847:82 *4741:B1 0
33 *847:147 *4229:B 5.50106e-05
34 *847:172 *4230:A1 5.20898e-05
35 *847:172 *878:8 5.56203e-05
36 *847:187 *4232:B1 5.55743e-06
37 *847:187 *967:41 4.59098e-05
38 *847:187 *967:62 7.64059e-06
39 *4223:A *847:70 3.47781e-05
40 *4230:A2 *847:147 4.61439e-05
41 *4230:A2 *847:172 6.38926e-05
42 *4230:B2 *847:147 0.00023506
43 *4230:B2 *847:172 0.000111911
44 *4232:B2 *847:187 1.47709e-05
45 *4588:A2 *4588:B1 1.14154e-05
46 *4727:A1 *847:82 5.50106e-05
47 *4727:B1_N *4588:B1 4.58505e-05
48 *4728:B *4588:B1 0
49 *4728:B *847:82 9.45494e-05
50 *4742:B1 *847:82 1.80023e-05
51 *4773:A2 *4773:B1 5.45064e-06
52 *4773:C1 *4773:B1 1.10088e-05
53 *4867:CLK *847:172 0
54 *4868:CLK *847:172 0
55 *4868:D *847:172 8.85152e-05
56 *4896:D *4588:B1 0.000171658
57 *4908:D *847:33 3.3596e-05
58 *4923:A *847:82 0.000807077
59 *5043:A *847:49 8.60475e-05
60 *181:60 *847:62 0
61 *181:60 *847:70 0
62 *181:71 *847:33 0
63 *181:71 *847:35 0
64 *181:71 *847:39 0
65 *181:77 *847:33 0
66 *181:77 *847:147 2.4754e-05
67 *181:87 *847:187 1.24376e-05
68 *183:63 *847:49 7.93453e-05
69 *183:63 *847:60 6.88885e-05
70 *183:69 *847:39 0
71 *183:69 *847:60 0.000164291
72 *183:69 *847:62 0.000249909
73 *213:10 *847:172 4.5882e-05
74 *215:8 *847:187 8.57485e-05
75 *657:25 *847:82 3.70187e-05
76 *660:34 *847:82 0
77 *679:10 *847:82 1.40958e-05
78 *681:10 *847:82 0.000179089
79 *690:8 *847:82 0.000188142
80 *704:10 *847:49 0.000163352
81 *704:25 *847:49 5.41385e-05
82 *706:10 *847:49 2.61622e-05
83 *710:8 *847:39 0
84 *772:118 *847:82 0.000195238
85 *777:70 *4948:A 0.000405986
86 *777:78 *4750:B1 6.03784e-05
87 *777:78 *847:82 0.00064159
88 *777:95 *847:82 9.02129e-05
89 *777:117 *4234:C1 5.3304e-05
90 *780:83 *4773:B1 3.70094e-05
91 *780:83 *847:12 8.4047e-05
92 *780:89 *4773:B1 7.53384e-06
93 *780:89 *847:33 0.000272383
94 *780:101 *4773:B1 0
95 *780:101 *847:33 0
96 *780:101 *847:35 0
97 *798:8 *4588:B1 7.87994e-05
98 *798:16 *4588:B1 6.71408e-06
99 *798:55 *4588:B1 0.000190702
100 *798:55 *847:82 0.000481035
101 *805:53 *847:82 0
102 *805:81 *847:70 1.01436e-05
103 *807:10 *4948:A 0.00014196
104 *807:10 *847:70 0.000136486
105 *807:27 *847:70 0.000700216
106 *809:14 *847:60 0
107 *809:20 *847:49 0.000576699
108 *809:81 *4234:C1 2.64616e-05
109 *811:6 *847:33 2.08776e-05
110 *811:12 *4773:B1 3.22879e-05
111 *811:58 *847:33 0
112 *811:58 *847:147 0.000491657
113 *833:74 *4750:B1 4.21594e-06
114 *834:12 *4773:B1 3.55887e-05
115 *834:12 *847:12 4.60263e-05
116 *846:47 *847:82 1.73338e-05
*RES
1 *4949:X *847:4 23 
2 *847:4 *847:12 46.1957 
3 *847:12 *4773:B1 39.9679 
4 *847:12 *847:33 43.6507 
5 *847:33 *847:35 2.61 
6 *847:35 *847:39 24.3007 
7 *847:39 *847:49 43.7336 
8 *847:49 *4760:B1 23 
9 *847:39 *847:60 19.3086 
10 *847:60 *847:62 9.30071 
11 *847:62 *847:70 40.8543 
12 *847:70 *847:82 49.9657 
13 *847:82 *4588:B1 44.9986 
14 *847:70 *4750:B1 41.7286 
15 *847:62 *4948:A 43.4064 
16 *847:60 *4234:C1 38.6214 
17 *847:35 *4765:B1 38 
18 *847:33 *847:147 29.7693 
19 *847:147 *4230:C1 23 
20 *847:147 *847:172 48.27 
21 *847:172 *4228:C1 23 
22 *847:4 *847:187 34.1014 
23 *847:187 *4232:C1 23 
*END

*D_NET *848 0.00944346
*CONN
*I *4242:C1 I *D sky130_fd_sc_hd__o221a_1
*I *4949:A I *D sky130_fd_sc_hd__clkbuf_4
*I *4238:C1 I *D sky130_fd_sc_hd__o221a_1
*I *4240:C1 I *D sky130_fd_sc_hd__o221a_1
*I *4947:A I *D sky130_fd_sc_hd__buf_2
*I *4950:X O *D sky130_fd_sc_hd__dlymetal6s2s_1
*CAP
1 *4242:C1 0
2 *4949:A 0.000896688
3 *4238:C1 0
4 *4240:C1 0.000303507
5 *4947:A 0.000222243
6 *4950:X 0.00016105
7 *848:44 0.0013953
8 *848:27 0.00137698
9 *848:19 0.000838291
10 *848:10 0.000485675
11 *848:8 0.00016105
12 *4240:C1 *897:10 2.96369e-05
13 *4240:C1 *946:12 2.8888e-05
14 *4949:A *4238:A1 0.000592017
15 *4949:A *967:22 0.000100477
16 *848:19 *957:8 1.84831e-05
17 *848:27 *4242:A1 0.00042104
18 *848:27 *946:12 6.04946e-05
19 *848:44 *4236:A1 8.36547e-05
20 *848:44 *967:22 0.000112731
21 *4238:B2 *4949:A 7.50355e-05
22 *4238:B2 *848:44 0.000186038
23 *4853:D *4947:A 6.01634e-05
24 *779:65 *4240:C1 0
25 *779:80 *4240:C1 0
26 *779:102 *4947:A 0.000102971
27 *837:38 *4240:C1 0
28 *837:45 *848:44 0.000675087
29 *837:58 *848:44 0.000399336
30 *837:73 *4949:A 9.08709e-06
31 *837:73 *848:44 0.000167317
32 *845:10 *4947:A 0.000242956
33 *845:120 *848:44 0.000237252
*RES
1 *4950:X *848:8 40.9621 
2 *848:8 *848:10 15 
3 *848:10 *4947:A 29.3386 
4 *848:10 *848:19 4.43286 
5 *848:19 *848:27 26.2271 
6 *848:27 *4240:C1 43.075 
7 *848:27 *848:44 31.8614 
8 *848:44 *4238:C1 23 
9 *848:44 *4949:A 40.7936 
10 *848:19 *4242:C1 23 
*END

*D_NET *849 0.0365596
*CONN
*I *4950:A I *D sky130_fd_sc_hd__dlymetal6s2s_1
*I *4713:B1 I *D sky130_fd_sc_hd__o211a_1
*I *4208:C1 I *D sky130_fd_sc_hd__o221a_1
*I *4206:C1 I *D sky130_fd_sc_hd__o221a_1
*I *4212:C1 I *D sky130_fd_sc_hd__o221a_1
*I *4214:C1 I *D sky130_fd_sc_hd__o221a_1
*I *4685:B1 I *D sky130_fd_sc_hd__o211a_1
*I *4656:B1 I *D sky130_fd_sc_hd__o211a_1
*I *4210:C1 I *D sky130_fd_sc_hd__o221a_1
*I *4621:B1 I *D sky130_fd_sc_hd__o211a_1
*I *4951:X O *D sky130_fd_sc_hd__clkbuf_4
*CAP
1 *4950:A 0.000128305
2 *4713:B1 0
3 *4208:C1 0
4 *4206:C1 0
5 *4212:C1 0
6 *4214:C1 2.08439e-05
7 *4685:B1 2.0995e-05
8 *4656:B1 0
9 *4210:C1 0.00067112
10 *4621:B1 1.24673e-05
11 *4951:X 4.99221e-05
12 *849:132 0.000225867
13 *849:121 0.000887253
14 *849:104 0.000928154
15 *849:102 0.00140369
16 *849:84 0.000558282
17 *849:76 0.000739245
18 *849:55 0.00115879
19 *849:53 0.00148546
20 *849:51 0.000366458
21 *849:43 0.0019758
22 *849:39 0.00181662
23 *849:24 0.000488643
24 *849:20 0.00222254
25 *849:14 0.00349503
26 *849:12 0.00389124
27 *849:8 0.00252808
28 *4210:C1 *4209:B 5.84916e-05
29 *4621:B1 *913:8 1.14154e-05
30 *849:12 *910:8 5.56306e-05
31 *849:12 *961:50 0.000109131
32 *849:12 *968:80 0
33 *849:12 *970:100 0
34 *849:39 *913:8 6.99492e-05
35 *849:43 *4713:A1 0.00010209
36 *849:43 *4713:A2 3.91386e-05
37 *849:76 *4956:A 0.000306191
38 *849:84 *4956:A 0.000182832
39 *849:84 *1011:54 0
40 *849:84 *1011:62 1.86869e-05
41 *849:102 *4213:B 0.000140935
42 *849:102 *4713:A2 0.000441978
43 *849:121 *4212:B1 2.93845e-05
44 *849:121 *4214:A1 0.000183733
45 *849:121 *887:8 0
46 *849:121 *930:20 0
47 *849:132 *966:49 0.000192681
48 *849:132 *971:87 0
49 rdata[13] *849:121 0
50 *4198:A *849:12 6.43005e-05
51 *4210:B2 *4210:C1 5.68958e-05
52 *4445:A2 *849:14 1.34542e-05
53 *4492:A1 *849:14 0
54 *4493:C1 *849:14 0.000185095
55 *4494:B1 *849:14 0.000222104
56 *4534:A1 *849:20 1.79651e-05
57 *4534:B1 *849:20 2.93845e-05
58 *4534:C1 *849:20 0.000185434
59 *4581:B *849:20 9.91798e-05
60 *4582:B *849:20 6.70749e-05
61 *4582:B *849:24 7.53384e-06
62 *4619:A *4621:B1 3.91386e-05
63 *4619:A *849:24 0.000488848
64 *4619:B *849:24 0.000658443
65 *4685:A2 *4685:B1 1.14154e-05
66 *4685:A2 *849:76 4.00259e-06
67 *4812:A *849:12 0
68 *4813:B *849:12 0
69 *4899:D *849:76 0.000169878
70 *4960:A *849:12 3.65352e-05
71 *11:9 *849:14 0
72 *17:10 *849:121 0
73 *103:10 *849:121 0.000167443
74 *140:10 *849:39 4.08641e-05
75 *143:8 *849:102 1.14452e-05
76 *163:27 *4950:A 0.000102323
77 *163:27 *849:12 0.000528228
78 *181:60 *849:102 0
79 *181:119 *849:55 0
80 *181:119 *849:102 0
81 *183:49 *849:12 8.01672e-05
82 *198:10 *849:12 0
83 *203:10 *849:55 2.76611e-06
84 *203:10 *849:102 4.3407e-05
85 *205:6 *849:121 5.67058e-05
86 *206:10 *4214:C1 1.14154e-05
87 *206:10 *849:102 0.000118664
88 *206:10 *849:121 7.73389e-05
89 *333:40 *849:14 0
90 *400:10 *849:14 1.84226e-05
91 *401:10 *849:14 0.000136486
92 *402:27 *849:14 0.000196188
93 *403:12 *849:14 0.00019871
94 *404:10 *849:14 0
95 *406:8 *849:14 0
96 *412:24 *849:14 0.000164291
97 *448:6 *849:20 0.000238617
98 *449:12 *849:14 4.08537e-05
99 *451:8 *849:14 0.000387957
100 *492:10 *849:20 0.000269775
101 *538:8 *849:20 0.000118143
102 *539:6 *849:24 0.000354122
103 *574:25 *849:43 0.000911471
104 *638:8 *849:84 1.83564e-05
105 *671:14 *849:39 0
106 *748:19 *849:12 9.35649e-05
107 *751:10 *849:12 0
108 *754:10 *849:12 9.92975e-05
109 *755:10 *849:12 0.00035476
110 *772:14 *849:14 0
111 *772:28 *849:14 0
112 *778:29 *849:51 0.000434083
113 *778:29 *849:55 0
114 *778:29 *849:102 0
115 *778:31 *4210:C1 0
116 *778:31 *849:55 0
117 *778:33 *4210:C1 0
118 *778:71 *849:121 0
119 *778:80 *849:121 0
120 *778:141 *849:55 0
121 *778:193 *849:39 0.000166522
122 *779:100 *4950:A 0.00018221
123 *779:100 *849:8 5.3304e-05
124 *800:55 *4210:C1 0
125 *801:8 *849:76 0.000189298
126 *801:10 *849:76 2.18409e-05
127 *801:10 *849:84 0.000103647
128 *802:59 *849:132 0
129 *826:12 *849:12 0.000154396
130 *826:27 *849:12 0
131 *826:27 *849:14 0.000494368
132 *832:14 *849:12 0.000164291
133 *835:35 *849:12 0
134 *838:22 *849:55 0
135 *838:124 *849:12 0
136 *838:124 *849:14 0.000380072
137 *845:18 *849:12 0
138 *845:26 *849:12 0
*RES
1 *4951:X *849:8 38.6214 
2 *849:8 *849:12 48.8546 
3 *849:12 *849:14 39.0568 
4 *849:14 *849:20 43.275 
5 *849:20 *849:24 10.6471 
6 *849:24 *4621:B1 23.4971 
7 *849:24 *849:39 34.3086 
8 *849:39 *849:43 23.3864 
9 *849:43 *849:51 38.7829 
10 *849:51 *849:53 15 
11 *849:53 *849:55 5.77929 
12 *849:55 *4210:C1 49.9314 
13 *849:55 *849:76 21.9807 
14 *849:76 *849:84 41.3514 
15 *849:84 *4656:B1 23 
16 *849:76 *4685:B1 23.4971 
17 *849:53 *849:102 34.4921 
18 *849:102 *849:104 0.497143 
19 *849:104 *4214:C1 23.4971 
20 *849:104 *849:121 47.2964 
21 *849:121 *4212:C1 23 
22 *849:102 *849:132 35.075 
23 *849:132 *4206:C1 23 
24 *849:51 *4208:C1 23 
25 *849:43 *4713:B1 23 
26 *849:8 *4950:A 40.9 
*END

*D_NET *850 0.000385198
*CONN
*I *4524:A2 I *D sky130_fd_sc_hd__a21oi_1
*I *5109:X O *D sky130_fd_sc_hd__dlymetal6s2s_1
*CAP
1 *4524:A2 4.62018e-05
2 *5109:X 4.62018e-05
3 *4524:A1 *4524:A2 5.41385e-05
4 *4524:B1 *4524:A2 0.000184527
5 *479:27 *4524:A2 5.41288e-05
*RES
1 *5109:X *4524:A2 48.0507 
*END

*D_NET *851 0.000754156
*CONN
*I *5109:A I *D sky130_fd_sc_hd__dlymetal6s2s_1
*I *5110:X O *D sky130_fd_sc_hd__dlymetal6s2s_1
*CAP
1 *5109:A 0
2 *5110:X 0.000354132
3 *851:10 0.000354132
4 *481:10 *851:10 0
5 *482:10 *851:10 4.58924e-05
*RES
1 *5110:X *851:10 43.9657 
2 *851:10 *5109:A 38 
*END

*D_NET *852 0.00791968
*CONN
*I *4158:A1 I *D sky130_fd_sc_hd__mux2_1
*I *4252:A1 I *D sky130_fd_sc_hd__mux2_1
*I *5051:X O *D sky130_fd_sc_hd__buf_1
*CAP
1 *4158:A1 0
2 *4252:A1 0.000385373
3 *5051:X 0.0015257
4 *852:25 0.000316509
5 *852:8 0.000701882
6 *852:6 0.0015257
7 *4252:A1 *866:16 0.000402801
8 *4252:A1 *988:14 5.50106e-05
9 *4252:A1 *1004:135 7.39261e-05
10 *852:25 *866:16 0
11 *852:25 *866:25 0
12 *852:25 *990:10 8.72173e-05
13 *852:25 *990:74 0.000354778
14 *4158:S *852:25 0.000487153
15 *4199:C1 *852:25 0.000487153
16 *4840:CLK *852:6 0.000644935
17 *224:10 *4252:A1 0
18 *226:8 *4252:A1 0
19 *774:42 *852:6 0.000136851
20 *774:44 *852:6 0.000242879
21 *789:8 *4252:A1 1.01436e-05
22 *789:8 *852:25 0.000167443
23 *789:21 *852:25 0.000184174
24 *841:77 *4252:A1 7.14186e-05
25 *841:77 *852:25 5.8637e-05
*RES
1 *5051:X *852:6 45.5371 
2 *852:6 *852:8 15 
3 *852:8 *4252:A1 46.7 
4 *852:8 *852:25 27.9257 
5 *852:25 *4158:A1 23 
*END

*D_NET *853 0.00216612
*CONN
*I *4792:B I *D sky130_fd_sc_hd__or2_1
*I *5111:X O *D sky130_fd_sc_hd__dlygate4sd1_1
*CAP
1 *4792:B 0.000139987
2 *5111:X 0.000355922
3 *853:10 0.000495909
4 *853:10 *966:102 0
5 *853:10 *1002:28 5.50106e-05
6 *200:10 *853:10 0.000563759
7 *737:10 *853:10 8.67978e-05
8 *772:86 *853:10 0.000209375
9 *779:8 *4792:B 5.67058e-05
10 *814:40 *4792:B 0.000202653
*RES
1 *5111:X *853:10 46.5136 
2 *853:10 *4792:B 41.9564 
*END

*D_NET *854 0.000572206
*CONN
*I *5113:A I *D sky130_fd_sc_hd__dlymetal6s2s_1
*I *4678:A3 I *D sky130_fd_sc_hd__a31o_1
*I *5112:X O *D sky130_fd_sc_hd__clkbuf_2
*CAP
1 *5113:A 2.33465e-05
2 *4678:A3 0
3 *5112:X 2.95294e-05
4 *854:12 9.05589e-05
5 *854:6 0.000143435
6 *4650:A *5113:A 5.50106e-05
7 *4650:A *854:6 5.50049e-05
8 *4680:A *854:12 9.88678e-05
9 *601:8 *854:12 6.07611e-06
10 *632:8 *854:12 7.03766e-05
*RES
1 *5112:X *854:6 23.6214 
2 *854:6 *854:12 32.61 
3 *854:12 *4678:A3 23 
4 *854:6 *5113:A 23.6214 
*END

*D_NET *855 0.00113604
*CONN
*I *4650:B I *D sky130_fd_sc_hd__nand2_4
*I *5113:X O *D sky130_fd_sc_hd__dlymetal6s2s_1
*CAP
1 *4650:B 0
2 *5113:X 0.000141782
3 *855:8 0.000141782
4 *4650:A *855:8 0.000317553
5 *654:10 *855:8 0.000534925
*RES
1 *5113:X *855:8 29.3593 
2 *855:8 *4650:B 23 
*END

*D_NET *856 0.00423035
*CONN
*I *4742:A2_N I *D sky130_fd_sc_hd__a2bb2o_4
*I *4741:B1 I *D sky130_fd_sc_hd__o21ai_1
*I *4739:B I *D sky130_fd_sc_hd__nand2_1
*I *4735:A2 I *D sky130_fd_sc_hd__a21bo_1
*I *4754:B1 I *D sky130_fd_sc_hd__o41a_1
*I *4934:X O *D sky130_fd_sc_hd__clkbuf_1
*CAP
1 *4742:A2_N 0
2 *4741:B1 0.000153631
3 *4739:B 0
4 *4735:A2 0
5 *4754:B1 0
6 *4934:X 2.34823e-05
7 *856:38 0.000364927
8 *856:30 0.000385124
9 *856:16 0.000345494
10 *856:8 0.000624048
11 *856:6 0.000475864
12 *4735:B1_N *856:8 2.80394e-05
13 *4735:B1_N *856:30 0.000190672
14 *4735:B1_N *856:38 0.000187129
15 *4742:A1_N *4741:B1 5.40762e-05
16 *4742:A1_N *856:38 7.98052e-05
17 *4742:B1 *856:38 3.70187e-05
18 *4934:A *856:8 0.000173452
19 *4934:A *856:30 5.90675e-06
20 *671:27 *856:8 6.53382e-05
21 *671:27 *856:16 2.93747e-05
22 *684:8 *856:16 0
23 *689:25 *856:38 0
24 *690:8 *4741:B1 6.93449e-05
25 *690:8 *856:38 0.000118797
26 *700:10 *856:16 0.000654226
27 *804:48 *4741:B1 5.41385e-05
28 *805:53 *4741:B1 1.19796e-05
29 *805:66 *4741:B1 9.84851e-05
30 *847:82 *4741:B1 0
*RES
1 *4934:X *856:6 23.4971 
2 *856:6 *856:8 5.86214 
3 *856:8 *856:16 39.2179 
4 *856:16 *4754:B1 23 
5 *856:8 *4735:A2 23 
6 *856:6 *856:30 4.45357 
7 *856:30 *856:38 21.2143 
8 *856:38 *4739:B 38 
9 *856:38 *4741:B1 42.06 
10 *856:30 *4742:A2_N 23 
*END

*D_NET *857 0.00234237
*CONN
*I *4431:B1 I *D sky130_fd_sc_hd__a211o_1
*I *4430:A1 I *D sky130_fd_sc_hd__o211ai_2
*I *5114:X O *D sky130_fd_sc_hd__dlymetal6s2s_1
*CAP
1 *4431:B1 0
2 *4430:A1 7.9399e-05
3 *5114:X 0.000120635
4 *857:29 0.000234805
5 *857:12 0.000500036
6 *857:8 0.000306466
7 *857:8 *997:55 0.000249918
8 *857:8 *999:42 0
9 *857:29 *999:42 0
10 *4386:A *857:12 2.4754e-05
11 *4386:C *857:12 0.000184527
12 *181:40 *857:29 0.000141173
13 *199:10 *857:29 0
14 *344:28 *857:8 4.58924e-05
15 *390:12 *4430:A1 5.47808e-05
16 *390:12 *857:12 4.58593e-05
17 *391:6 *857:29 0.000354122
*RES
1 *5114:X *857:8 41.3143 
2 *857:8 *857:12 18.9564 
3 *857:12 *4430:A1 24.5743 
4 *857:12 *857:29 36.3593 
5 *857:29 *4431:B1 23 
*END

*D_NET *858 0.000559536
*CONN
*I *4387:A1 I *D sky130_fd_sc_hd__o21ai_1
*I *5115:X O *D sky130_fd_sc_hd__dlygate4sd1_1
*CAP
1 *4387:A1 0
2 *5115:X 0.00016162
3 *858:10 0.00016162
4 *4385:A *858:10 9.75779e-05
5 *4387:A2 *858:10 0.000138718
6 *199:10 *858:10 0
*RES
1 *5115:X *858:10 41.0036 
2 *858:10 *4387:A1 38 
*END

*D_NET *859 0.00982821
*CONN
*I *4318:B I *D sky130_fd_sc_hd__and4_1
*I *5103:A I *D sky130_fd_sc_hd__dlymetal6s2s_1
*I *4384:A1 I *D sky130_fd_sc_hd__a22oi_2
*I *5102:X O *D sky130_fd_sc_hd__dlygate4sd1_1
*CAP
1 *4318:B 0
2 *5103:A 0
3 *4384:A1 0
4 *5102:X 0.000376028
5 *859:42 0.000384858
6 *859:29 0.000909139
7 *859:16 0.00118043
8 *859:8 0.00103218
9 *859:8 *866:65 0.000879325
10 *859:16 *4383:A 2.32004e-05
11 *859:16 *4384:B2 9.75779e-05
12 *859:16 *975:113 0.000191157
13 *859:16 *979:10 0.00064177
14 *859:29 *4195:A1 0.000240176
15 *859:29 *4384:B2 5.50049e-05
16 *859:29 *973:24 0
17 *859:29 *977:106 0.000194327
18 *859:29 *979:10 0.000217885
19 *859:29 *995:81 1.01436e-05
20 *859:29 *997:97 4.334e-05
21 *859:42 *4317:A 0
22 *859:42 *860:8 0.000140259
23 *859:42 *999:65 0.000188926
24 *859:42 *1000:97 0.00050218
25 *859:42 *1001:67 2.08324e-05
26 *859:42 *1004:113 0.000755863
27 *4928:A *859:8 7.24484e-05
28 *4933:A *859:8 5.70419e-05
29 *180:82 *859:16 0.00125881
30 *180:96 *859:29 0.000114092
31 *194:12 *859:29 0
32 *199:10 *859:42 0
33 *282:8 *859:42 1.19692e-05
34 *345:8 *859:16 5.50106e-05
35 *345:8 *859:29 4.34745e-05
36 *772:48 *859:29 0.000130771
*RES
1 *5102:X *859:8 49.5793 
2 *859:8 *859:16 36.2321 
3 *859:16 *4384:A1 23 
4 *859:16 *859:29 44.5 
5 *859:29 *5103:A 23 
6 *859:29 *859:42 43.4643 
7 *859:42 *4318:B 23 
*END

*D_NET *860 0.000924816
*CONN
*I *4296:A1 I *D sky130_fd_sc_hd__a22oi_2
*I *5103:X O *D sky130_fd_sc_hd__dlymetal6s2s_1
*CAP
1 *4296:A1 0
2 *5103:X 0.000122661
3 *860:8 0.000122661
4 *860:8 *4296:A2 4.00259e-06
5 *860:8 *1000:97 5.10686e-05
6 *860:8 *1000:105 4.74355e-05
7 *860:8 *1004:113 0.000436729
8 *859:42 *860:8 0.000140259
*RES
1 *5103:X *860:8 27.93 
2 *860:8 *4296:A1 23 
*END

*D_NET *861 0.000575835
*CONN
*I *4519:B1 I *D sky130_fd_sc_hd__a31o_1
*I *5104:X O *D sky130_fd_sc_hd__dlygate4sd1_1
*CAP
1 *4519:B1 0.00018644
2 *5104:X 0.00018644
3 *4519:B1 *985:21 3.22879e-05
4 *4519:B1 *985:27 1.22822e-05
5 *4519:B1 *995:40 0.000103379
6 *4519:A3 *4519:B1 5.50049e-05
*RES
1 *5104:X *4519:B1 49.9771 
*END

*D_NET *862 0.000929772
*CONN
*I *4518:A1_N I *D sky130_fd_sc_hd__a2bb2o_1
*I *5106:A I *D sky130_fd_sc_hd__dlygate4sd1_1
*I *5105:X O *D sky130_fd_sc_hd__dlymetal6s4s_1
*CAP
1 *4518:A1_N 0.000151864
2 *5106:A 0
3 *5105:X 0
4 *862:12 0.000147265
5 *862:4 0.000299129
6 *862:12 *993:34 4.23817e-05
7 *4518:A2_N *4518:A1_N 0.000271476
8 *4518:A2_N *862:12 1.76557e-05
9 *431:12 *862:12 0
10 *475:10 *862:12 0
*RES
1 *5105:X *862:4 23 
2 *862:4 *862:12 32.5271 
3 *862:12 *5106:A 23 
4 *862:4 *4518:A1_N 26.8529 
*END

*D_NET *863 0.00240914
*CONN
*I *4254:A1 I *D sky130_fd_sc_hd__mux2_1
*I *4160:A1 I *D sky130_fd_sc_hd__mux2_1
*I *5052:X O *D sky130_fd_sc_hd__clkbuf_1
*CAP
1 *4254:A1 0.000198561
2 *4160:A1 0
3 *5052:X 0.000598914
4 *863:12 0.000203903
5 *863:6 0.00100138
6 *4254:A1 *4254:A0 5.67058e-05
7 *841:53 *4254:A1 0.000128723
8 *841:53 *863:6 0.00010018
9 *841:53 *863:12 0.00012077
*RES
1 *5052:X *863:6 31.2443 
2 *863:6 *863:12 34.7229 
3 *863:12 *4160:A1 23 
4 *863:6 *4254:A1 26.0036 
*END

*D_NET *864 0.00156066
*CONN
*I *4521:B I *D sky130_fd_sc_hd__nand2_1
*I *4520:B I *D sky130_fd_sc_hd__and2_1
*I *5106:X O *D sky130_fd_sc_hd__dlygate4sd1_1
*CAP
1 *4521:B 5.74356e-05
2 *4520:B 0
3 *5106:X 0.000447322
4 *864:12 5.74356e-05
5 *864:10 0.000447322
6 *4521:B *985:67 0.00014196
7 *864:10 *985:65 0
8 *864:10 *986:33 0.000399297
9 *864:10 *997:27 0
10 *864:10 *1004:137 9.88574e-06
*RES
1 *5106:X *864:10 45.1671 
2 *864:10 *864:12 15 
3 *864:12 *4520:B 23 
4 *864:12 *4521:B 24.5743 
*END

*D_NET *865 0.00477972
*CONN
*I *4319:A1 I *D sky130_fd_sc_hd__a22oi_2
*I *5107:X O *D sky130_fd_sc_hd__dlygate4sd1_1
*CAP
1 *4319:A1 0
2 *5107:X 0
3 *865:10 0.00169409
4 *865:6 0.00169409
5 *865:10 *4319:B1 4.21594e-06
6 *865:10 *4346:C 0
7 *865:10 *4383:D 0
8 *865:10 *973:41 0
9 *865:10 *997:87 0
10 *865:10 *997:104 0
11 *865:10 *999:73 1.86973e-05
12 *865:10 *999:88 4.21594e-06
13 *865:10 *999:99 0.000109893
14 *4430:B1 *865:10 0.000222104
15 *4430:C1 *865:10 0.000234373
16 *196:10 *865:10 0
17 *199:10 *865:10 0
18 *346:8 *865:10 3.28979e-05
19 *387:10 *865:10 0
20 *387:23 *865:10 0
21 *388:10 *865:10 0.000382574
22 *389:10 *865:10 0.000382574
*RES
1 *5107:X *865:6 38 
2 *865:6 *865:10 48.2464 
3 *865:10 *4319:A1 23 
*END

*D_NET *866 0.0133622
*CONN
*I *5107:A I *D sky130_fd_sc_hd__dlygate4sd1_1
*I *4474:A2 I *D sky130_fd_sc_hd__o21a_1
*I *4266:A2 I *D sky130_fd_sc_hd__a31o_1
*I *4178:A1 I *D sky130_fd_sc_hd__a211o_1
*I *4250:A0 I *D sky130_fd_sc_hd__mux2_1
*I *4933:X O *D sky130_fd_sc_hd__clkbuf_1
*CAP
1 *5107:A 0.000250583
2 *4474:A2 0.000265156
3 *4266:A2 6.26155e-05
4 *4178:A1 0
5 *4250:A0 0
6 *4933:X 0
7 *866:65 0.00121849
8 *866:49 6.31981e-05
9 *866:43 0.0011045
10 *866:25 0.00172572
11 *866:16 0.000862592
12 *866:6 0.0014844
13 *866:4 0.00070275
14 *4266:A2 *4266:A3 9.84851e-05
15 *4266:A2 *1010:101 7.53384e-06
16 *4474:A2 *4426:A1 1.23172e-05
17 *4474:A2 *4427:B 1.78655e-05
18 *4474:A2 *4474:A1 5.67058e-05
19 *4474:A2 *979:10 0.000431843
20 *4474:A2 *990:44 7.17297e-05
21 *4474:A2 *993:70 9.03784e-05
22 *4474:A2 *995:48 6.78463e-05
23 *5107:A *973:41 0.00011631
24 *5107:A *979:10 0.000131735
25 *5107:A *993:70 0.000139647
26 *5107:A *995:56 4.05745e-05
27 *866:16 *986:27 4.77213e-05
28 *866:16 *988:14 0.000168423
29 *866:16 *1004:27 0.000323963
30 *866:16 *1004:135 0.000617571
31 *866:25 *1005:17 0
32 *866:43 *4266:A3 0.00043937
33 *866:43 *4267:C 1.95448e-05
34 *866:43 *987:20 7.37948e-05
35 *866:43 *990:74 0.000376252
36 *866:43 *1005:23 1.63039e-05
37 *866:43 *1010:78 2.95125e-05
38 *866:65 *4426:A2 3.7122e-06
39 *866:65 *975:105 3.70071e-06
40 *866:65 *975:124 5.85822e-06
41 *4199:B1 *5107:A 6.17437e-06
42 *4250:S *866:16 2.46906e-05
43 *4252:A1 *866:16 0.000402801
44 *4839:CLK *866:25 0
45 *4886:CLK *866:25 0
46 *172:10 *866:25 0
47 *180:48 *866:43 0.000217938
48 *180:56 *866:43 0.000142173
49 *180:56 *866:49 0.000141975
50 *180:67 *866:49 3.68205e-05
51 *199:8 *5107:A 0.000181131
52 *226:8 *866:16 0
53 *235:8 *866:43 8.62783e-05
54 *789:8 *866:16 0
55 *789:21 *866:16 0
56 *797:24 *866:43 9.41704e-05
57 *841:94 *866:43 0
58 *852:25 *866:16 0
59 *852:25 *866:25 0
60 *859:8 *866:65 0.000879325
*RES
1 *4933:X *866:4 23 
2 *866:4 *866:6 15 
3 *866:6 *866:16 35.2171 
4 *866:16 *4250:A0 23 
5 *866:6 *866:25 25.3571 
6 *866:25 *866:43 49.5129 
7 *866:43 *866:49 31.9057 
8 *866:49 *4178:A1 23 
9 *866:25 *4266:A2 24.5743 
10 *866:4 *866:65 26.1029 
11 *866:65 *4474:A2 44.4007 
12 *866:65 *5107:A 43.8621 
*END

*D_NET *867 0.000403512
*CONN
*I *4683:A I *D sky130_fd_sc_hd__xnor2_1
*I *5108:X O *D sky130_fd_sc_hd__dlygate4sd1_1
*CAP
1 *4683:A 0.000129929
2 *5108:X 0.000129929
3 *4683:B *4683:A 0.000143655
4 *4684:B *4683:A 0
*RES
1 *5108:X *4683:A 48.9 
*END

*D_NET *868 0.000248889
*CONN
*I *4179:A1 I *D sky130_fd_sc_hd__o211a_1
*I *4997:X O *D sky130_fd_sc_hd__dlygate4sd3_1
*CAP
1 *4179:A1 9.60914e-05
2 *4997:X 9.60914e-05
3 *4179:A2 *4179:A1 5.67058e-05
*RES
1 *4997:X *4179:A1 48.0507 
*END

*D_NET *869 0.000529988
*CONN
*I *4182:A1 I *D sky130_fd_sc_hd__o211a_1
*I *4998:X O *D sky130_fd_sc_hd__dlygate4sd3_1
*CAP
1 *4182:A1 0
2 *4998:X 0.000259271
3 *869:10 0.000259271
4 *4887:CLK *869:10 0
5 *773:53 *869:10 0
6 *839:23 *869:10 1.14452e-05
7 *841:22 *869:10 0
*RES
1 *4998:X *869:10 41.0036 
2 *869:10 *4182:A1 38 
*END

*D_NET *870 0.00107075
*CONN
*I *4188:A1 I *D sky130_fd_sc_hd__o211a_1
*I *4999:X O *D sky130_fd_sc_hd__dlygate4sd3_1
*CAP
1 *4188:A1 0
2 *4999:X 0.000302766
3 *870:10 0.000302766
4 *92:10 *870:10 8.26569e-05
5 *164:10 *870:10 0
6 *839:49 *870:10 1.14452e-05
7 *839:62 *870:10 0.000371119
*RES
1 *4999:X *870:10 44.6493 
2 *870:10 *4188:A1 38 
*END

*D_NET *871 0.000497451
*CONN
*I *4185:A1 I *D sky130_fd_sc_hd__o211a_1
*I *5000:X O *D sky130_fd_sc_hd__dlygate4sd3_1
*CAP
1 *4185:A1 0
2 *5000:X 0.000177791
3 *871:10 0.000177791
4 *164:10 *871:10 0
5 *839:40 *871:10 1.14452e-05
6 *839:49 *871:10 0.000130424
*RES
1 *5000:X *871:10 41.0036 
2 *871:10 *4185:A1 38 
*END

*D_NET *872 0.000294941
*CONN
*I *4194:A1 I *D sky130_fd_sc_hd__o211a_1
*I *5001:X O *D sky130_fd_sc_hd__dlygate4sd3_1
*CAP
1 *4194:A1 9.5763e-05
2 *5001:X 9.5763e-05
3 *839:62 *4194:A1 0.000103415
*RES
1 *5001:X *4194:A1 48.0507 
*END

*D_NET *873 0.00433671
*CONN
*I *4162:A1 I *D sky130_fd_sc_hd__mux2_1
*I *4256:A1 I *D sky130_fd_sc_hd__mux2_1
*I *5053:X O *D sky130_fd_sc_hd__clkbuf_1
*CAP
1 *4162:A1 0.000431084
2 *4256:A1 0.000100911
3 *5053:X 0.00117547
4 *873:8 0.000531995
5 *873:6 0.00117547
6 *4162:A1 *984:16 8.4047e-05
7 *4162:A1 *1000:12 5.40876e-05
8 *4256:A1 *984:16 0.000280856
9 *4257:B *873:6 0.000164213
10 *4881:D *873:6 0.000171138
11 *228:10 *4256:A1 0.000167443
12 *773:18 *4162:A1 0
13 *773:18 *4256:A1 0
14 *792:8 *4162:A1 0
15 *792:21 *4162:A1 0
*RES
1 *5053:X *873:6 39.3436 
2 *873:6 *873:8 15 
3 *873:8 *4256:A1 41.6664 
4 *873:8 *4162:A1 45.9336 
*END

*D_NET *874 0.00104258
*CONN
*I *4191:A1 I *D sky130_fd_sc_hd__o211a_1
*I *5002:X O *D sky130_fd_sc_hd__dlygate4sd3_1
*CAP
1 *4191:A1 7.66007e-05
2 *5002:X 0.000257593
3 *874:8 0.000334193
4 *93:8 *874:8 0.000110913
5 *775:89 *4191:A1 5.67058e-05
6 *775:89 *874:8 1.55169e-05
7 *836:29 *874:8 8.22421e-06
8 *839:93 *4191:A1 0.000182832
9 *844:10 *874:8 0
10 *844:12 *874:8 0
*RES
1 *5002:X *874:8 42.7229 
2 *874:8 *4191:A1 40.0507 
*END

*D_NET *875 0.00088314
*CONN
*I *4226:A1 I *D sky130_fd_sc_hd__o221a_1
*I *5003:X O *D sky130_fd_sc_hd__dlygate4sd3_1
*CAP
1 *4226:A1 0.000172699
2 *5003:X 0.000110804
3 *875:8 0.000283502
4 *4866:D *4226:A1 0.00017248
5 *777:125 *4226:A1 0.000143655
*RES
1 *5003:X *875:8 39.9057 
2 *875:8 *4226:A1 42.4329 
*END

*D_NET *876 0.00022031
*CONN
*I *4228:A1 I *D sky130_fd_sc_hd__o221a_1
*I *5004:X O *D sky130_fd_sc_hd__dlygate4sd3_1
*CAP
1 *4228:A1 0
2 *5004:X 8.72141e-05
3 *876:8 8.72141e-05
4 *876:8 *5004:A 0
5 *876:8 *940:8 0
6 *213:10 *876:8 4.5882e-05
*RES
1 *5004:X *876:8 39.9057 
2 *876:8 *4228:A1 38 
*END

*D_NET *877 0.00088314
*CONN
*I *4224:A1 I *D sky130_fd_sc_hd__o221a_1
*I *5005:X O *D sky130_fd_sc_hd__dlygate4sd3_1
*CAP
1 *4224:A1 0.000172699
2 *5005:X 0.000110804
3 *877:8 0.000283502
4 *877:8 *5005:A 0
5 *4865:CLK *4224:A1 0.000143655
6 *4865:D *4224:A1 0.00017248
*RES
1 *5005:X *877:8 39.9057 
2 *877:8 *4224:A1 42.4329 
*END

*D_NET *878 0.000919909
*CONN
*I *4230:A1 I *D sky130_fd_sc_hd__o221a_1
*I *5006:X O *D sky130_fd_sc_hd__dlygate4sd3_1
*CAP
1 *4230:A1 0.000256484
2 *5006:X 7.59234e-05
3 *878:8 0.000332407
4 *878:8 *941:8 0
5 *4868:D *4230:A1 0.000147385
6 *847:172 *4230:A1 5.20898e-05
7 *847:172 *878:8 5.56203e-05
*RES
1 *5006:X *878:8 39.5536 
2 *878:8 *4230:A1 43.075 
*END

*D_NET *879 0.00102117
*CONN
*I *4218:A1 I *D sky130_fd_sc_hd__o221a_1
*I *5007:X O *D sky130_fd_sc_hd__dlygate4sd3_1
*CAP
1 *4218:A1 0
2 *5007:X 0.000387074
3 *879:10 0.000387074
4 *879:10 *5076:A 3.22879e-05
5 *778:110 *879:10 0.000141879
6 *838:88 *879:10 7.28526e-05
*RES
1 *5007:X *879:10 44.3386 
2 *879:10 *4218:A1 38 
*END

*D_NET *880 0.00057735
*CONN
*I *4214:A1 I *D sky130_fd_sc_hd__o221a_1
*I *5008:X O *D sky130_fd_sc_hd__dlygate4sd3_1
*CAP
1 *4214:A1 0.000187074
2 *5008:X 0.000187074
3 *103:10 *4214:A1 1.94693e-05
4 *849:121 *4214:A1 0.000183733
*RES
1 *5008:X *4214:A1 49.9564 
*END

*D_NET *881 0.000544404
*CONN
*I *4232:A1 I *D sky130_fd_sc_hd__o221a_1
*I *5009:X O *D sky130_fd_sc_hd__dlygate4sd3_1
*CAP
1 *4232:A1 0
2 *5009:X 0.000150776
3 *881:10 0.000150776
4 *215:8 *881:10 0.000139882
5 *847:12 *881:10 0.000102971
*RES
1 *5009:X *881:10 41.0036 
2 *881:10 *4232:A1 38 
*END

*D_NET *882 0.000646569
*CONN
*I *4200:A1 I *D sky130_fd_sc_hd__o221a_1
*I *5010:X O *D sky130_fd_sc_hd__dlygate4sd3_1
*CAP
1 *4200:A1 0.000196467
2 *5010:X 0.000196467
3 *4200:A1 *968:61 0.000136769
4 *4200:A1 *968:70 6.1065e-05
5 *4200:C1 *4200:A1 5.58003e-05
*RES
1 *5010:X *4200:A1 49.9771 
*END

*D_NET *883 0.000769735
*CONN
*I *4244:A1 I *D sky130_fd_sc_hd__o221a_1
*I *5011:X O *D sky130_fd_sc_hd__dlygate4sd3_1
*CAP
1 *4244:A1 0
2 *5011:X 0.000339218
3 *883:10 0.000339218
4 *883:10 *949:14 1.91473e-05
5 *118:8 *883:10 5.511e-05
6 *779:110 *883:10 1.70419e-05
*RES
1 *5011:X *883:10 44.2971 
2 *883:10 *4244:A1 38 
*END

*D_NET *884 0.00604892
*CONN
*I *4164:A1 I *D sky130_fd_sc_hd__mux2_1
*I *4258:A1 I *D sky130_fd_sc_hd__mux2_1
*I *5054:X O *D sky130_fd_sc_hd__clkbuf_1
*CAP
1 *4164:A1 0.000299514
2 *4258:A1 0.000281307
3 *5054:X 0.00124096
4 *884:16 0.000872401
5 *884:12 0.00153254
6 *4164:A1 *998:6 5.50106e-05
7 *4164:A1 *998:19 4.17736e-05
8 *4164:A1 *999:14 2.76611e-06
9 *4258:A1 *981:10 0.000296017
10 *4258:A1 *981:21 5.50049e-05
11 *884:16 *1000:31 0.000575004
12 *4258:S *4258:A1 6.17437e-06
13 *4841:D *884:12 0.00017018
14 *4985:A *884:12 1.12349e-05
15 *170:40 *4164:A1 3.3577e-05
16 *224:44 *4164:A1 0.000230966
17 *224:44 *4258:A1 3.47879e-05
18 *229:10 *4258:A1 0
19 *774:80 *884:12 0.000252859
20 *784:6 *884:12 7.51453e-06
21 *784:6 *884:16 1.59071e-05
22 *792:23 *4258:A1 3.34129e-05
*RES
1 *5054:X *884:12 43.5693 
2 *884:12 *884:16 22.7679 
3 *884:16 *4258:A1 44.1729 
4 *884:16 *4164:A1 45.2293 
*END

*D_NET *885 0.00156459
*CONN
*I *4202:A1 I *D sky130_fd_sc_hd__o221a_1
*I *5012:X O *D sky130_fd_sc_hd__dlygate4sd3_1
*CAP
1 *4202:A1 2.47522e-05
2 *5012:X 0.000664259
3 *885:10 0.000689011
4 *885:10 *5012:A 5.1614e-06
5 *885:10 *967:10 3.70292e-05
6 *4854:D *885:10 1.49833e-05
7 *4872:CLK *4202:A1 5.5792e-05
8 *779:164 *885:10 6.35124e-05
9 *837:64 *885:10 1.0092e-05
*RES
1 *5012:X *885:10 47.0729 
2 *885:10 *4202:A1 38.6214 
*END

*D_NET *886 0.0012288
*CONN
*I *4238:A1 I *D sky130_fd_sc_hd__o221a_1
*I *5013:X O *D sky130_fd_sc_hd__dlygate4sd3_1
*CAP
1 *4238:A1 0.000200927
2 *5013:X 0.000117462
3 *886:8 0.000318389
4 *4949:A *4238:A1 0.000592017
*RES
1 *5013:X *886:8 39.9057 
2 *886:8 *4238:A1 44.3386 
*END

*D_NET *887 0.000246652
*CONN
*I *4212:A1 I *D sky130_fd_sc_hd__o221a_1
*I *5014:X O *D sky130_fd_sc_hd__dlygate4sd3_1
*CAP
1 *4212:A1 0
2 *5014:X 0.000123326
3 *887:8 0.000123326
4 *887:8 *928:16 0
5 *849:121 *887:8 0
*RES
1 *5014:X *887:8 39.9057 
2 *887:8 *4212:A1 38 
*END

*D_NET *888 0.000751059
*CONN
*I *4222:A1 I *D sky130_fd_sc_hd__o221a_1
*I *5015:X O *D sky130_fd_sc_hd__dlygate4sd3_1
*CAP
1 *4222:A1 0.000228636
2 *5015:X 0.000146893
3 *888:8 0.000375529
4 *888:8 *5078:A 0
5 *4222:A2 *888:8 0
6 *107:8 *888:8 0
*RES
1 *5015:X *888:8 40.61 
2 *888:8 *4222:A1 41.9564 
*END

*D_NET *889 0.000497337
*CONN
*I *4216:A1 I *D sky130_fd_sc_hd__o221a_1
*I *5016:X O *D sky130_fd_sc_hd__dlygate4sd3_1
*CAP
1 *4216:A1 0.000225661
2 *5016:X 0.000225661
3 *4216:A2 *4216:A1 1.24376e-05
4 *104:10 *4216:A1 3.3577e-05
*RES
1 *5016:X *4216:A1 49.9564 
*END

*D_NET *890 0.00051261
*CONN
*I *4206:A1 I *D sky130_fd_sc_hd__o221a_1
*I *5017:X O *D sky130_fd_sc_hd__dlygate4sd3_1
*CAP
1 *4206:A1 0
2 *5017:X 0.00024657
3 *890:6 0.00024657
4 *99:10 *890:6 1.94693e-05
*RES
1 *5017:X *890:6 27.4329 
2 *890:6 *4206:A1 23 
*END

*D_NET *891 0.00173934
*CONN
*I *4242:A1 I *D sky130_fd_sc_hd__o221a_1
*I *5018:X O *D sky130_fd_sc_hd__dlygate4sd3_1
*CAP
1 *4242:A1 0.000413926
2 *5018:X 0.000196499
3 *891:10 0.000610424
4 *891:10 *5018:A 5.1614e-06
5 *117:10 *4242:A1 2.10502e-05
6 *779:82 *4242:A1 3.46302e-05
7 *779:92 *891:10 3.6608e-05
8 *848:27 *4242:A1 0.00042104
*RES
1 *5018:X *891:10 40.7757 
2 *891:10 *4242:A1 46.6379 
*END

*D_NET *892 0.000561952
*CONN
*I *4236:A1 I *D sky130_fd_sc_hd__o221a_1
*I *5019:X O *D sky130_fd_sc_hd__dlygate4sd3_1
*CAP
1 *4236:A1 0.000211248
2 *5019:X 0.000211248
3 *845:120 *4236:A1 5.58003e-05
4 *848:44 *4236:A1 8.36547e-05
*RES
1 *5019:X *4236:A1 49.9771 
*END

*D_NET *893 0.00181931
*CONN
*I *4220:A1 I *D sky130_fd_sc_hd__o221a_1
*I *5020:X O *D sky130_fd_sc_hd__dlygate4sd3_1
*CAP
1 *4220:A1 0.000270767
2 *5020:X 8.62996e-05
3 *893:8 0.000357066
4 *4220:A1 *4220:B1 0.000362137
5 *4220:A1 *967:110 0.0002246
6 *4220:A2 *4220:A1 4.5051e-05
7 *837:93 *893:8 7.03869e-05
8 *846:23 *4220:A1 0.000403003
*RES
1 *5020:X *893:8 39.9057 
2 *893:8 *4220:A1 46.2443 
*END

*D_NET *894 0.00150964
*CONN
*I *4248:A1 I *D sky130_fd_sc_hd__o221a_1
*I *5021:X O *D sky130_fd_sc_hd__dlygate4sd3_1
*CAP
1 *4248:A1 0.000161921
2 *5021:X 0.000120884
3 *894:8 0.000282805
4 *4248:A1 *4248:B1 2.93747e-05
5 *4248:A1 *968:23 2.02872e-05
6 *894:8 *956:21 0
7 *4246:C1 *4248:A1 0.000269775
8 *4248:A2 *4248:A1 6.00355e-05
9 *839:114 *4248:A1 0.000564556
*RES
1 *5021:X *894:8 39.9057 
2 *894:8 *4248:A1 44.3593 
*END

*D_NET *895 0.00711219
*CONN
*I *4260:A1 I *D sky130_fd_sc_hd__mux2_1
*I *4166:A1 I *D sky130_fd_sc_hd__mux2_1
*I *5055:X O *D sky130_fd_sc_hd__buf_1
*CAP
1 *4260:A1 0
2 *4166:A1 0
3 *5055:X 0.00137611
4 *895:30 0.000341393
5 *895:20 0.00105316
6 *895:10 0.00208788
7 *895:20 *998:6 0.000401899
8 *895:20 *998:19 0.000356724
9 *895:30 *997:12 0
10 *895:30 *997:23 0.000227208
11 *895:30 *998:19 9.18764e-05
12 *4260:S *895:20 0.000395889
13 *4260:S *895:30 3.46255e-05
14 *4982:A *895:30 7.88828e-05
15 *170:40 *895:10 6.69093e-05
16 *170:55 *895:20 0.000212299
17 *170:55 *895:30 0.000265477
18 *175:8 *895:10 7.59964e-05
19 *175:8 *895:20 9.24795e-06
20 *224:44 *895:20 0
21 *230:10 *895:20 1.01436e-05
22 *786:8 *895:30 0
23 *840:42 *895:10 2.64616e-05
*RES
1 *5055:X *895:10 46.055 
2 *895:10 *895:20 44.355 
3 *895:20 *895:30 38.6171 
4 *895:30 *4166:A1 23 
5 *895:20 *4260:A1 23 
*END

*D_NET *896 0.00100703
*CONN
*I *4234:A1 I *D sky130_fd_sc_hd__o221a_1
*I *5022:X O *D sky130_fd_sc_hd__dlygate4sd3_1
*CAP
1 *4234:A1 0
2 *5022:X 0.00041251
3 *896:10 0.00041251
4 *896:10 *967:68 0.000138727
5 *896:10 *970:58 0
6 *777:125 *896:10 4.21594e-06
7 *837:87 *896:10 3.90707e-05
*RES
1 *5022:X *896:10 44.3386 
2 *896:10 *4234:A1 38 
*END

*D_NET *897 0.00116951
*CONN
*I *4240:A1 I *D sky130_fd_sc_hd__o221a_1
*I *5023:X O *D sky130_fd_sc_hd__dlygate4sd3_1
*CAP
1 *4240:A1 6.62578e-05
2 *5023:X 0.000290597
3 *897:10 0.000356855
4 *4240:A1 *4240:B1 0
5 *4240:A1 *968:80 0.000151674
6 *4240:A1 *970:108 2.4754e-05
7 *4240:A1 *970:125 1.21972e-05
8 *4240:C1 *897:10 2.96369e-05
9 *4873:CLK *897:10 0.000148698
10 *837:38 *4240:A1 5.67058e-05
11 *837:38 *897:10 3.21327e-05
*RES
1 *5023:X *897:10 42.5571 
2 *897:10 *4240:A1 40.0714 
*END

*D_NET *898 0.000504373
*CONN
*I *4210:A1 I *D sky130_fd_sc_hd__o221a_1
*I *5024:X O *D sky130_fd_sc_hd__dlygate4sd3_1
*CAP
1 *4210:A1 0.000183905
2 *5024:X 0.000183905
3 *4210:A1 *4210:B1 5.76696e-05
4 *778:67 *4210:A1 7.88926e-05
*RES
1 *5024:X *4210:A1 49.5007 
*END

*D_NET *899 0.000267905
*CONN
*I *4246:A1 I *D sky130_fd_sc_hd__o221a_1
*I *5025:X O *D sky130_fd_sc_hd__dlygate4sd3_1
*CAP
1 *4246:A1 2.1227e-05
2 *5025:X 2.1227e-05
3 *4246:A1 *968:40 0.000143655
4 *839:131 *4246:A1 8.1796e-05
*RES
1 *5025:X *4246:A1 47.5743 
*END

*D_NET *900 0.00106295
*CONN
*I *4208:A1 I *D sky130_fd_sc_hd__o221a_1
*I *5026:X O *D sky130_fd_sc_hd__dlygate4sd3_1
*CAP
1 *4208:A1 0
2 *5026:X 0.000400721
3 *900:10 0.000400721
4 *900:10 *971:117 0.000222665
5 *181:119 *900:10 0
6 *203:10 *900:10 3.884e-05
*RES
1 *5026:X *900:10 44.3386 
2 *900:10 *4208:A1 38 
*END

*D_NET *901 0.001218
*CONN
*I *4204:A1 I *D sky130_fd_sc_hd__o221a_1
*I *5027:X O *D sky130_fd_sc_hd__dlygate4sd3_1
*CAP
1 *4204:A1 0
2 *5027:X 0.00038376
3 *901:10 0.00038376
4 *901:10 *966:84 0.00040561
5 *901:10 *971:70 4.48671e-05
*RES
1 *5027:X *901:10 44.3386 
2 *901:10 *4204:A1 38 
*END

*D_NET *902 0.000492794
*CONN
*I *4197:A1 I *D sky130_fd_sc_hd__o211a_1
*I *5028:X O *D sky130_fd_sc_hd__dlygate4sd3_1
*CAP
1 *4197:A1 0.000110208
2 *5028:X 0.000110208
3 *843:129 *4197:A1 0.000272377
*RES
1 *5028:X *4197:A1 49.0036 
*END

*D_NET *903 0.000378731
*CONN
*I *4456:A2 I *D sky130_fd_sc_hd__o211a_1
*I *5029:X O *D sky130_fd_sc_hd__dlygate4sd3_1
*CAP
1 *4456:A2 0.000120402
2 *5029:X 0.000120402
3 *4456:C1 *4456:A2 5.67058e-05
4 *832:14 *4456:A2 8.12205e-05
*RES
1 *5029:X *4456:A2 48.5479 
*END

*D_NET *904 0.00108646
*CONN
*I *4545:A2 I *D sky130_fd_sc_hd__o211a_1
*I *5030:X O *D sky130_fd_sc_hd__dlygate4sd3_1
*CAP
1 *4545:A2 0
2 *5030:X 0.000458856
3 *904:10 0.000458856
4 *845:57 *904:10 0.000168744
*RES
1 *5030:X *904:10 44.6907 
2 *904:10 *4545:A2 38 
*END

*D_NET *905 0.00138274
*CONN
*I *4713:A2 I *D sky130_fd_sc_hd__o211a_1
*I *5031:X O *D sky130_fd_sc_hd__dlygate4sd3_1
*CAP
1 *4713:A2 0.000317298
2 *5031:X 0.000111662
3 *905:8 0.00042896
4 *4713:A2 *4713:A1 4.37033e-05
5 *905:8 *971:87 0
6 *849:43 *4713:A2 3.91386e-05
7 *849:102 *4713:A2 0.000441978
*RES
1 *5031:X *905:8 39.5536 
2 *905:8 *4713:A2 45.7886 
*END

*D_NET *906 0.00472727
*CONN
*I *4168:A1 I *D sky130_fd_sc_hd__mux2_1
*I *4262:A1 I *D sky130_fd_sc_hd__mux2_1
*I *5056:X O *D sky130_fd_sc_hd__clkbuf_1
*CAP
1 *4168:A1 0.000447674
2 *4262:A1 5.82195e-05
3 *5056:X 0.000298897
4 *906:10 0.00157901
5 *906:8 0.00137201
6 *4168:A1 *4979:A 0.00010018
7 *4168:A1 *977:12 0
8 *906:10 *976:14 0.000110267
9 *4168:S *4168:A1 0.000226306
10 *4977:A *4168:A1 6.69016e-05
11 *5056:A *906:8 1.94812e-05
12 *170:59 *4168:A1 0
13 *224:62 *4168:A1 0
14 *231:8 *906:10 3.28687e-05
15 *774:113 *4262:A1 0.000100477
16 *774:119 *4168:A1 0.000314975
17 *796:10 *4168:A1 0
*RES
1 *5056:X *906:8 41.9564 
2 *906:8 *906:10 21.2736 
3 *906:10 *4262:A1 39.0979 
4 *906:10 *4168:A1 49.4757 
*END

*D_NET *907 0.00075743
*CONN
*I *4278:A2 I *D sky130_fd_sc_hd__o211a_1
*I *5032:X O *D sky130_fd_sc_hd__dlygate4sd3_1
*CAP
1 *4278:A2 0
2 *5032:X 0.000141052
3 *907:10 0.000141052
4 *907:10 *972:51 0
5 *907:10 *1010:52 0.000168754
6 *182:49 *907:10 0.000100733
7 *808:8 *907:10 0.000141954
8 *841:18 *907:10 5.24393e-05
9 *841:22 *907:10 1.14452e-05
*RES
1 *5032:X *907:10 42.3086 
2 *907:10 *4278:A2 38 
*END

*D_NET *908 0.00144178
*CONN
*I *4293:A2 I *D sky130_fd_sc_hd__o211a_1
*I *5033:X O *D sky130_fd_sc_hd__dlygate4sd3_1
*CAP
1 *4293:A2 0
2 *5033:X 0.000368483
3 *908:10 0.000368483
4 *4185:C1 *908:10 6.25829e-05
5 *4848:CLK *908:10 0.000191148
6 *775:26 *908:10 0.000157299
7 *843:50 *908:10 0.000293785
*RES
1 *5033:X *908:10 45.25 
2 *908:10 *4293:A2 38 
*END

*D_NET *909 0.0014542
*CONN
*I *4313:A2 I *D sky130_fd_sc_hd__o211a_1
*I *5034:X O *D sky130_fd_sc_hd__dlygate4sd3_1
*CAP
1 *4313:A2 0.000414996
2 *5034:X 7.86745e-05
3 *909:8 0.000493671
4 *4313:A2 *4313:A1 0.000227446
5 *4313:B1 *4313:A2 4.344e-05
6 *4313:C1 *4313:A2 5.40876e-05
7 *192:12 *909:8 0
8 *844:18 *909:8 0.000141888
*RES
1 *5034:X *909:8 39.9057 
2 *909:8 *4313:A2 45.7886 
*END

*D_NET *910 0.000984174
*CONN
*I *4815:A2 I *D sky130_fd_sc_hd__o211a_1
*I *5035:X O *D sky130_fd_sc_hd__dlygate4sd3_1
*CAP
1 *4815:A2 0.000276907
2 *5035:X 6.59566e-05
3 *910:8 0.000342864
4 *910:8 *970:100 5.31444e-05
5 *4815:A1 *4815:A2 3.38098e-05
6 *4815:B1 *4815:A2 5.50049e-05
7 *753:8 *4815:A2 0.000100857
8 *849:12 *910:8 5.56306e-05
*RES
1 *5035:X *910:8 39.5536 
2 *910:8 *4815:A2 42.93 
*END

*D_NET *911 0.00110513
*CONN
*I *4799:A2 I *D sky130_fd_sc_hd__o211a_1
*I *5036:X O *D sky130_fd_sc_hd__dlygate4sd3_1
*CAP
1 *4799:A2 0.000241141
2 *5036:X 9.13545e-05
3 *911:8 0.000332495
4 *4799:B1 *4799:A2 1.14154e-05
5 *200:10 *911:8 7.03869e-05
6 *832:121 *4799:A2 0.00026193
7 *832:121 *911:8 0
8 *845:88 *4799:A2 2.93747e-05
9 *845:103 *4799:A2 6.70361e-05
*RES
1 *5036:X *911:8 39.9057 
2 *911:8 *4799:A2 43.4064 
*END

*D_NET *912 0.00133197
*CONN
*I *4371:A2 I *D sky130_fd_sc_hd__o211a_1
*I *5037:X O *D sky130_fd_sc_hd__dlygate4sd3_1
*CAP
1 *4371:A2 0.000353182
2 *5037:X 0.000106783
3 *912:8 0.000459964
4 *4371:A2 *1010:131 7.06229e-05
5 *4371:A2 *1010:142 0.00019414
6 *4371:C1 *4371:A2 5.65874e-05
7 *134:10 *4371:A2 5.25848e-05
8 *824:10 *912:8 3.81081e-05
*RES
1 *5037:X *912:8 39.9057 
2 *912:8 *4371:A2 46.7414 
*END

*D_NET *913 0.000794819
*CONN
*I *4621:A2 I *D sky130_fd_sc_hd__o211a_1
*I *5038:X O *D sky130_fd_sc_hd__dlygate4sd3_1
*CAP
1 *4621:A2 0
2 *5038:X 0.000322052
3 *913:8 0.000322052
4 *4619:A *913:8 1.4345e-05
5 *4621:B1 *913:8 1.14154e-05
6 *140:10 *913:8 5.50049e-05
7 *849:39 *913:8 6.99492e-05
*RES
1 *5038:X *913:8 28.4064 
2 *913:8 *4621:A2 23 
*END

*D_NET *914 0.00142319
*CONN
*I *4411:A2 I *D sky130_fd_sc_hd__o211a_1
*I *5039:X O *D sky130_fd_sc_hd__dlygate4sd3_1
*CAP
1 *4411:A2 9.81802e-05
2 *5039:X 9.84168e-05
3 *914:8 0.000196597
4 *4411:A2 *4411:A1 1.14154e-05
5 *4411:A2 *4820:A1 0.000279828
6 *4411:A2 *1009:80 3.22879e-05
7 *914:8 *1002:44 0
8 *914:8 *1010:146 0.000135557
9 *844:75 *4411:A2 0.000570905
*RES
1 *5039:X *914:8 39.9057 
2 *914:8 *4411:A2 44.3593 
*END

*D_NET *915 0.00143412
*CONN
*I *4750:A2 I *D sky130_fd_sc_hd__o211a_1
*I *5040:X O *D sky130_fd_sc_hd__dlygate4sd3_1
*CAP
1 *4750:A2 0
2 *5040:X 0.000356232
3 *915:10 0.000356232
4 *915:10 *970:33 0.000441972
5 *4750:B1 *915:10 0.000140958
6 *777:78 *915:10 0.000138727
*RES
1 *5040:X *915:10 44.815 
2 *915:10 *4750:A2 38 
*END

*D_NET *916 0.00163738
*CONN
*I *4725:A2 I *D sky130_fd_sc_hd__o221a_1
*I *5041:X O *D sky130_fd_sc_hd__dlygate4sd3_1
*CAP
1 *4725:A2 0
2 *5041:X 0.000673353
3 *916:10 0.000673353
4 *4901:CLK *916:10 0
5 *675:8 *916:10 3.70094e-05
6 *778:25 *916:10 0.00025366
*RES
1 *5041:X *916:10 48.0257 
2 *916:10 *4725:A2 38 
*END

*D_NET *917 0.00401117
*CONN
*I *4170:A1 I *D sky130_fd_sc_hd__mux2_1
*I *4264:A1 I *D sky130_fd_sc_hd__mux2_1
*I *5057:X O *D sky130_fd_sc_hd__clkbuf_1
*CAP
1 *4170:A1 0
2 *4264:A1 0
3 *5057:X 0.000192172
4 *917:25 0.000460048
5 *917:10 0.00141574
6 *917:8 0.00114786
7 *917:25 *4170:A0 1.39431e-05
8 *917:25 *975:12 0.000200389
9 *917:25 *975:101 0.000183898
10 *4168:S *917:25 3.91386e-05
11 *4171:B *917:25 0
12 *5057:A *917:8 1.94812e-05
13 *224:62 *917:10 1.13812e-05
14 *224:62 *917:25 0.000241988
15 *796:10 *917:25 8.51329e-05
*RES
1 *5057:X *917:8 40.5271 
2 *917:8 *917:10 18.8086 
3 *917:10 *4264:A1 38 
4 *917:10 *917:25 27.18 
5 *917:25 *4170:A1 23 
*END

*D_NET *918 0.000592975
*CONN
*I *4786:A2 I *D sky130_fd_sc_hd__o211a_1
*I *5042:X O *D sky130_fd_sc_hd__dlygate4sd3_1
*CAP
1 *4786:A2 0
2 *5042:X 0.000228624
3 *918:8 0.000228624
4 *813:12 *918:8 0.000135726
*RES
1 *5042:X *918:8 27.4536 
2 *918:8 *4786:A2 23 
*END

*D_NET *919 0.00158746
*CONN
*I *4760:A2 I *D sky130_fd_sc_hd__o211a_1
*I *5043:X O *D sky130_fd_sc_hd__dlygate4sd3_1
*CAP
1 *4760:A2 0
2 *5043:X 0.00045776
3 *919:10 0.00045776
4 *833:74 *919:10 0
5 *847:49 *919:10 0.000671938
*RES
1 *5043:X *919:10 45.7679 
2 *919:10 *4760:A2 38 
*END

*D_NET *920 0.000988011
*CONN
*I *4830:B I *D sky130_fd_sc_hd__nor2_1
*I *5044:X O *D sky130_fd_sc_hd__dlygate4sd3_1
*CAP
1 *4830:B 0
2 *5044:X 0.000159917
3 *920:8 0.000159917
4 *820:16 *920:8 0.000224345
5 *820:36 *920:8 0.000150977
6 *839:131 *920:8 0.000292856
*RES
1 *5044:X *920:8 43.075 
2 *920:8 *4830:B 38 
*END

*D_NET *921 0.00170413
*CONN
*I *4819:B I *D sky130_fd_sc_hd__nor2_1
*I *5045:X O *D sky130_fd_sc_hd__dlygate4sd3_1
*CAP
1 *4819:B 0.000242781
2 *5045:X 7.33653e-05
3 *921:8 0.000316146
4 *4819:A *4819:B 0.000529132
5 *4915:D *4819:B 1.64354e-05
6 *4938:A *921:8 5.00543e-05
7 *757:10 *4819:B 3.94906e-05
8 *779:39 *4819:B 5.50049e-05
9 *818:8 *4819:B 5.37348e-06
10 *818:12 *921:8 5.00543e-05
11 *835:27 *4819:B 0.000213069
12 *836:29 *4819:B 0.000113225
*RES
1 *5045:X *921:8 39.5536 
2 *921:8 *4819:B 46.265 
*END

*D_NET *922 0.000167848
*CONN
*I *4803:B I *D sky130_fd_sc_hd__nor2_1
*I *5046:X O *D sky130_fd_sc_hd__dlygate4sd3_1
*CAP
1 *4803:B 3.38339e-05
2 *5046:X 3.38339e-05
3 *742:10 *4803:B 0.00010018
*RES
1 *5046:X *4803:B 47.0979 
*END

*D_NET *923 6.69045e-05
*CONN
*I *4835:A I *D sky130_fd_sc_hd__nor2_1
*I *5047:X O *D sky130_fd_sc_hd__dlygate4sd3_1
*CAP
1 *4835:A 3.34522e-05
2 *5047:X 3.34522e-05
*RES
1 *5047:X *4835:A 46.6214 
*END

*D_NET *924 0.00327936
*CONN
*I *4249:B I *D sky130_fd_sc_hd__and3_4
*I *4155:B I *D sky130_fd_sc_hd__and3_4
*I *4148:C I *D sky130_fd_sc_hd__and3_1
*I *4175:A_N I *D sky130_fd_sc_hd__nand2b_4
*I *4174:A_N I *D sky130_fd_sc_hd__and2b_4
*I *5058:X O *D sky130_fd_sc_hd__buf_1
*CAP
1 *4249:B 0.000230921
2 *4155:B 0
3 *4148:C 0.000125259
4 *4175:A_N 0
5 *4174:A_N 0
6 *5058:X 0.000241016
7 *924:32 0.000277352
8 *924:26 0.00047013
9 *924:17 0.000224697
10 *924:8 0.000378597
11 *4174:B *924:8 2.93845e-05
12 *4249:A *4249:B 0.000187129
13 *182:10 *4249:B 4.6595e-05
14 *831:18 *4148:C 0.000135032
15 *831:33 *4148:C 1.76557e-05
16 *831:33 *4249:B 0.000216471
17 *831:33 *924:26 5.3304e-05
18 *831:33 *924:32 0.000195248
19 *842:17 *4148:C 0.000420892
20 *844:35 *924:32 2.96805e-05
*RES
1 *5058:X *924:8 26.9771 
2 *924:8 *4174:A_N 23 
3 *924:8 *924:17 2.54786 
4 *924:17 *4175:A_N 23 
5 *924:17 *924:26 1.595 
6 *924:26 *924:32 33.6664 
7 *924:32 *4148:C 28.3857 
8 *924:32 *4155:B 23 
9 *924:26 *4249:B 28.3857 
*END

*D_NET *925 0.00194203
*CONN
*I *4149:A I *D sky130_fd_sc_hd__or4b_1
*I *4172:A I *D sky130_fd_sc_hd__or3b_2
*I *4154:A I *D sky130_fd_sc_hd__nor4_1
*I *5059:X O *D sky130_fd_sc_hd__clkbuf_1
*CAP
1 *4149:A 0
2 *4172:A 0.000176461
3 *4154:A 0
4 *5059:X 0
5 *925:23 0.000593432
6 *925:12 0.000160608
7 *925:4 0.00057758
8 *4172:A *4172:C_N 0.00010018
9 *4172:A *5096:A 9.84794e-05
10 *4:17 *925:12 6.17437e-06
11 *164:10 *4172:A 0
12 *168:8 *4172:A 0
13 *168:8 *925:23 0
14 *169:10 *4172:A 0.000111852
15 *179:10 *4172:A 0
16 *830:8 *925:12 5.561e-05
17 *830:8 *925:23 0
18 *839:62 *4172:A 6.16531e-05
*RES
1 *5059:X *925:4 23 
2 *925:4 *925:12 32.6514 
3 *925:12 *4154:A 23 
4 *925:4 *925:23 20.8621 
5 *925:23 *4172:A 42.4121 
6 *925:23 *4149:A 38 
*END

*D_NET *926 0.000947393
*CONN
*I *4997:A I *D sky130_fd_sc_hd__dlygate4sd3_1
*I *5069:A I *D sky130_fd_sc_hd__buf_2
*I *4846:Q O *D sky130_fd_sc_hd__dfxtp_1
*CAP
1 *4997:A 0.000219206
2 *5069:A 0
3 *4846:Q 0.000232787
4 *926:12 0.000219206
5 *926:10 0.000232787
6 *164:10 *926:10 4.3407e-05
*RES
1 *4846:Q *926:10 41.48 
2 *926:10 *926:12 15 
3 *926:12 *5069:A 23 
4 *926:12 *4997:A 26.48 
*END

*D_NET *927 0.00181914
*CONN
*I *5017:A I *D sky130_fd_sc_hd__dlygate4sd3_1
*I *5070:A I *D sky130_fd_sc_hd__buf_2
*I *4856:Q O *D sky130_fd_sc_hd__dfxtp_1
*CAP
1 *5017:A 0.000219283
2 *5070:A 0.000292058
3 *4856:Q 0
4 *927:6 0.000511341
5 *5070:A *5008:A 6.67264e-05
6 *5070:A *5074:A 0.000130353
7 *5070:A *930:20 0
8 *13:10 *5017:A 5.31385e-05
9 *13:10 *5070:A 0.000520221
10 *14:10 *5070:A 2.60152e-05
*RES
1 *4856:Q *927:6 38 
2 *927:6 *5070:A 46.6379 
3 *927:6 *5017:A 42.2879 
*END

*D_NET *928 0.00262194
*CONN
*I *5026:A I *D sky130_fd_sc_hd__dlygate4sd3_1
*I *5071:A I *D sky130_fd_sc_hd__buf_2
*I *4857:Q O *D sky130_fd_sc_hd__dfxtp_1
*CAP
1 *5026:A 0.000270056
2 *5071:A 0
3 *4857:Q 0
4 *928:16 0.000948653
5 *928:6 0.00121871
6 *5026:A *971:91 0
7 *928:16 *930:8 5.61311e-05
8 *928:16 *930:20 0.000128391
9 *928:16 *971:91 0
10 *887:8 *928:16 0
*RES
1 *4857:Q *928:6 38 
2 *928:6 *928:16 46.4471 
3 *928:16 *5071:A 38 
4 *928:6 *5026:A 42.7643 
*END

*D_NET *929 0.00104011
*CONN
*I *5072:A I *D sky130_fd_sc_hd__buf_2
*I *5024:A I *D sky130_fd_sc_hd__dlygate4sd3_1
*I *4858:Q O *D sky130_fd_sc_hd__dfxtp_1
*CAP
1 *5072:A 0.000352726
2 *5024:A 0
3 *4858:Q 0
4 *929:12 0.00016733
5 *929:4 0.000520056
6 *102:10 *929:12 0
7 *778:67 *929:12 0
*RES
1 *4858:Q *929:4 23 
2 *929:4 *929:12 32.5271 
3 *929:12 *5024:A 23 
4 *929:4 *5072:A 29.7114 
*END

*D_NET *930 0.00160527
*CONN
*I *5014:A I *D sky130_fd_sc_hd__dlygate4sd3_1
*I *5073:A I *D sky130_fd_sc_hd__buf_2
*I *4859:Q O *D sky130_fd_sc_hd__dfxtp_1
*CAP
1 *5014:A 0
2 *5073:A 0
3 *4859:Q 0.00019861
4 *930:20 0.000295395
5 *930:12 0.000334164
6 *930:8 0.00023738
7 rdata[13] *930:20 6.16635e-05
8 *5070:A *930:20 0
9 *14:10 *930:8 0.000165964
10 *14:10 *930:20 0
11 *15:8 *930:8 0.000127573
12 *849:121 *930:20 0
13 *928:16 *930:8 5.61311e-05
14 *928:16 *930:20 0.000128391
*RES
1 *4859:Q *930:8 43.075 
2 *930:8 *930:12 15.6214 
3 *930:12 *930:20 36.4421 
4 *930:20 *5073:A 23 
5 *930:12 *5014:A 23 
*END

*D_NET *931 0.000974332
*CONN
*I *5008:A I *D sky130_fd_sc_hd__dlygate4sd3_1
*I *5074:A I *D sky130_fd_sc_hd__buf_2
*I *4860:Q O *D sky130_fd_sc_hd__dfxtp_1
*CAP
1 *5008:A 7.84407e-05
2 *5074:A 0.000238492
3 *4860:Q 0
4 *931:6 0.000316933
5 *5070:A *5008:A 6.67264e-05
6 *5070:A *5074:A 0.000130353
7 *17:10 *5008:A 2.62661e-05
8 *17:10 *5074:A 0.000117121
*RES
1 *4860:Q *931:6 38 
2 *931:6 *5074:A 44.0071 
3 *931:6 *5008:A 39.9057 
*END

*D_NET *932 0.000771246
*CONN
*I *5075:A I *D sky130_fd_sc_hd__buf_2
*I *5016:A I *D sky130_fd_sc_hd__dlygate4sd3_1
*I *4861:Q O *D sky130_fd_sc_hd__dfxtp_1
*CAP
1 *5075:A 0.000209722
2 *5016:A 0
3 *4861:Q 0.000175901
4 *932:10 0.000385623
5 rdata[15] *5075:A 0
*RES
1 *4861:Q *932:10 40.8793 
2 *932:10 *5016:A 38 
3 *932:10 *5075:A 41.7079 
*END

*D_NET *933 0.00119631
*CONN
*I *5007:A I *D sky130_fd_sc_hd__dlygate4sd3_1
*I *5076:A I *D sky130_fd_sc_hd__buf_2
*I *4862:Q O *D sky130_fd_sc_hd__dfxtp_1
*CAP
1 *5007:A 0
2 *5076:A 0.000200312
3 *4862:Q 0.0003817
4 *933:10 0.000582011
5 *879:10 *5076:A 3.22879e-05
*RES
1 *4862:Q *933:10 29.96 
2 *933:10 *5076:A 26.9564 
3 *933:10 *5007:A 23 
*END

*D_NET *934 0.000976745
*CONN
*I *5077:A I *D sky130_fd_sc_hd__buf_2
*I *5020:A I *D sky130_fd_sc_hd__dlygate4sd3_1
*I *4863:Q O *D sky130_fd_sc_hd__dfxtp_1
*CAP
1 *5077:A 0.000258771
2 *5020:A 0
3 *4863:Q 0.000229601
4 *934:8 0.000488372
*RES
1 *4863:Q *934:8 26.9771 
2 *934:8 *5020:A 23 
3 *934:8 *5077:A 27.93 
*END

*D_NET *935 0.00073665
*CONN
*I *5078:A I *D sky130_fd_sc_hd__buf_2
*I *5015:A I *D sky130_fd_sc_hd__dlygate4sd3_1
*I *4864:Q O *D sky130_fd_sc_hd__dfxtp_1
*CAP
1 *5078:A 0.000197858
2 *5015:A 0
3 *4864:Q 0.000156732
4 *935:10 0.00035459
5 rdata[18] *5078:A 1.88491e-05
6 rdata[9] *935:10 8.62073e-06
7 *888:8 *5078:A 0
*RES
1 *4864:Q *935:10 40.5271 
2 *935:10 *5015:A 38 
3 *935:10 *5078:A 41.5836 
*END

*D_NET *936 0.00208658
*CONN
*I *4149:C I *D sky130_fd_sc_hd__or4b_1
*I *4154:C I *D sky130_fd_sc_hd__nor4_1
*I *4172:C_N I *D sky130_fd_sc_hd__or3b_2
*I *5060:X O *D sky130_fd_sc_hd__clkbuf_1
*CAP
1 *4149:C 0.00018424
2 *4154:C 0
3 *4172:C_N 0.000241852
4 *5060:X 9.68976e-05
5 *936:21 0.000349066
6 *936:8 0.000503576
7 *4172:C_N *5096:A 0.000164364
8 *4149:D_N *4149:C 5.50049e-05
9 *4154:D *4149:C 7.27182e-05
10 *4172:A *4172:C_N 0.00010018
11 *164:10 *4149:C 6.12496e-06
12 *164:10 *936:8 0
13 *164:10 *936:21 0
14 *169:10 *4149:C 0.000184527
15 *179:10 *4172:C_N 9.75779e-05
16 *830:25 *4149:C 3.04516e-05
*RES
1 *5060:X *936:8 39.5536 
2 *936:8 *4172:C_N 43.4064 
3 *936:8 *936:21 2.61 
4 *936:21 *4154:C 38 
5 *936:21 *4149:C 42.1429 
*END

*D_NET *937 0.000897228
*CONN
*I *5079:A I *D sky130_fd_sc_hd__buf_2
*I *5005:A I *D sky130_fd_sc_hd__dlygate4sd3_1
*I *4865:Q O *D sky130_fd_sc_hd__dfxtp_1
*CAP
1 *5079:A 0.000113803
2 *5005:A 0.000191498
3 *4865:Q 0.000125693
4 *937:8 0.000430994
5 rdata[19] *5079:A 3.52397e-05
6 *877:8 *5005:A 0
*RES
1 *4865:Q *937:8 39.5743 
2 *937:8 *5005:A 41.6664 
3 *937:8 *5079:A 40.2579 
*END

*D_NET *938 0.001541
*CONN
*I *4998:A I *D sky130_fd_sc_hd__dlygate4sd3_1
*I *5080:A I *D sky130_fd_sc_hd__buf_2
*I *4847:Q O *D sky130_fd_sc_hd__dfxtp_1
*CAP
1 *4998:A 0
2 *5080:A 0
3 *4847:Q 0.00012572
4 *938:25 0.000356768
5 *938:12 0.000163411
6 *938:6 0.000645899
7 rdata[1] *938:12 0
8 *164:10 *938:12 0.000107325
9 *164:10 *938:25 0
10 *839:40 *938:25 0.000141879
*RES
1 *4847:Q *938:6 24.5743 
2 *938:6 *938:12 34.0186 
3 *938:12 *5080:A 23 
4 *938:6 *938:25 35.3857 
5 *938:25 *4998:A 23 
*END

*D_NET *939 0.00118936
*CONN
*I *5003:A I *D sky130_fd_sc_hd__dlygate4sd3_1
*I *5081:A I *D sky130_fd_sc_hd__buf_2
*I *4866:Q O *D sky130_fd_sc_hd__dfxtp_1
*CAP
1 *5003:A 0
2 *5081:A 0.000212979
3 *4866:Q 0.0003817
4 *939:10 0.000594679
*RES
1 *4866:Q *939:10 29.96 
2 *939:10 *5081:A 26.9564 
3 *939:10 *5003:A 23 
*END

*D_NET *940 0.000767723
*CONN
*I *5004:A I *D sky130_fd_sc_hd__dlygate4sd3_1
*I *5082:A I *D sky130_fd_sc_hd__buf_2
*I *4867:Q O *D sky130_fd_sc_hd__dfxtp_1
*CAP
1 *5004:A 0.000134895
2 *5082:A 0.00010087
3 *4867:Q 0.000103836
4 *940:8 0.000339602
5 *25:10 *940:8 8.85189e-05
6 *876:8 *5004:A 0
7 *876:8 *940:8 0
*RES
1 *4867:Q *940:8 40.2579 
2 *940:8 *5082:A 39.5743 
3 *940:8 *5004:A 40.61 
*END

*D_NET *941 0.000386895
*CONN
*I *5083:A I *D sky130_fd_sc_hd__buf_2
*I *5006:A I *D sky130_fd_sc_hd__dlygate4sd3_1
*I *4868:Q O *D sky130_fd_sc_hd__dfxtp_1
*CAP
1 *5083:A 0
2 *5006:A 3.34522e-05
3 *4868:Q 9.96246e-05
4 *941:12 6.75745e-05
5 *941:8 0.000133747
6 rdata[22] *941:8 5.2497e-05
7 *878:8 *941:8 0
*RES
1 *4868:Q *941:8 39.9057 
2 *941:8 *941:12 15.6214 
3 *941:12 *5006:A 23.6214 
4 *941:12 *5083:A 23 
*END

*D_NET *942 0.00135346
*CONN
*I *5084:A I *D sky130_fd_sc_hd__buf_2
*I *5009:A I *D sky130_fd_sc_hd__dlygate4sd3_1
*I *4869:Q O *D sky130_fd_sc_hd__dfxtp_1
*CAP
1 *5084:A 0.00024814
2 *5009:A 0.000218499
3 *4869:Q 0.000168572
4 *942:8 0.000635211
5 *942:8 *967:62 8.30371e-05
*RES
1 *4869:Q *942:8 40.5271 
2 *942:8 *5009:A 41.6664 
3 *942:8 *5084:A 42.7229 
*END

*D_NET *943 0.00210872
*CONN
*I *5085:A I *D sky130_fd_sc_hd__buf_2
*I *5022:A I *D sky130_fd_sc_hd__dlygate4sd3_1
*I *4870:Q O *D sky130_fd_sc_hd__dfxtp_1
*CAP
1 *5085:A 0.000855162
2 *5022:A 0
3 *4870:Q 0
4 *943:12 0.000196113
5 *943:4 0.00105127
6 *943:12 *967:87 6.17437e-06
7 *943:12 *970:58 0
*RES
1 *4870:Q *943:4 23 
2 *943:4 *943:12 33.0036 
3 *943:12 *5022:A 23 
4 *943:4 *5085:A 34.4757 
*END

*D_NET *944 0.00308258
*CONN
*I *5086:A I *D sky130_fd_sc_hd__buf_2
*I *5019:A I *D sky130_fd_sc_hd__dlygate4sd3_1
*I *4871:Q O *D sky130_fd_sc_hd__dfxtp_1
*CAP
1 *5086:A 0.000308735
2 *5019:A 0
3 *4871:Q 0.000295349
4 *944:18 0.000326867
5 *944:8 0.000930951
6 *5086:A *968:136 0.000154667
7 *944:18 *967:22 8.57577e-05
8 *944:18 *968:136 0.000114237
9 rdata[8] *5086:A 1.51481e-05
10 *4202:B2 *944:18 5.3304e-05
11 *4872:CLK *944:8 0.000399339
12 *4872:CLK *944:18 3.65917e-05
13 *29:12 *5086:A 2.82035e-05
14 *42:10 *5086:A 9.79925e-05
15 *200:10 *944:18 0.000134767
16 *779:158 *944:8 7.50355e-05
17 *837:64 *944:18 2.56377e-05
*RES
1 *4871:Q *944:8 43.8621 
2 *944:8 *944:18 35.51 
3 *944:18 *5019:A 38 
4 *944:8 *5086:A 44.6493 
*END

*D_NET *945 0.0014226
*CONN
*I *5013:A I *D sky130_fd_sc_hd__dlygate4sd3_1
*I *5087:A I *D sky130_fd_sc_hd__buf_2
*I *4872:Q O *D sky130_fd_sc_hd__dfxtp_1
*CAP
1 *5013:A 0.00026034
2 *5087:A 0
3 *4872:Q 0
4 *945:12 0.00039202
5 *945:4 0.00065236
6 *5013:A *967:41 0.000117881
*RES
1 *4872:Q *945:4 23 
2 *945:4 *945:12 37.25 
3 *945:12 *5087:A 23 
4 *945:4 *5013:A 27.3293 
*END

*D_NET *946 0.00219697
*CONN
*I *5023:A I *D sky130_fd_sc_hd__dlygate4sd3_1
*I *5088:A I *D sky130_fd_sc_hd__buf_2
*I *4873:Q O *D sky130_fd_sc_hd__dfxtp_1
*CAP
1 *5023:A 0.000173531
2 *5088:A 0
3 *4873:Q 0
4 *946:12 0.000679682
5 *946:4 0.000853213
6 rdata[28] *946:12 2.05505e-05
7 *4240:C1 *946:12 2.8888e-05
8 *4873:CLK *5023:A 0.000274078
9 *4873:CLK *946:12 8.2832e-05
10 *837:38 *946:12 2.3696e-05
11 *848:27 *946:12 6.04946e-05
*RES
1 *4873:Q *946:4 23 
2 *946:4 *946:12 42.8843 
3 *946:12 *5088:A 23 
4 *946:4 *5023:A 27.3293 
*END

*D_NET *947 0.00118787
*CONN
*I *4153:A I *D sky130_fd_sc_hd__or2_1
*I *4146:A I *D sky130_fd_sc_hd__inv_2
*I *5061:X O *D sky130_fd_sc_hd__clkbuf_1
*CAP
1 *4153:A 0.000307034
2 *4146:A 4.01155e-05
3 *5061:X 8.19772e-05
4 *947:6 0.000429127
5 *4151:A *4153:A 4.95081e-05
6 *4153:B *4153:A 0.000230604
7 *167:6 *4153:A 4.95081e-05
*RES
1 *5061:X *947:6 24.0979 
2 *947:6 *4146:A 23.8493 
3 *947:6 *4153:A 28.4064 
*END

*D_NET *948 0.00100334
*CONN
*I *5018:A I *D sky130_fd_sc_hd__dlygate4sd3_1
*I *5089:A I *D sky130_fd_sc_hd__buf_2
*I *4874:Q O *D sky130_fd_sc_hd__dfxtp_1
*CAP
1 *5018:A 0.000297377
2 *5089:A 0
3 *4874:Q 0
4 *948:12 0.000201713
5 *948:4 0.000499089
6 *891:10 *5018:A 5.1614e-06
*RES
1 *4874:Q *948:4 23 
2 *948:4 *948:12 33.48 
3 *948:12 *5089:A 23 
4 *948:4 *5018:A 27.3293 
*END

*D_NET *949 0.00133643
*CONN
*I *5090:A I *D sky130_fd_sc_hd__buf_2
*I *5011:A I *D sky130_fd_sc_hd__dlygate4sd3_1
*I *4875:Q O *D sky130_fd_sc_hd__dfxtp_1
*CAP
1 *5090:A 0.00028337
2 *5011:A 0
3 *4875:Q 0.000332294
4 *949:14 0.000615664
5 rdata[29] *5090:A 3.13857e-05
6 *33:8 *5090:A 5.45644e-05
7 *883:10 *949:14 1.91473e-05
*RES
1 *4875:Q *949:14 43.5514 
2 *949:14 *5011:A 38 
3 *949:14 *5090:A 43.6136 
*END

*D_NET *950 0.00145171
*CONN
*I *5091:A I *D sky130_fd_sc_hd__buf_2
*I *5000:A I *D sky130_fd_sc_hd__dlygate4sd3_1
*I *4848:Q O *D sky130_fd_sc_hd__dfxtp_1
*CAP
1 *5091:A 0.000262664
2 *5000:A 0.000145008
3 *4848:Q 0.000254395
4 *950:8 0.000662067
5 rdata[2] *5091:A 0.00012758
6 *164:10 *5091:A 0
7 *164:10 *950:8 0
*RES
1 *4848:Q *950:8 42.7229 
2 *950:8 *5000:A 40.5271 
3 *950:8 *5091:A 42.8886 
*END

*D_NET *951 0.00231114
*CONN
*I *5092:A I *D sky130_fd_sc_hd__buf_2
*I *5025:A I *D sky130_fd_sc_hd__dlygate4sd3_1
*I *4876:Q O *D sky130_fd_sc_hd__dfxtp_1
*CAP
1 *5092:A 0
2 *5025:A 0.000254048
3 *4876:Q 5.21236e-05
4 *951:23 0.000677375
5 *951:8 0.000983546
6 *5025:A *968:40 0.000185428
7 *5025:A *972:142 0
8 *119:8 *5025:A 5.26101e-05
9 *222:14 *5025:A 0
10 *222:14 *951:8 5.27215e-06
11 *820:44 *5025:A 0
12 *820:44 *951:23 0
13 *839:131 *5025:A 0.000100733
*RES
1 *4876:Q *951:8 38.6214 
2 *951:8 *5025:A 44.0693 
3 *951:8 *951:23 28.1743 
4 *951:23 *5092:A 23 
*END

*D_NET *952 0.0026613
*CONN
*I *5093:A I *D sky130_fd_sc_hd__buf_2
*I *5021:A I *D sky130_fd_sc_hd__dlygate4sd3_1
*I *4877:Q O *D sky130_fd_sc_hd__dfxtp_1
*CAP
1 *5093:A 0
2 *5021:A 0.000174775
3 *4877:Q 0
4 *952:25 0.000752909
5 *952:6 0.000927684
6 *5021:A *956:21 2.11827e-05
7 *952:25 *956:21 0.000284069
8 *4876:CLK *5021:A 0.000359332
9 *40:8 *952:25 0.000141352
*RES
1 *4877:Q *952:6 38 
2 *952:6 *5021:A 42.8057 
3 *952:6 *952:25 31.7993 
4 *952:25 *5093:A 23 
*END

*D_NET *953 0.000551981
*CONN
*I *4999:A I *D sky130_fd_sc_hd__dlygate4sd3_1
*I *5094:A I *D sky130_fd_sc_hd__buf_2
*I *4849:Q O *D sky130_fd_sc_hd__dfxtp_1
*CAP
1 *4999:A 0.000102713
2 *5094:A 0
3 *4849:Q 0.000129903
4 *953:12 0.000102713
5 *953:10 0.000129903
6 rdata[3] *953:10 4.334e-05
7 *164:10 *953:10 4.3407e-05
*RES
1 *4849:Q *953:10 40.5271 
2 *953:10 *953:12 15 
3 *953:12 *5094:A 23 
4 *953:12 *4999:A 24.5743 
*END

*D_NET *954 0.00254808
*CONN
*I *5002:A I *D sky130_fd_sc_hd__dlygate4sd3_1
*I *5095:A I *D sky130_fd_sc_hd__buf_2
*I *4850:Q O *D sky130_fd_sc_hd__dfxtp_1
*CAP
1 *5002:A 0
2 *5095:A 0.000989368
3 *4850:Q 0
4 *954:23 0.000277702
5 *954:4 0.00126707
6 *843:10 *5095:A 1.39431e-05
*RES
1 *4850:Q *954:4 23 
2 *954:4 *5095:A 39.8614 
3 *954:4 *954:23 34.785 
4 *954:23 *5002:A 23 
*END

*D_NET *955 0.00237394
*CONN
*I *5001:A I *D sky130_fd_sc_hd__dlygate4sd3_1
*I *5096:A I *D sky130_fd_sc_hd__buf_2
*I *4851:Q O *D sky130_fd_sc_hd__dfxtp_1
*CAP
1 *5001:A 7.97193e-05
2 *5096:A 0.000365879
3 *4851:Q 0.000101759
4 *955:10 0.000445598
5 *955:8 0.000101759
6 *955:8 *1010:18 5.61311e-05
7 *4172:A *5096:A 9.84794e-05
8 *4172:C_N *5096:A 0.000164364
9 *169:26 *5096:A 4.34876e-05
10 *179:10 *5096:A 0.00012003
11 *180:8 *955:8 0
12 *839:62 *5001:A 0.000183457
13 *839:62 *5096:A 0.000613273
*RES
1 *4851:Q *955:8 40.2579 
2 *955:8 *955:10 15 
3 *955:10 *5096:A 34.1236 
4 *955:10 *5001:A 25.0507 
*END

*D_NET *956 0.00450991
*CONN
*I *5097:A I *D sky130_fd_sc_hd__buf_2
*I *5028:A I *D sky130_fd_sc_hd__dlygate4sd3_1
*I *4852:Q O *D sky130_fd_sc_hd__dfxtp_1
*CAP
1 *5097:A 0
2 *5028:A 0.000164564
3 *4852:Q 0
4 *956:21 0.00118151
5 *956:6 0.00134607
6 *956:21 *968:8 0.000182076
7 rdata[6] *956:21 6.12484e-05
8 *5021:A *956:21 2.11827e-05
9 *199:10 *956:21 0
10 *843:129 *5028:A 0.000280866
11 *843:129 *956:21 0.000988326
12 *894:8 *956:21 0
13 *952:25 *956:21 0.000284069
*RES
1 *4852:Q *956:6 38 
2 *956:6 *5028:A 42.2879 
3 *956:6 *956:21 45.0771 
4 *956:21 *5097:A 23 
*END

*D_NET *957 0.00166577
*CONN
*I *5098:A I *D sky130_fd_sc_hd__buf_2
*I *5010:A I *D sky130_fd_sc_hd__dlygate4sd3_1
*I *4853:Q O *D sky130_fd_sc_hd__dfxtp_1
*CAP
1 *5098:A 0.000226637
2 *5010:A 0.000229982
3 *4853:Q 4.80093e-05
4 *957:8 0.000504628
5 *5010:A *968:70 0.000140021
6 rdata[7] *5098:A 6.43792e-05
7 *163:27 *5010:A 0.000273509
8 *163:27 *5098:A 0.000160125
9 *848:19 *957:8 1.84831e-05
*RES
1 *4853:Q *957:8 38.6214 
2 *957:8 *5010:A 43.2407 
3 *957:8 *5098:A 42.7229 
*END

*D_NET *958 0.00175088
*CONN
*I *4150:B I *D sky130_fd_sc_hd__or4_1
*I *5062:X O *D sky130_fd_sc_hd__clkbuf_1
*CAP
1 *4150:B 0.000442364
2 *5062:X 5.45698e-05
3 *958:8 0.000496934
4 *4150:B *969:10 2.04774e-05
5 *4150:B *980:8 0.000114092
6 *4150:B *991:10 0.000598616
7 *5064:A *4150:B 2.38256e-05
8 *44:10 *4150:B 0
*RES
1 *5062:X *958:8 38.6214 
2 *958:8 *4150:B 49.4136 
*END

*D_NET *959 0.000891234
*CONN
*I *5012:A I *D sky130_fd_sc_hd__dlygate4sd3_1
*I *5099:A I *D sky130_fd_sc_hd__buf_2
*I *4854:Q O *D sky130_fd_sc_hd__dfxtp_1
*CAP
1 *5012:A 0.000260679
2 *5099:A 0
3 *4854:Q 0
4 *959:12 0.000182357
5 *959:4 0.000443037
6 *885:10 *5012:A 5.1614e-06
*RES
1 *4854:Q *959:4 23 
2 *959:4 *959:12 33.0036 
3 *959:12 *5099:A 23 
4 *959:4 *5012:A 27.4743 
*END

*D_NET *960 0.00218486
*CONN
*I *5100:A I *D sky130_fd_sc_hd__buf_2
*I *5027:A I *D sky130_fd_sc_hd__dlygate4sd3_1
*I *4855:Q O *D sky130_fd_sc_hd__dfxtp_1
*CAP
1 *5100:A 0
2 *5027:A 0
3 *4855:Q 0.000158676
4 *960:27 0.000682438
5 *960:10 0.000841114
6 *960:10 *4222:B1 2.68751e-05
7 *960:10 *966:80 0.000111852
8 *960:27 *4222:B1 0.000222113
9 *210:10 *960:27 1.59094e-05
10 *838:103 *960:10 9.64801e-06
11 *846:29 *960:10 4.48671e-05
12 *846:29 *960:27 7.13673e-05
*RES
1 *4855:Q *960:10 41.0036 
2 *960:10 *5027:A 38 
3 *960:10 *960:27 28.2779 
4 *960:27 *5100:A 23 
*END

*D_NET *961 0.0139758
*CONN
*I *4793:B I *D sky130_fd_sc_hd__nand2_1
*I *4807:B1 I *D sky130_fd_sc_hd__o41a_1
*I *4809:B I *D sky130_fd_sc_hd__and2_1
*I *4826:B1 I *D sky130_fd_sc_hd__o21ai_1
*I *4821:B I *D sky130_fd_sc_hd__nor2_1
*I *4822:B I *D sky130_fd_sc_hd__and2_1
*I *4832:B I *D sky130_fd_sc_hd__xnor2_1
*I *4810:B I *D sky130_fd_sc_hd__nor2_1
*I *4816:B I *D sky130_fd_sc_hd__xor2_1
*I *4800:B I *D sky130_fd_sc_hd__xnor2_1
*I *4952:X O *D sky130_fd_sc_hd__buf_2
*CAP
1 *4793:B 0
2 *4807:B1 3.92308e-05
3 *4809:B 0
4 *4826:B1 0
5 *4821:B 0
6 *4822:B 0
7 *4832:B 0.000250281
8 *4810:B 2.79498e-05
9 *4816:B 0.000156066
10 *4800:B 0.000300308
11 *4952:X 0
12 *961:79 0.000302054
13 *961:77 0.00031421
14 *961:65 0.000685381
15 *961:52 0.000479274
16 *961:50 0.000352086
17 *961:35 0.000861507
18 *961:27 0.000617935
19 *961:23 0.000723951
20 *961:6 0.00082729
21 *4800:B *970:27 0.000141888
22 *961:23 *966:102 0
23 *961:23 *970:27 0.000274543
24 *961:50 *970:100 0.000481458
25 *4794:B *961:23 0.000185428
26 *4794:B *961:27 1.56762e-05
27 *4805:D *961:23 0
28 *4807:A1 *961:27 5.3304e-05
29 *4807:A2 *961:27 1.88687e-05
30 *4807:A3 *961:27 5.50106e-05
31 *4810:A *961:65 0
32 *4822:A *4832:B 0
33 *4822:A *961:77 4.7881e-05
34 *4822:A *961:79 5.67058e-05
35 *4826:A2 *961:65 0.000394988
36 *4827:A1 *961:65 1.03955e-05
37 *4827:A1 *961:77 2.81138e-05
38 *4827:A2 *961:65 2.18409e-05
39 *4827:A2 *961:77 0.00010018
40 *4827:B1 *961:65 0
41 *4827:B1 *961:77 0.000104183
42 *4834:A1 *4832:B 0.000140259
43 *4834:A3 *4832:B 0.000184527
44 *183:49 *961:35 0.000679732
45 *734:12 *961:27 9.17998e-05
46 *737:10 *961:23 9.57899e-05
47 *740:10 *4800:B 5.50106e-05
48 *740:10 *961:23 0
49 *745:24 *4807:B1 4.85464e-05
50 *745:24 *961:23 9.6103e-05
51 *745:24 *961:27 0.000428036
52 *749:10 *4810:B 9.58714e-05
53 *749:10 *961:52 5.3304e-05
54 *749:10 *961:65 5.90675e-06
55 *754:10 *4816:B 0.000264564
56 *754:10 *961:35 4.17736e-05
57 *754:10 *961:50 0.00019075
58 *755:10 *961:50 0.00018039
59 *764:6 *961:77 4.50889e-05
60 *764:12 *4832:B 2.764e-05
61 *764:12 *961:77 0.000445374
62 *764:12 *961:79 6.9805e-05
63 *768:12 *4832:B 0.000143655
64 *770:6 *4832:B 0.000212309
65 *772:86 *961:23 5.80382e-05
66 *779:10 *961:35 0.000157552
67 *813:48 *4807:B1 5.42901e-06
68 *813:48 *961:27 5.61255e-06
69 *817:14 *4810:B 5.50049e-05
70 *817:14 *961:65 0.000129522
71 *818:8 *4816:B 0
72 *820:16 *961:77 9.84794e-05
73 *835:27 *4816:B 0.00039238
74 *835:27 *961:35 0.000395895
75 *835:54 *961:35 0.000864279
76 *836:46 *961:35 0.000180268
77 *849:12 *961:50 0.000109131
*RES
1 *4952:X *961:6 38 
2 *961:6 *4800:B 43.8621 
3 *961:6 *961:23 26.3514 
4 *961:23 *961:27 5.40643 
5 *961:27 *961:35 46.2193 
6 *961:35 *4816:B 27.93 
7 *961:35 *961:50 41.4136 
8 *961:50 *961:52 0.621429 
9 *961:52 *4810:B 24.0979 
10 *961:52 *961:65 8.63786 
11 *961:65 *961:77 9.07286 
12 *961:77 *961:79 1.57429 
13 *961:79 *4832:B 30.975 
14 *961:79 *4822:B 23 
15 *961:77 *4821:B 23 
16 *961:65 *4826:B1 23 
17 *961:50 *4809:B 23 
18 *961:27 *4807:B1 24.2843 
19 *961:23 *4793:B 23 
*END

*D_NET *962 0.0172645
*CONN
*I *4766:B I *D sky130_fd_sc_hd__or2_1
*I *4762:A2 I *D sky130_fd_sc_hd__a21bo_1
*I *4761:B I *D sky130_fd_sc_hd__xnor2_1
*I *4746:B I *D sky130_fd_sc_hd__xnor2_1
*I *4780:B1 I *D sky130_fd_sc_hd__o41ai_2
*I *4796:A2_N I *D sky130_fd_sc_hd__a2bb2o_4
*I *4787:B I *D sky130_fd_sc_hd__xnor2_1
*I *4788:A2 I *D sky130_fd_sc_hd__a21boi_1
*I *4795:B1 I *D sky130_fd_sc_hd__o21ai_1
*I *4779:B I *D sky130_fd_sc_hd__xnor2_1
*I *4953:X O *D sky130_fd_sc_hd__buf_4
*CAP
1 *4766:B 0.000255014
2 *4762:A2 0.000371161
3 *4761:B 0.000533407
4 *4746:B 0
5 *4780:B1 2.34823e-05
6 *4796:A2_N 0
7 *4787:B 0
8 *4788:A2 0
9 *4795:B1 2.32701e-05
10 *4779:B 0.000136604
11 *4953:X 0
12 *962:96 0.000651101
13 *962:90 0.00129308
14 *962:88 0.00057083
15 *962:86 0.000860106
16 *962:75 0.000784368
17 *962:59 0.000338837
18 *962:51 0.000533915
19 *962:38 0.000227293
20 *962:34 0.000474182
21 *962:21 0.00068894
22 *962:4 0.000607192
23 *4762:A2 *4769:B1 5.50106e-05
24 *4766:B *4774:B 5.3304e-05
25 *962:59 *1002:26 0.000651994
26 *962:90 *963:23 0
27 *962:96 *963:23 0
28 *4762:B1_N *4762:A2 9.84794e-05
29 *4779:A *4779:B 0.000315857
30 *4779:A *962:21 1.40958e-05
31 *4780:A1 *962:86 5.67058e-05
32 *4780:A3 *4780:B1 0
33 *4780:A3 *962:86 1.21972e-05
34 *4780:A4 *962:86 9.84794e-05
35 *4785:A1 *962:21 6.93553e-05
36 *4788:B1_N *962:51 9.84851e-05
37 *4789:A *962:59 0.000115141
38 *4796:B2 *962:51 5.50049e-05
39 *4925:A *962:59 0.00025214
40 *4926:A *962:38 5.3304e-05
41 *4926:A *962:51 0.00033226
42 *183:53 *4795:B1 5.3304e-05
43 *183:53 *962:34 0.000428639
44 *671:35 *962:96 0.000806142
45 *694:8 *962:96 5.50106e-05
46 *698:16 *4761:B 4.9662e-05
47 *698:16 *962:96 0.00012304
48 *703:10 *962:96 0.000113624
49 *705:8 *962:96 6.11183e-05
50 *707:6 *4761:B 9.30575e-05
51 *707:23 *4761:B 2.13733e-05
52 *707:23 *4762:A2 6.82611e-05
53 *713:14 *962:96 4.99753e-06
54 *713:27 *4766:B 8.72173e-05
55 *714:10 *4762:A2 0.000313255
56 *715:8 *4766:B 0
57 *718:25 *4766:B 0.000394824
58 *718:25 *962:88 0.000158229
59 *718:25 *962:90 0.000184174
60 *718:25 *962:96 3.70094e-05
61 *722:10 *4779:B 4.06849e-05
62 *723:10 *962:75 7.88926e-05
63 *723:10 *962:86 2.4754e-05
64 *726:21 *962:21 0.000120554
65 *729:10 *962:59 0.000192578
66 *745:8 *962:34 0.000219882
67 *745:8 *962:75 4.92689e-05
68 *745:24 *962:51 0.000535313
69 *780:10 *962:34 6.67764e-05
70 *780:12 *962:34 1.83667e-05
71 *780:47 *962:34 2.3529e-05
72 *780:47 *962:75 0.00011218
73 *807:37 *962:96 9.84794e-05
74 *809:24 *4762:A2 6.33508e-05
75 *809:28 *4762:A2 0.000160727
76 *810:20 *4766:B 0
77 *810:20 *962:88 0
78 *810:20 *962:90 0
79 *810:29 *962:86 2.62931e-05
80 *811:20 *4766:B 2.49836e-05
81 *811:20 *962:86 0.000289688
82 *811:29 *4766:B 5.3304e-05
83 *813:12 *962:21 1.94812e-05
84 *813:25 *962:21 0.000737906
85 *813:38 *962:21 5.94125e-05
86 *833:17 *962:21 0
87 *835:77 *4795:B1 5.3304e-05
88 *835:77 *962:34 0.00035673
89 *835:77 *962:75 8.05114e-05
*RES
1 *4953:X *962:4 23 
2 *962:4 *4779:B 27.3293 
3 *962:4 *962:21 41.8071 
4 *962:21 *4795:B1 23.6214 
5 *962:21 *962:34 22.8714 
6 *962:34 *962:38 15.6214 
7 *962:38 *4788:A2 23 
8 *962:38 *962:51 7.95429 
9 *962:51 *962:59 41.1236 
10 *962:59 *4787:B 23 
11 *962:51 *4796:A2_N 23 
12 *962:34 *962:75 20.9657 
13 *962:75 *4780:B1 23.4971 
14 *962:75 *962:86 26.1029 
15 *962:86 *962:88 2.25786 
16 *962:88 *962:90 2.61 
17 *962:90 *962:96 31.9857 
18 *962:96 *4746:B 23 
19 *962:90 *4761:B 46.0164 
20 *962:88 *4762:A2 47.6943 
21 *962:86 *4766:B 44.7529 
*END

*D_NET *963 0.00783822
*CONN
*I *4767:B I *D sky130_fd_sc_hd__nand2_1
*I *4774:B I *D sky130_fd_sc_hd__xnor2_1
*I *4770:A2_N I *D sky130_fd_sc_hd__a2bb2o_4
*I *4769:B1 I *D sky130_fd_sc_hd__o21ai_1
*I *4751:B I *D sky130_fd_sc_hd__xnor2_1
*I *4954:X O *D sky130_fd_sc_hd__clkbuf_2
*CAP
1 *4767:B 2.0995e-05
2 *4774:B 0.000426883
3 *4770:A2_N 2.79004e-05
4 *4769:B1 1.80182e-05
5 *4751:B 0
6 *4954:X 0
7 *963:49 0.000783343
8 *963:34 0.000495252
9 *963:23 0.00063401
10 *963:12 0.000211541
11 *963:4 0.000695646
12 *963:12 *971:41 4.6318e-06
13 *4751:A *963:12 0.000245809
14 *4762:A2 *4769:B1 5.50106e-05
15 *4766:B *4774:B 5.3304e-05
16 *4767:A *4767:B 0
17 *4767:A *4774:B 0.000141052
18 *4768:A *4767:B 1.14154e-05
19 *4768:A *4774:B 4.95081e-05
20 *4768:A *963:49 3.22879e-05
21 *4768:B *963:49 1.40958e-05
22 *4770:B1 *963:34 0
23 *4774:A *4774:B 0.000313249
24 *183:63 *963:12 0.000135494
25 *183:63 *963:23 0.000992106
26 *671:47 *963:12 9.8971e-06
27 *704:25 *963:23 0
28 *707:23 *963:23 0
29 *713:6 *4774:B 0.000173452
30 *713:6 *963:49 4.6595e-05
31 *713:14 *4774:B 4.05745e-05
32 *715:8 *963:49 0
33 *718:6 *4774:B 0.000528019
34 *718:25 *4774:B 0.0002246
35 *724:10 *963:12 0
36 *809:24 *4769:B1 2.93845e-05
37 *810:14 *4770:A2_N 5.50106e-05
38 *810:20 *963:23 2.08324e-05
39 *810:20 *963:34 0.000107548
40 *810:20 *963:49 1.22803e-05
41 *811:29 *4774:B 8.54813e-05
42 *837:87 *963:12 0.000139352
43 *837:87 *963:23 0.00100364
44 *962:90 *963:23 0
45 *962:96 *963:23 0
*RES
1 *4954:X *963:4 23 
2 *963:4 *963:12 35.2407 
3 *963:12 *4751:B 23 
4 *963:4 *963:23 31.53 
5 *963:23 *4769:B1 38.6214 
6 *963:23 *963:34 2.96214 
7 *963:34 *4770:A2_N 38.6214 
8 *963:34 *963:49 21.525 
9 *963:49 *4774:B 36.9614 
10 *963:49 *4767:B 23.4971 
*END

*D_NET *964 0.00659094
*CONN
*I *4734:B I *D sky130_fd_sc_hd__xnor2_4
*I *4740:B I *D sky130_fd_sc_hd__xnor2_2
*I *4726:B I *D sky130_fd_sc_hd__xnor2_4
*I *4720:B I *D sky130_fd_sc_hd__nor2_1
*I *4721:B I *D sky130_fd_sc_hd__and2_4
*I *4955:X O *D sky130_fd_sc_hd__buf_12
*CAP
1 *4734:B 0.000278692
2 *4740:B 0.000227113
3 *4726:B 4.32428e-05
4 *4720:B 0
5 *4721:B 8.2981e-05
6 *4955:X 4.16843e-05
7 *964:45 0.000691505
8 *964:32 0.000677243
9 *964:14 0.000408337
10 *964:8 0.000815341
11 *4740:B *971:62 0.000213862
12 *4588:B1 *964:8 7.24484e-05
13 *4720:A *4721:B 0.000111596
14 *201:8 *4726:B 1.94812e-05
15 *671:14 *964:14 0.000221193
16 *671:14 *964:32 2.77955e-05
17 *671:27 *4734:B 0.000211533
18 *671:27 *964:32 0.000890802
19 *671:27 *964:45 0.00038853
20 *672:8 *4721:B 0.000187129
21 *684:8 *4734:B 0
22 *685:8 *4734:B 0.000141888
23 *685:8 *964:45 3.47781e-05
24 *685:12 *4740:B 5.3304e-05
25 *700:10 *4734:B 1.4471e-05
26 *700:10 *964:32 5.93278e-05
27 *700:10 *964:45 0.000111694
28 *778:161 *4721:B 4.75937e-05
29 *778:161 *964:14 0.000276925
30 *798:55 *964:8 0.000185434
31 *804:22 *964:32 0
32 *838:118 *4726:B 5.50106e-05
*RES
1 *4955:X *964:8 40.0507 
2 *964:8 *964:14 23.3479 
3 *964:14 *4721:B 26.5214 
4 *964:14 *4720:B 23 
5 *964:8 *964:32 12.1179 
6 *964:32 *4726:B 39.1186 
7 *964:32 *964:45 5.42714 
8 *964:45 *4740:B 42.9093 
9 *964:45 *4734:B 44.09 
*END

*D_NET *965 0.00070361
*CONN
*I *4525:A2 I *D sky130_fd_sc_hd__a21bo_1
*I *5101:X O *D sky130_fd_sc_hd__buf_2
*CAP
1 *4525:A2 0
2 *5101:X 0.000311218
3 *965:10 0.000311218
4 *965:10 *979:57 0
5 *5101:A *965:10 5.29672e-05
6 *430:20 *965:10 0
7 *438:18 *965:10 2.82066e-05
*RES
1 *5101:X *965:10 42.9093 
2 *965:10 *4525:A2 38 
*END

*D_NET *966 0.0292943
*CONN
*I *4212:B1 I *D sky130_fd_sc_hd__o221a_1
*I *4222:B1 I *D sky130_fd_sc_hd__o221a_1
*I *4204:B1 I *D sky130_fd_sc_hd__o221a_1
*I *4236:B1 I *D sky130_fd_sc_hd__o221a_1
*I *4218:B1 I *D sky130_fd_sc_hd__o221a_1
*I *4216:B1 I *D sky130_fd_sc_hd__o221a_1
*I *4206:B1 I *D sky130_fd_sc_hd__o221a_1
*I *4214:B1 I *D sky130_fd_sc_hd__o221a_1
*I *4208:B1 I *D sky130_fd_sc_hd__o221a_1
*I *4210:B1 I *D sky130_fd_sc_hd__o221a_1
*I *4956:X O *D sky130_fd_sc_hd__clkbuf_4
*CAP
1 *4212:B1 0.00044407
2 *4222:B1 0.000210929
3 *4204:B1 0
4 *4236:B1 0
5 *4218:B1 0
6 *4216:B1 8.40272e-05
7 *4206:B1 0
8 *4214:B1 0
9 *4208:B1 0
10 *4210:B1 0.000517503
11 *4956:X 0
12 *966:115 7.39174e-05
13 *966:102 0.00210433
14 *966:100 0.00324925
15 *966:92 0.00330322
16 *966:84 0.00269968
17 *966:80 0.000894599
18 *966:71 0.000525885
19 *966:58 0.000640952
20 *966:49 0.000429596
21 *966:40 0.000401418
22 *966:33 0.00106074
23 *966:23 0.00152618
24 *966:6 0.000763884
25 *966:4 0.00044407
26 *966:92 *4545:A1 0.000252161
27 *966:102 *970:27 0
28 *966:115 *971:70 0.000166522
29 *4201:A *966:102 0
30 *4210:A1 *4210:B1 5.76696e-05
31 *4210:B2 *4210:B1 5.73309e-05
32 *4212:A2 *4210:B1 2.96051e-05
33 *4216:A2 *4216:B1 6.17437e-06
34 *4216:B2 *4216:B1 3.22879e-05
35 *4222:A2 *4222:B1 0.000154658
36 *4222:A2 *966:80 0.000118797
37 *4503:A *966:102 0
38 *4543:C *966:100 0.000184527
39 *4731:B *966:92 5.50049e-05
40 *4752:A *966:92 0.000385751
41 *4752:B *966:92 0.000144057
42 *4752:C *966:92 3.80755e-05
43 *4793:A *966:102 6.16439e-05
44 *4805:D *966:102 0.000157299
45 *4857:D *966:33 0.000171138
46 *4864:CLK *966:84 0.000289461
47 *137:8 *966:102 0.00019747
48 *181:60 *966:115 7.91596e-05
49 *200:10 *966:102 0
50 *205:6 *4212:B1 0.000179871
51 *210:10 *4222:B1 0.000141879
52 *217:8 *966:102 0.000353282
53 *459:20 *966:100 0
54 *459:20 *966:102 0
55 *459:33 *966:100 0.000196178
56 *460:10 *966:100 0.000111445
57 *460:10 *966:102 0
58 *462:8 *966:100 3.89661e-05
59 *462:15 *966:100 1.32939e-05
60 *498:14 *966:100 6.53382e-05
61 *499:30 *966:100 0.000141954
62 *682:10 *966:92 0.000651526
63 *699:10 *966:92 0.000315852
64 *737:10 *966:102 0
65 *738:10 *966:102 6.64755e-05
66 *739:10 *966:102 0.000138727
67 *740:10 *966:102 0.000194327
68 *778:67 *4210:B1 0.000185434
69 *778:71 *4210:B1 0
70 *779:65 *966:102 0
71 *815:14 *966:102 0.000857642
72 *815:16 *966:102 0.000187986
73 *827:14 *966:102 0
74 *827:22 *966:100 0
75 *832:44 *966:102 9.70859e-05
76 *832:87 *966:102 9.15507e-05
77 *832:134 *966:102 0
78 *836:65 *966:92 5.26362e-05
79 *836:65 *966:100 2.73825e-05
80 *836:76 *966:92 0.00019975
81 *838:22 *966:33 4.79612e-05
82 *838:42 *4212:B1 5.12254e-05
83 *838:57 *4210:B1 2.60152e-05
84 *838:57 *966:23 0.000219717
85 *838:57 *966:40 0.000192681
86 *838:57 *966:49 6.07611e-06
87 *838:66 *966:49 0.000215096
88 *838:66 *966:58 6.07611e-06
89 *838:75 *966:58 0.000192578
90 *838:88 *966:58 3.82956e-05
91 *838:88 *966:71 0.000307234
92 *838:88 *966:80 1.83564e-05
93 *838:97 *966:80 6.32688e-05
94 *845:28 *966:102 0
95 *845:88 *966:102 0
96 *845:103 *966:102 0.000539045
97 *846:27 *4222:B1 2.76611e-06
98 *846:29 *4222:B1 5.77294e-05
99 *846:29 *966:80 0
100 *846:33 *966:58 0
101 *846:33 *966:71 0
102 *849:121 *4212:B1 2.93845e-05
103 *849:132 *966:49 0.000192681
104 *853:10 *966:102 0
105 *901:10 *966:84 0.00040561
106 *960:10 *4222:B1 2.68751e-05
107 *960:10 *966:80 0.000111852
108 *960:27 *4222:B1 0.000222113
109 *961:23 *966:102 0
*RES
1 *4956:X *966:4 23 
2 *966:4 *966:6 15 
3 *966:6 *4210:B1 47.6943 
4 *966:6 *966:23 5.77929 
5 *966:23 *966:33 29.1479 
6 *966:33 *4208:B1 23 
7 *966:23 *966:40 5.075 
8 *966:40 *4214:B1 38 
9 *966:40 *966:49 5.77929 
10 *966:49 *4206:B1 38 
11 *966:49 *966:58 6.13143 
12 *966:58 *4216:B1 39.595 
13 *966:58 *966:71 7.89214 
14 *966:71 *4218:B1 38 
15 *966:71 *966:80 5.42714 
16 *966:80 *966:84 25.15 
17 *966:84 *966:92 45.1054 
18 *966:92 *966:100 35.6936 
19 *966:100 *966:102 49.0618 
20 *966:102 *4236:B1 38 
21 *966:84 *966:115 32.2579 
22 *966:115 *4204:B1 23 
23 *966:80 *4222:B1 44.8979 
24 *966:4 *4212:B1 30.3329 
*END

*D_NET *967 0.0238927
*CONN
*I *4202:B1 I *D sky130_fd_sc_hd__o221a_1
*I *4230:B1 I *D sky130_fd_sc_hd__o221a_1
*I *4228:B1 I *D sky130_fd_sc_hd__o221a_1
*I *4226:B1 I *D sky130_fd_sc_hd__o221a_1
*I *4224:B1 I *D sky130_fd_sc_hd__o221a_1
*I *4220:B1 I *D sky130_fd_sc_hd__o221a_1
*I *4234:B1 I *D sky130_fd_sc_hd__o221a_1
*I *4232:B1 I *D sky130_fd_sc_hd__o221a_1
*I *4238:B1 I *D sky130_fd_sc_hd__o221a_1
*I *4957:X O *D sky130_fd_sc_hd__buf_2
*CAP
1 *4202:B1 0
2 *4230:B1 0
3 *4228:B1 0
4 *4226:B1 4.27714e-05
5 *4224:B1 0
6 *4220:B1 0.000125084
7 *4234:B1 4.74961e-05
8 *4232:B1 9.01804e-06
9 *4238:B1 5.13814e-05
10 *4957:X 0.000282371
11 *967:149 0.000663936
12 *967:136 0.000583219
13 *967:117 0.000800612
14 *967:110 0.000200389
15 *967:91 0.00070542
16 *967:87 0.00114689
17 *967:68 0.00120381
18 *967:64 0.00209294
19 *967:62 0.00187221
20 *967:41 0.00189879
21 *967:22 0.00139301
22 *967:10 0.000741427
23 *967:10 *968:136 0.000266546
24 *967:68 *4229:B 0
25 *967:87 *970:58 0
26 *967:91 *970:58 0
27 *967:136 *970:58 0
28 *4220:A1 *4220:B1 0.000362137
29 *4220:A1 *967:110 0.0002246
30 *4220:A2 *4220:B1 0.000444823
31 *4220:A2 *967:110 0.0002134
32 *4220:B2 *4220:B1 5.79559e-05
33 *4220:C1 *4220:B1 5.79559e-05
34 *4224:A2 *967:110 9.63918e-05
35 *4226:C1 *4226:B1 2.76611e-06
36 *4226:C1 *967:91 0.000579694
37 *4228:A2 *967:136 0.000438998
38 *4230:A2 *967:149 0.000890821
39 *4232:B2 *967:62 0.000100477
40 *4867:CLK *967:136 0
41 *4868:CLK *967:149 0
42 *4870:D *967:87 9.72041e-05
43 *4872:CLK *967:41 5.58003e-05
44 *4872:D *967:41 0.000104849
45 *4949:A *967:22 0.000100477
46 *5013:A *967:41 0.000117881
47 *29:12 *967:10 0.000100477
48 *106:8 *967:91 0
49 *112:6 *967:62 0.000639751
50 *181:71 *967:68 0.00109292
51 *181:77 *967:64 0.000431664
52 *181:87 *4232:B1 5.55743e-06
53 *181:87 *967:62 0.00173195
54 *200:10 *967:22 1.16455e-05
55 *212:8 *4226:B1 5.67058e-05
56 *777:62 *967:91 0
57 *777:117 *4234:B1 0.000139346
58 *777:117 *967:87 0.000107338
59 *777:125 *4226:B1 5.50106e-05
60 *809:14 *967:87 0
61 *809:81 *4234:B1 6.53382e-05
62 *809:81 *967:87 5.50049e-05
63 *811:58 *967:64 0.000145823
64 *811:58 *967:68 1.37349e-05
65 *837:64 *967:22 0.000136338
66 *837:91 *4226:B1 1.08118e-05
67 *837:91 *967:136 0.000162609
68 *837:93 *4226:B1 2.76611e-06
69 *837:93 *967:110 1.12487e-05
70 *845:120 *967:10 5.75756e-06
71 *845:120 *967:22 0.000150076
72 *846:23 *4220:B1 0.000106042
73 *846:25 *967:91 5.86204e-05
74 *846:25 *967:110 0
75 *847:187 *4232:B1 5.55743e-06
76 *847:187 *967:41 4.59098e-05
77 *847:187 *967:62 7.64059e-06
78 *848:44 *967:22 0.000112731
79 *885:10 *967:10 3.70292e-05
80 *896:10 *967:68 0.000138727
81 *942:8 *967:62 8.30371e-05
82 *943:12 *967:87 6.17437e-06
83 *944:18 *967:22 8.57577e-05
*RES
1 *4957:X *967:10 44.1729 
2 *967:10 *967:22 37.5814 
3 *967:22 *4238:B1 38.8493 
4 *967:22 *967:41 33.415 
5 *967:41 *4232:B1 23.4971 
6 *967:41 *967:62 46.3407 
7 *967:62 *967:64 21.2736 
8 *967:64 *967:68 29.935 
9 *967:68 *4234:B1 24.5743 
10 *967:68 *967:87 27.1696 
11 *967:87 *967:91 24.1246 
12 *967:91 *4220:B1 29.5043 
13 *967:91 *967:110 35.4893 
14 *967:110 *4224:B1 23 
15 *967:87 *967:117 2.05071 
16 *967:117 *4226:B1 39.2946 
17 *967:117 *967:136 29.4275 
18 *967:136 *4228:B1 23 
19 *967:64 *967:149 40.875 
20 *967:149 *4230:B1 38 
21 *967:10 *4202:B1 38 
*END

*D_NET *968 0.0394647
*CONN
*I *4242:B1 I *D sky130_fd_sc_hd__o221a_1
*I *4957:A I *D sky130_fd_sc_hd__buf_2
*I *4956:A I *D sky130_fd_sc_hd__clkbuf_4
*I *4240:B1 I *D sky130_fd_sc_hd__o221a_1
*I *4200:B2 I *D sky130_fd_sc_hd__o221a_1
*I *4244:B1 I *D sky130_fd_sc_hd__o221a_1
*I *4246:B1 I *D sky130_fd_sc_hd__o221a_1
*I *4248:B1 I *D sky130_fd_sc_hd__o221a_1
*I *4958:X O *D sky130_fd_sc_hd__clkbuf_4
*CAP
1 *4242:B1 0.000113982
2 *4957:A 0
3 *4956:A 0.00157254
4 *4240:B1 3.53664e-05
5 *4200:B2 0
6 *4244:B1 0
7 *4246:B1 0
8 *4248:B1 4.81064e-05
9 *4958:X 0.000181316
10 *968:136 0.000741319
11 *968:111 0.00336372
12 *968:107 0.00312384
13 *968:97 0.00388107
14 *968:95 0.0040484
15 *968:80 0.00133671
16 *968:70 0.00083787
17 *968:61 0.000847383
18 *968:44 0.000902375
19 *968:40 0.00108024
20 *968:23 0.00174466
21 *968:10 0.000948733
22 *968:8 0.000181316
23 *4240:B1 *970:125 0
24 *968:40 *972:142 0
25 *968:40 *1002:95 3.70187e-05
26 *968:80 *970:108 0.000188637
27 *968:80 *970:125 1.14876e-05
28 *968:95 *4237:B 0.000571494
29 *968:95 *970:125 0.000532552
30 rdata[8] *968:136 2.9338e-05
31 *4200:A1 *968:61 0.000136769
32 *4200:A1 *968:70 6.1065e-05
33 *4200:A2 *968:61 4.59272e-05
34 *4200:A2 *968:70 0.000578078
35 *4200:C1 *968:70 5.82853e-05
36 *4211:A *4956:A 1.76557e-05
37 *4235:A *968:95 4.75206e-05
38 *4240:A1 *4240:B1 0
39 *4240:A1 *968:80 0.000151674
40 *4246:A1 *968:40 0.000143655
41 *4246:C1 *968:23 0.00183486
42 *4248:A1 *4248:B1 2.93747e-05
43 *4248:A1 *968:23 2.02872e-05
44 *4248:A2 *4248:B1 2.02517e-05
45 *4577:A *968:107 0.000191148
46 *4585:A1 *968:107 7.41472e-05
47 *4585:B1 *968:107 0
48 *4614:A2 *968:107 0.000206609
49 *4647:A1 *968:107 0.000300098
50 *4647:A1 *968:111 0.000226306
51 *4648:B1 *968:107 0
52 *4649:C1 *968:107 9.54823e-05
53 *4681:A *968:111 7.36613e-05
54 *4709:B1 *968:111 9.5877e-05
55 *4795:A1 *968:97 5.45669e-05
56 *4805:C *968:97 0.000215242
57 *4899:D *4956:A 0.000169878
58 *5010:A *968:70 0.000140021
59 *5025:A *968:40 0.000185428
60 *5086:A *968:136 0.000154667
61 *199:10 *968:8 0.000118736
62 *200:10 *968:97 0.00076062
63 *200:10 *968:136 1.48681e-05
64 *218:8 *968:136 0.000354121
65 *220:10 *4242:B1 0.00022052
66 *220:10 *968:80 0.000406901
67 *223:10 *968:8 2.08324e-05
68 *462:19 *968:97 0.000153585
69 *496:10 *968:107 0.000141879
70 *497:10 *968:97 5.31385e-05
71 *497:10 *968:107 4.45392e-05
72 *499:30 *968:97 0
73 *501:8 *968:97 0.000114092
74 *531:21 *968:107 8.94487e-05
75 *534:10 *968:107 0.000181422
76 *535:10 *968:107 0
77 *537:8 *968:107 3.96156e-05
78 *538:14 *968:107 0
79 *540:10 *968:107 0.000198134
80 *567:19 *968:107 0
81 *568:27 *968:107 0
82 *602:10 *968:111 0.000106989
83 *608:18 *968:111 0.000265472
84 *733:10 *968:97 0.000160182
85 *735:8 *968:97 0.000131997
86 *772:86 *968:97 0
87 *801:8 *4956:A 3.88463e-05
88 *801:10 *4956:A 8.98344e-05
89 *801:10 *968:111 0.000229162
90 *801:12 *968:111 9.91895e-05
91 *813:48 *968:97 0.000141869
92 *814:8 *968:97 0.000355643
93 *814:10 *968:97 0.000250582
94 *814:12 *968:97 4.85126e-05
95 *814:62 *968:97 4.95442e-05
96 *820:44 *968:40 0
97 *827:14 *968:97 0
98 *827:22 *968:97 0
99 *836:46 *968:97 0
100 *837:85 *968:97 0
101 *837:85 *968:136 0
102 *838:8 *4956:A 0.000282121
103 *838:22 *4956:A 0.000489549
104 *838:42 *4956:A 4.95081e-05
105 *838:124 *968:80 6.7177e-06
106 *839:114 *968:23 2.9938e-05
107 *839:114 *968:40 5.70419e-05
108 *839:131 *968:40 0.000170003
109 *843:129 *968:8 3.70187e-05
110 *844:81 *968:40 0.000310638
111 *844:81 *968:44 0.000279227
112 *845:120 *968:136 0.000132831
113 *849:12 *968:80 0
114 *849:76 *4956:A 0.000306191
115 *849:84 *4956:A 0.000182832
116 *944:18 *968:136 0.000114237
117 *956:21 *968:8 0.000182076
118 *967:10 *968:136 0.000266546
*RES
1 *4958:X *968:8 43.4271 
2 *968:8 *968:10 15 
3 *968:10 *4248:B1 24.1186 
4 *968:10 *968:23 22.0814 
5 *968:23 *4246:B1 23 
6 *968:23 *968:40 49.2643 
7 *968:40 *968:44 5.40643 
8 *968:44 *4244:B1 23 
9 *968:44 *968:61 13.8371 
10 *968:61 *4200:B2 23 
11 *968:61 *968:70 21.3386 
12 *968:70 *968:80 26.5793 
13 *968:80 *4240:B1 23.8493 
14 *968:80 *968:95 31.0329 
15 *968:95 *968:97 59.4811 
16 *968:97 *968:107 47.3454 
17 *968:107 *968:111 33.7539 
18 *968:111 *4956:A 47.7018 
19 *968:95 *968:136 31.3021 
20 *968:136 *4957:A 23 
21 *968:70 *4242:B1 40.9621 
*END

*D_NET *969 0.00104585
*CONN
*I *4150:A I *D sky130_fd_sc_hd__or4_1
*I *5063:X O *D sky130_fd_sc_hd__clkbuf_1
*CAP
1 *4150:A 0
2 *5063:X 0.000352678
3 *969:10 0.000352678
4 *969:10 *991:10 2.08324e-05
5 *4150:B *969:10 2.04774e-05
6 *166:10 *969:10 0.000299187
*RES
1 *5063:X *969:10 45.1257 
2 *969:10 *4150:A 38 
*END

*D_NET *970 0.0275838
*CONN
*I *4241:B I *D sky130_fd_sc_hd__and2_1
*I *4237:B I *D sky130_fd_sc_hd__and2_1
*I *4235:B I *D sky130_fd_sc_hd__and2_1
*I *4239:B I *D sky130_fd_sc_hd__and2_1
*I *4201:B I *D sky130_fd_sc_hd__and2_1
*I *4225:B I *D sky130_fd_sc_hd__and2_1
*I *4227:B I *D sky130_fd_sc_hd__and2_1
*I *4229:B I *D sky130_fd_sc_hd__and2_1
*I *4219:B I *D sky130_fd_sc_hd__and2_1
*I *4198:B I *D sky130_fd_sc_hd__and2_1
*I *4959:X O *D sky130_fd_sc_hd__buf_2
*CAP
1 *4241:B 0
2 *4237:B 0.000115207
3 *4235:B 0
4 *4239:B 0
5 *4201:B 0
6 *4225:B 0
7 *4227:B 0.00014314
8 *4229:B 0.00032806
9 *4219:B 2.34823e-05
10 *4198:B 0.000109678
11 *4959:X 0
12 *970:125 0.000485769
13 *970:114 0.000204205
14 *970:108 0.00101609
15 *970:100 0.0014433
16 *970:58 0.00110856
17 *970:52 0.00140331
18 *970:33 0.00305911
19 *970:31 0.00238056
20 *970:27 0.000478228
21 *970:23 0.00119685
22 *970:19 0.00196696
23 *970:4 0.000245163
24 *4198:B *4959:A 1.69887e-05
25 *970:23 *1002:28 0.000657418
26 *970:23 *1002:30 0.000429452
27 *4198:A *4198:B 0.000187129
28 *4198:A *970:19 1.40958e-05
29 *4201:A *970:31 0.000135557
30 *4220:B2 *970:52 7.88926e-05
31 *4220:C1 *4219:B 0
32 *4230:A2 *4229:B 2.93845e-05
33 *4235:A *4237:B 0.000496432
34 *4235:A *970:125 0.00010018
35 *4240:A1 *970:108 2.4754e-05
36 *4240:A1 *970:125 1.21972e-05
37 *4240:B1 *970:125 0
38 *4241:A *970:100 0.000308661
39 *4800:B *970:27 0.000141888
40 *4805:D *970:23 0.0002246
41 *4960:A *970:19 2.98663e-05
42 *181:60 *970:52 0.000178388
43 *183:49 *970:19 3.19083e-05
44 *183:49 *970:100 9.64022e-05
45 *183:81 *970:52 0.000361507
46 *198:10 *970:19 3.71111e-05
47 *198:10 *970:100 0.000185277
48 *219:10 *970:114 0.000327903
49 *220:10 *970:108 0.000100488
50 *701:10 *970:33 0.000143655
51 *752:10 *970:114 4.21594e-06
52 *754:10 *970:100 6.00136e-06
53 *756:8 *970:19 1.01436e-05
54 *756:8 *970:100 0.000442177
55 *772:86 *970:27 0.000440776
56 *772:86 *970:31 1.83667e-05
57 *777:125 *970:52 1.22822e-05
58 *777:125 *970:58 5.56356e-05
59 *805:42 *970:33 0.000605643
60 *805:53 *970:33 4.95081e-05
61 *807:27 *970:33 0.0017358
62 *807:37 *970:33 5.3304e-05
63 *809:81 *970:52 0.000146663
64 *809:81 *970:58 0
65 *810:71 *4229:B 9.35649e-05
66 *817:12 *970:100 0.00058375
67 *827:8 *970:33 0.000228909
68 *827:14 *970:31 3.70094e-05
69 *832:87 *970:23 0.000330416
70 *837:38 *970:108 3.50723e-05
71 *837:38 *970:125 6.17437e-06
72 *838:124 *970:114 0
73 *847:70 *970:33 2.02872e-05
74 *847:147 *4229:B 5.50106e-05
75 *849:12 *970:100 0
76 *896:10 *970:58 0
77 *910:8 *970:100 5.31444e-05
78 *915:10 *970:33 0.000441972
79 *943:12 *970:58 0
80 *961:23 *970:27 0.000274543
81 *961:50 *970:100 0.000481458
82 *966:102 *970:27 0
83 *967:68 *4229:B 0
84 *967:87 *970:58 0
85 *967:91 *970:58 0
86 *967:136 *970:58 0
87 *968:80 *970:108 0.000188637
88 *968:80 *970:125 1.14876e-05
89 *968:95 *4237:B 0.000571494
90 *968:95 *970:125 0.000532552
*RES
1 *4959:X *970:4 23 
2 *970:4 *4198:B 25.9 
3 *970:4 *970:19 17.5271 
4 *970:19 *970:23 37.0607 
5 *970:23 *970:27 26.4136 
6 *970:27 *970:31 17.2579 
7 *970:31 *970:33 49.2171 
8 *970:33 *4219:B 23.4971 
9 *970:33 *970:52 45.4736 
10 *970:52 *970:58 27.035 
11 *970:58 *4229:B 45.0221 
12 *970:58 *4227:B 40.0507 
13 *970:52 *4225:B 23 
14 *970:27 *4201:B 38 
15 *970:19 *970:100 41.6179 
16 *970:100 *970:108 9.86 
17 *970:108 *970:114 35.075 
18 *970:114 *4239:B 23 
19 *970:108 *970:125 9.715 
20 *970:125 *4235:B 23 
21 *970:125 *4237:B 29.3386 
22 *970:100 *4241:B 23 
*END

*D_NET *971 0.0247716
*CONN
*I *4221:B I *D sky130_fd_sc_hd__and2_1
*I *4215:B I *D sky130_fd_sc_hd__and2_1
*I *4205:B I *D sky130_fd_sc_hd__and2_1
*I *4213:B I *D sky130_fd_sc_hd__and2_1
*I *4207:B I *D sky130_fd_sc_hd__and2_1
*I *4211:B I *D sky130_fd_sc_hd__and2_1
*I *4209:B I *D sky130_fd_sc_hd__and2_1
*I *4217:B I *D sky130_fd_sc_hd__and2_1
*I *4203:B I *D sky130_fd_sc_hd__and2_1
*I *4959:A I *D sky130_fd_sc_hd__buf_2
*I *4960:X O *D sky130_fd_sc_hd__buf_2
*CAP
1 *4221:B 0.000378937
2 *4215:B 5.49912e-05
3 *4205:B 7.85318e-05
4 *4213:B 8.51259e-05
5 *4207:B 0
6 *4211:B 0
7 *4209:B 0.000293631
8 *4217:B 0
9 *4203:B 0.000321683
10 *4959:A 0.000108667
11 *4960:X 0
12 *971:117 0.0004284
13 *971:91 0.000755992
14 *971:89 0.00107573
15 *971:87 0.000578665
16 *971:83 0.000704124
17 *971:81 0.000882649
18 *971:70 0.00104651
19 *971:62 0.00267999
20 *971:41 0.003327
21 *971:37 0.00156039
22 *971:25 0.0025464
23 *971:4 0.00233482
24 *4203:B *1012:49 3.79407e-05
25 *4198:A *4959:A 8.1796e-05
26 *4198:A *971:25 4.39607e-05
27 *4198:B *4959:A 1.69887e-05
28 *4210:B2 *4209:B 0.000146195
29 *4210:C1 *4209:B 5.84916e-05
30 *4215:A *4215:B 6.17437e-06
31 *4217:A *971:70 9.91101e-05
32 *4736:A1 *971:62 4.19743e-05
33 *4736:A2 *971:41 2.46922e-05
34 *4737:B1 *971:62 9.84851e-05
35 *4740:B *971:62 0.000213862
36 *4752:A *4203:B 0
37 *4752:A *971:41 0
38 *4784:A *971:25 9.12234e-05
39 *4784:A *971:37 2.64616e-05
40 *4785:A1 *971:25 0.000139224
41 *4785:A2 *971:25 6.17437e-06
42 *4785:A2 *971:37 5.50049e-05
43 *4802:B *971:25 8.10857e-05
44 *4804:B1 *971:25 3.53115e-05
45 *4855:CLK *971:70 0
46 *4952:A *971:25 0.000653238
47 *5026:A *971:91 0
48 *181:56 *971:117 0.000236202
49 *181:60 *971:70 0.000158666
50 *181:119 *971:89 0
51 *181:119 *971:91 0
52 *181:119 *971:117 6.7063e-05
53 *203:10 *971:117 0.000220047
54 *208:6 *971:81 0.000143535
55 *671:27 *4203:B 0
56 *684:8 *971:41 0
57 *685:12 *971:62 0.00030974
58 *687:10 *971:41 0
59 *689:8 *971:62 1.39317e-05
60 *725:6 *971:37 0.000145611
61 *725:14 *971:37 3.22879e-05
62 *742:10 *971:25 0.000423713
63 *777:10 *4221:B 5.50106e-05
64 *777:10 *971:62 0.0002263
65 *777:23 *971:70 0
66 *780:12 *971:37 2.58197e-05
67 *780:12 *971:41 0
68 *780:18 *971:41 0
69 *798:55 *971:83 0
70 *798:55 *971:87 0
71 *802:59 *971:87 0.000164282
72 *802:59 *971:89 3.70094e-05
73 *803:34 *971:81 7.18464e-05
74 *803:34 *971:83 3.04661e-05
75 *806:16 *4221:B 0.000101764
76 *813:8 *971:41 5.56203e-05
77 *813:62 *971:41 2.84912e-05
78 *813:79 *971:41 8.15327e-05
79 *832:61 *971:25 2.65879e-05
80 *833:17 *971:37 1.09886e-05
81 *833:46 *971:37 2.80512e-05
82 *835:62 *971:25 2.93747e-05
83 *836:76 *4203:B 0
84 *838:33 *4209:B 6.28695e-05
85 *838:33 *971:91 1.19692e-05
86 *838:118 *4203:B 5.50106e-05
87 *846:33 *971:81 0
88 *846:33 *971:83 0
89 *846:41 *4215:B 0.000138588
90 *849:102 *4213:B 0.000140935
91 *849:132 *971:87 0
92 *900:10 *971:117 0.000222665
93 *901:10 *971:70 4.48671e-05
94 *905:8 *971:87 0
95 *928:16 *971:91 0
96 *963:12 *971:41 4.6318e-06
97 *966:115 *971:70 0.000166522
*RES
1 *4960:X *971:4 23 
2 *971:4 *4959:A 25.5686 
3 *971:4 *971:25 36.4364 
4 *971:25 *971:37 36.6493 
5 *971:37 *971:41 38.0343 
6 *971:41 *4203:B 43.8414 
7 *971:41 *971:62 47.2314 
8 *971:62 *971:70 40.6471 
9 *971:70 *4217:B 23 
10 *971:70 *971:81 25.4193 
11 *971:81 *971:83 5.95536 
12 *971:83 *971:87 6.22464 
13 *971:87 *971:89 3.66643 
14 *971:89 *971:91 8.24429 
15 *971:91 *4209:B 43.9761 
16 *971:91 *4211:B 38 
17 *971:89 *971:117 27.0557 
18 *971:117 *4207:B 23 
19 *971:87 *4213:B 40.0714 
20 *971:83 *4205:B 39.5639 
21 *971:81 *4215:B 39.595 
22 *971:62 *4221:B 29.8357 
*END

*D_NET *972 0.0290371
*CONN
*I *4243:B I *D sky130_fd_sc_hd__and2_1
*I *4245:B I *D sky130_fd_sc_hd__and2_1
*I *4247:B I *D sky130_fd_sc_hd__and2_1
*I *4196:A2 I *D sky130_fd_sc_hd__a211o_1
*I *4193:A2 I *D sky130_fd_sc_hd__a211o_1
*I *4190:A2 I *D sky130_fd_sc_hd__a211o_1
*I *4186:B1 I *D sky130_fd_sc_hd__a22o_1
*I *4177:B1 I *D sky130_fd_sc_hd__a22o_1
*I *4181:A2 I *D sky130_fd_sc_hd__a211o_1
*I *4184:A2 I *D sky130_fd_sc_hd__a211o_1
*I *4961:X O *D sky130_fd_sc_hd__clkbuf_4
*CAP
1 *4243:B 0.000920621
2 *4245:B 0
3 *4247:B 0
4 *4196:A2 4.84425e-05
5 *4193:A2 0
6 *4190:A2 0
7 *4186:B1 0
8 *4177:B1 0
9 *4181:A2 0
10 *4184:A2 0.000257049
11 *4961:X 0
12 *972:144 0.000920621
13 *972:142 0.00154127
14 *972:131 0.00272558
15 *972:116 0.00170474
16 *972:107 0.00054938
17 *972:99 0.00143011
18 *972:85 0.000267933
19 *972:68 0.000736656
20 *972:51 0.00139344
21 *972:32 0.00108139
22 *972:28 0.00139946
23 *972:16 0.00244623
24 *972:10 0.00117627
25 *972:4 0.000638608
26 *4184:A2 *4183:A2 0
27 *972:28 *987:81 6.94745e-06
28 *972:28 *1001:38 5.25436e-05
29 *972:32 *974:14 0
30 *972:32 *986:44 1.34542e-05
31 *972:51 *986:44 0.00032898
32 *972:51 *1010:52 0
33 *972:68 *4177:A2 6.09979e-06
34 *972:68 *974:24 0.000101677
35 *972:68 *974:26 0.000160182
36 *972:85 *4186:A1 1.98684e-05
37 *972:85 *973:10 9.67842e-05
38 *972:85 *974:14 3.04568e-05
39 *972:85 *974:82 3.26966e-05
40 *972:85 *1001:20 0.000144494
41 *972:116 *1010:131 2.40653e-05
42 *972:142 *1002:95 0
43 *4181:B1 *972:68 2.86932e-05
44 *4182:B1 *972:68 0
45 *4184:A1 *4184:A2 4.37033e-05
46 *4184:B1 *4184:A2 4.96717e-05
47 *4185:B1 *4184:A2 0
48 *4186:A2 *972:85 0
49 *4186:B2 *972:85 3.4825e-05
50 *4190:C1 *972:99 3.17516e-05
51 *4190:C1 *972:116 4.75206e-05
52 *4196:B1 *972:116 1.59094e-05
53 *4196:C1 *972:116 0.000125416
54 *4916:CLK *4243:B 0.000735872
55 *4994:A *972:16 0.000163361
56 *5025:A *972:142 0
57 *180:22 *972:32 0.000277705
58 *180:42 *972:68 4.3053e-05
59 *182:39 *972:68 0.000314139
60 *182:53 *4184:A2 1.09783e-05
61 *182:53 *972:32 0
62 *182:53 *972:51 0
63 *182:68 *972:32 0
64 *182:91 *972:107 0.00028398
65 *183:18 *972:10 1.22822e-05
66 *183:18 *972:16 0.00035673
67 *186:8 *972:68 0.000138718
68 *193:10 *972:16 0.0001042
69 *194:12 *972:107 6.07611e-06
70 *197:10 *4196:A2 1.01436e-05
71 *197:10 *972:131 0.000340942
72 *199:10 *4196:A2 0
73 *223:10 *972:131 5.70419e-05
74 *237:8 *972:28 0.000406483
75 *275:10 *972:16 0.000181422
76 *297:8 *972:107 0.00019747
77 *299:8 *972:107 0
78 *775:14 *972:16 0.000215178
79 *776:71 *972:131 0.000489584
80 *784:25 *972:16 0
81 *784:25 *972:28 0.000694274
82 *808:14 *972:51 0.000585981
83 *820:44 *972:142 6.07611e-06
84 *821:25 *972:142 0.00118534
85 *822:10 *972:16 0.000267467
86 *823:29 *972:10 0.000399437
87 *823:29 *972:99 0.000264924
88 *823:29 *972:107 2.53762e-05
89 *823:40 *972:131 2.11887e-05
90 *825:12 *4196:A2 8.82299e-05
91 *825:12 *972:131 0.000199063
92 *839:81 *972:16 9.43568e-05
93 *839:110 *972:131 5.24177e-05
94 *841:18 *972:51 1.86869e-05
95 *841:22 *972:51 0.00014521
96 *841:37 *972:51 1.01436e-05
97 *843:38 *972:16 0
98 *844:18 *972:16 0
99 *844:18 *972:28 0
100 *907:10 *972:51 0
101 *968:40 *972:142 0
*RES
1 *4961:X *972:4 23 
2 *972:4 *972:10 5.77929 
3 *972:10 *972:16 39.5257 
4 *972:16 *972:28 38.055 
5 *972:28 *972:32 19.1946 
6 *972:32 *4184:A2 42.9196 
7 *972:32 *972:51 31.5196 
8 *972:51 *4181:A2 23 
9 *972:51 *972:68 43.2364 
10 *972:68 *4177:B1 23 
11 *972:16 *972:85 35.4479 
12 *972:85 *4186:B1 38 
13 *972:10 *4190:A2 23 
14 *972:4 *972:99 6.33857 
15 *972:99 *972:107 43.0914 
16 *972:107 *4193:A2 23 
17 *972:99 *972:116 21.815 
18 *972:116 *4196:A2 39.2014 
19 *972:116 *972:131 40.9757 
20 *972:131 *4247:B 23 
21 *972:131 *972:142 47.6043 
22 *972:142 *972:144 15 
23 *972:144 *4245:B 23 
24 *972:144 *4243:B 36.7543 
*END

*D_NET *973 0.0132075
*CONN
*I *4189:A2 I *D sky130_fd_sc_hd__a22o_1
*I *4195:A2 I *D sky130_fd_sc_hd__a22o_1
*I *4199:A2 I *D sky130_fd_sc_hd__a221o_1
*I *4192:A2 I *D sky130_fd_sc_hd__a22o_1
*I *5067:X O *D sky130_fd_sc_hd__clkbuf_2
*CAP
1 *4189:A2 0
2 *4195:A2 3.80122e-05
3 *4199:A2 0
4 *4192:A2 0
5 *5067:X 0.000391037
6 *973:41 0.00091734
7 *973:35 0.00108009
8 *973:24 0.00103472
9 *973:18 0.00155522
10 *973:10 0.00103628
11 *4195:A2 *4973:A 5.3304e-05
12 *973:18 *982:87 0.000747994
13 *973:18 *999:88 2.25419e-05
14 *973:24 *4192:B2 0.000139357
15 *973:24 *979:10 1.19796e-05
16 *973:24 *986:76 0.000163361
17 *973:24 *987:41 0
18 *973:24 *987:52 0
19 *973:24 *1004:90 0
20 *973:35 *4192:B2 0.000136738
21 *973:35 *988:102 0.000195248
22 *973:41 *988:55 0.000213551
23 *973:41 *988:83 0.000351617
24 *973:41 *988:102 2.46345e-05
25 *4186:B2 *973:10 6.51763e-05
26 *4430:B1 *973:41 0
27 *5107:A *973:41 0.00011631
28 *180:96 *973:24 6.17437e-06
29 *180:96 *973:35 4.5051e-05
30 *180:133 *973:18 9.84851e-05
31 *192:12 *973:10 0.000111852
32 *194:8 *973:24 3.34129e-05
33 *194:12 *973:24 0.00154813
34 *249:29 *973:24 6.79006e-05
35 *258:8 *973:24 0.00037534
36 *259:10 *973:24 7.81117e-05
37 *261:29 *973:24 0.000111852
38 *262:8 *973:24 3.62219e-05
39 *263:16 *973:24 0
40 *274:10 *973:10 6.21538e-05
41 *274:10 *973:18 2.11827e-05
42 *386:25 *973:41 3.61397e-05
43 *387:23 *973:41 2.72055e-05
44 *388:10 *973:41 0
45 *772:48 *973:35 0.000181943
46 *772:48 *973:41 0.00124707
47 *772:54 *973:41 0.000447942
48 *775:14 *973:10 0.000193729
49 *781:23 *973:41 8.62876e-05
50 *859:29 *973:24 0
51 *865:10 *973:41 0
52 *972:85 *973:10 9.67842e-05
*RES
1 *5067:X *973:10 46.4721 
2 *973:10 *973:18 40.9993 
3 *973:18 *973:24 39.9814 
4 *973:24 *4192:A2 23 
5 *973:24 *973:35 19.1843 
6 *973:35 *973:41 39.0182 
7 *973:41 *4199:A2 23 
8 *973:35 *4195:A2 38.6214 
9 *973:10 *4189:A2 38 
*END

*D_NET *974 0.0136888
*CONN
*I *5067:A I *D sky130_fd_sc_hd__clkbuf_2
*I *4183:A2 I *D sky130_fd_sc_hd__a22o_1
*I *4180:A2 I *D sky130_fd_sc_hd__a22o_1
*I *4177:A2 I *D sky130_fd_sc_hd__a22o_1
*I *4155:C I *D sky130_fd_sc_hd__and3_4
*I *5068:X O *D sky130_fd_sc_hd__clkbuf_2
*CAP
1 *5067:A 0
2 *4183:A2 0.000429105
3 *4180:A2 5.62337e-05
4 *4177:A2 9.76366e-05
5 *4155:C 0
6 *5068:X 0
7 *974:82 0.00015548
8 *974:32 0.000822137
9 *974:26 0.00102524
10 *974:24 0.000827272
11 *974:14 0.00211296
12 *974:4 0.00117377
13 *4183:A2 *4183:A1 9.8971e-06
14 *4183:A2 *986:57 2.02872e-05
15 *974:14 *1001:20 0
16 *974:14 *1010:18 0
17 *974:24 *986:44 0
18 *974:26 *986:44 0
19 *974:32 *986:44 0
20 *974:32 *1007:12 0.000440396
21 *4156:A1 *974:32 0.000194318
22 *4178:B1 *4177:A2 6.19585e-05
23 *4178:C1 *4177:A2 4.00259e-06
24 *4184:A2 *4183:A2 0
25 *4184:B1 *4183:A2 0
26 *4186:B2 *974:82 5.3304e-05
27 *4310:A2 *974:14 0.000131744
28 *170:6 *974:32 9.84794e-05
29 *170:98 *974:32 0.000582387
30 *180:22 *974:14 0
31 *180:34 *4183:A2 0.000391828
32 *180:34 *974:14 2.46345e-05
33 *180:34 *974:24 0.00114537
34 *180:48 *4180:A2 9.65021e-05
35 *180:67 *974:26 0.00019109
36 *180:67 *974:32 0.00081844
37 *180:133 *974:14 0.000108662
38 *186:8 *974:24 0.000138718
39 *254:27 *974:14 7.68422e-05
40 *255:10 *974:14 0.000729068
41 *255:10 *974:24 0.000829818
42 *784:17 *974:24 0
43 *784:17 *974:26 0
44 *784:17 *974:32 0
45 *784:25 *974:14 0.000143163
46 *784:25 *974:82 0.000230896
47 *819:53 *974:14 1.232e-05
48 *842:17 *974:32 0.00012377
49 *972:32 *974:14 0
50 *972:68 *4177:A2 6.09979e-06
51 *972:68 *974:24 0.000101677
52 *972:68 *974:26 0.000160182
53 *972:85 *974:14 3.04568e-05
54 *972:85 *974:82 3.26966e-05
*RES
1 *5068:X *974:4 23 
2 *974:4 *974:14 37.2057 
3 *974:14 *974:24 20.6936 
4 *974:24 *974:26 3.13821 
5 *974:26 *974:32 38.7282 
6 *974:32 *4155:C 23 
7 *974:26 *4177:A2 40.0611 
8 *974:24 *4180:A2 39.0979 
9 *974:14 *4183:A2 44.5871 
10 *974:4 *974:82 33.625 
11 *974:82 *5067:A 23 
*END

*D_NET *975 0.0197282
*CONN
*I *4427:A I *D sky130_fd_sc_hd__and3_1
*I *4426:B1 I *D sky130_fd_sc_hd__a21oi_1
*I *4199:B2 I *D sky130_fd_sc_hd__a221o_1
*I *4689:A0 I *D sky130_fd_sc_hd__mux2_1
*I *4549:D I *D sky130_fd_sc_hd__and4b_1
*I *4591:D I *D sky130_fd_sc_hd__and4b_1
*I *4632:D I *D sky130_fd_sc_hd__and4b_1
*I *4145:A I *D sky130_fd_sc_hd__inv_2
*I *4663:D I *D sky130_fd_sc_hd__and4b_1
*I *4264:A0 I *D sky130_fd_sc_hd__mux2_1
*I *4962:X O *D sky130_fd_sc_hd__buf_6
*CAP
1 *4427:A 5.91998e-05
2 *4426:B1 0
3 *4199:B2 0
4 *4689:A0 0
5 *4549:D 0.000219319
6 *4591:D 3.21328e-05
7 *4632:D 5.39345e-05
8 *4145:A 0
9 *4663:D 0
10 *4264:A0 0
11 *4962:X 0
12 *975:124 0.000253193
13 *975:113 0.000121759
14 *975:105 0.000423908
15 *975:101 0.00180883
16 *975:74 0.00069112
17 *975:63 0.000703681
18 *975:52 0.000210078
19 *975:50 0.000585976
20 *975:38 0.000655261
21 *975:31 0.00136028
22 *975:25 0.00185729
23 *975:12 0.000845309
24 *975:6 0.00197969
25 *4427:A *993:57 9.58714e-05
26 *4549:D *976:122 0.000371119
27 *4591:D *4591:C 1.24376e-05
28 *4632:D *4632:B 1.21972e-05
29 *4632:D *4632:C 1.24376e-05
30 *975:25 *976:14 0.000226907
31 *975:31 *4663:A_N 0.00024917
32 *975:31 *4663:C 7.04281e-05
33 *975:38 *4662:A2_N 2.193e-05
34 *975:38 *4663:A_N 0.000314255
35 *975:38 *4663:C 0.000298162
36 *975:50 *976:51 2.12347e-06
37 *975:50 *977:31 3.2457e-05
38 *975:50 *994:90 2.04389e-05
39 *975:50 *994:110 0.000432903
40 *975:63 *976:74 0.000188926
41 *975:63 *976:87 3.70187e-05
42 *975:63 *994:80 7.70737e-05
43 *975:63 *994:90 0.000152396
44 *975:74 *976:87 0.00021382
45 *975:74 *976:98 0.000429602
46 *975:74 *976:109 0.000188926
47 *975:74 *976:122 3.70187e-05
48 *975:74 *994:80 0.000272312
49 *975:101 *979:10 0
50 *975:113 *979:10 0.000303269
51 *975:124 *4426:A2 5.50106e-05
52 *975:124 *993:57 8.43466e-05
53 *4199:B1 *975:113 1.28818e-05
54 *4263:A *975:12 3.26241e-05
55 *4263:A *975:25 0.000258078
56 *4662:B2 *975:50 0.000192077
57 *4884:CLK *975:31 3.7122e-06
58 *4884:D *975:31 8.54287e-05
59 *4928:A *975:101 0.000107651
60 *4928:A *975:105 9.84851e-05
61 *4928:A *975:113 0
62 *127:8 *975:25 8.36198e-05
63 *170:59 *975:101 0
64 *231:8 *975:25 8.57577e-05
65 *519:12 *4549:D 2.35426e-05
66 *548:10 *975:74 0
67 *549:8 *4549:D 0
68 *556:12 *4591:D 3.61111e-05
69 *614:10 *975:50 0
70 *617:10 *975:50 2.11157e-05
71 *774:10 *975:101 3.83778e-05
72 *774:12 *975:101 0.000335017
73 *774:18 *975:101 0.000428514
74 *794:10 *975:101 0.000165583
75 *796:21 *975:63 0.000135037
76 *796:25 *4549:D 0
77 *796:25 *975:74 0
78 *840:53 *975:101 0
79 *840:55 *975:101 0
80 *840:57 *975:101 0
81 *840:61 *975:12 0
82 *840:61 *975:101 0
83 *841:118 *975:101 0.000926105
84 *859:16 *975:113 0.000191157
85 *866:65 *975:105 3.70071e-06
86 *866:65 *975:124 5.85822e-06
87 *917:25 *975:12 0.000200389
88 *917:25 *975:101 0.000183898
*RES
1 *4962:X *975:6 38 
2 *975:6 *975:12 21.0486 
3 *975:12 *4264:A0 23 
4 *975:12 *975:25 38.9693 
5 *975:25 *975:31 19.9737 
6 *975:31 *4663:D 23 
7 *975:31 *975:38 3.82696 
8 *975:38 *975:50 35.8978 
9 *975:50 *975:52 15 
10 *975:52 *4145:A 23 
11 *975:52 *975:63 19.5364 
12 *975:63 *4632:D 38.7509 
13 *975:63 *975:74 11.4136 
14 *975:74 *4591:D 38.7509 
15 *975:74 *4549:D 43.3495 
16 *975:38 *4689:A0 23 
17 *975:6 *975:101 40.9936 
18 *975:101 *975:105 16.5743 
19 *975:105 *975:113 34.1688 
20 *975:113 *4199:B2 23 
21 *975:105 *975:124 3.16929 
22 *975:124 *4426:B1 23 
23 *975:124 *4427:A 24.0979 
*END

*D_NET *976 0.016295
*CONN
*I *4506:A1_N I *D sky130_fd_sc_hd__o2bb2a_1
*I *4549:C I *D sky130_fd_sc_hd__and4b_1
*I *4591:C I *D sky130_fd_sc_hd__and4b_1
*I *4592:A1_N I *D sky130_fd_sc_hd__o2bb2a_1
*I *4631:A1_N I *D sky130_fd_sc_hd__o2bb2a_1
*I *4632:C I *D sky130_fd_sc_hd__and4b_1
*I *4662:A1_N I *D sky130_fd_sc_hd__o2bb2a_1
*I *4689:A1 I *D sky130_fd_sc_hd__mux2_1
*I *4663:C I *D sky130_fd_sc_hd__and4b_1
*I *4262:A0 I *D sky130_fd_sc_hd__mux2_1
*I *4963:X O *D sky130_fd_sc_hd__clkbuf_2
*CAP
1 *4506:A1_N 0
2 *4549:C 0
3 *4591:C 6.4297e-05
4 *4592:A1_N 1.08902e-05
5 *4631:A1_N 3.76257e-05
6 *4632:C 6.15065e-05
7 *4662:A1_N 0.000333493
8 *4689:A1 0
9 *4663:C 0.000237262
10 *4262:A0 0
11 *4963:X 0
12 *976:135 0.000642474
13 *976:122 0.000823154
14 *976:109 0.000319016
15 *976:98 0.000228265
16 *976:87 0.000248177
17 *976:74 0.00029796
18 *976:51 0.000951061
19 *976:29 0.000362747
20 *976:23 0.00217227
21 *976:14 0.000248626
22 *976:4 0.00184708
23 *4591:C *4591:B 6.17437e-06
24 *4592:A1_N *4592:A2_N 6.17437e-06
25 *4632:C *4632:B 2.64616e-05
26 *976:51 *994:90 8.71386e-05
27 *976:74 *994:90 0.000139846
28 *976:135 *4506:B1 0.000143377
29 *976:135 *4507:B 8.34104e-06
30 *976:135 *4512:B 0.000234373
31 *976:135 *977:46 0
32 *976:135 *998:84 0.000127272
33 *976:135 *998:92 0.000243587
34 *976:135 *1000:62 7.88926e-05
35 *976:135 *1003:10 0
36 *4263:A *976:14 9.91548e-05
37 *4549:D *976:122 0.000371119
38 *4591:D *4591:C 1.24376e-05
39 *4632:D *4632:C 1.24376e-05
40 *4662:B2 *4662:A1_N 9.58714e-05
41 *4662:B2 *976:74 0.000118475
42 *4664:A *976:51 0.000100477
43 *4664:B *976:29 1.51481e-05
44 *4688:A2 *976:51 6.41405e-05
45 *161:19 *976:74 0.00014411
46 *161:19 *976:87 0.000241616
47 *161:30 *976:87 1.01436e-05
48 *161:30 *976:98 0.000419458
49 *161:41 *976:98 1.01436e-05
50 *161:41 *976:109 0.000181013
51 *161:41 *976:122 0.000451354
52 *161:41 *976:135 0.000206568
53 *161:52 *976:135 0.00102695
54 *556:12 *4591:C 1.21972e-05
55 *580:18 *4631:A1_N 5.46366e-05
56 *587:10 *976:51 7.68576e-05
57 *587:10 *976:74 2.01531e-05
58 *617:10 *976:29 3.21898e-05
59 *617:27 *976:51 0.000366305
60 *618:6 *976:51 5.00237e-05
61 *619:10 *976:51 0.00010766
62 *642:18 *4662:A1_N 0.000203624
63 *906:10 *976:14 0.000110267
64 *975:25 *976:14 0.000226907
65 *975:31 *4663:C 7.04281e-05
66 *975:38 *4663:C 0.000298162
67 *975:50 *976:51 2.12347e-06
68 *975:63 *976:74 0.000188926
69 *975:63 *976:87 3.70187e-05
70 *975:74 *976:87 0.00021382
71 *975:74 *976:98 0.000429602
72 *975:74 *976:109 0.000188926
73 *975:74 *976:122 3.70187e-05
*RES
1 *4963:X *976:4 23 
2 *976:4 *976:14 36.0071 
3 *976:14 *4262:A0 23 
4 *976:4 *976:23 21.605 
5 *976:23 *976:29 31.5536 
6 *976:29 *4663:C 26.9564 
7 *976:29 *4689:A1 23 
8 *976:23 *976:51 27.0764 
9 *976:51 *4662:A1_N 43.6084 
10 *976:51 *976:74 5.48929 
11 *976:74 *4632:C 39.1186 
12 *976:74 *976:87 3.31429 
13 *976:87 *4631:A1_N 38.637 
14 *976:87 *976:98 5.77929 
15 *976:98 *4592:A1_N 38.1605 
16 *976:98 *976:109 2.61 
17 *976:109 *4591:C 39.1186 
18 *976:109 *976:122 6.13143 
19 *976:122 *4549:C 38 
20 *976:122 *976:135 33.2855 
21 *976:135 *4506:A1_N 23 
*END

*D_NET *977 0.0275092
*CONN
*I *4507:C I *D sky130_fd_sc_hd__and4b_1
*I *4461:C I *D sky130_fd_sc_hd__and4b_1
*I *4460:A1_N I *D sky130_fd_sc_hd__o2bb2a_1
*I *4372:B1 I *D sky130_fd_sc_hd__o211a_1
*I *4373:A1 I *D sky130_fd_sc_hd__a211oi_1
*I *4195:B2 I *D sky130_fd_sc_hd__a22o_1
*I *4414:A I *D sky130_fd_sc_hd__and4_1
*I *4416:B2 I *D sky130_fd_sc_hd__a22o_1
*I *4548:A1_N I *D sky130_fd_sc_hd__o2bb2a_1
*I *4963:A I *D sky130_fd_sc_hd__clkbuf_2
*I *4964:X O *D sky130_fd_sc_hd__buf_2
*CAP
1 *4507:C 3.63832e-05
2 *4461:C 8.64614e-05
3 *4460:A1_N 0
4 *4372:B1 0.000277005
5 *4373:A1 0
6 *4195:B2 0
7 *4414:A 0
8 *4416:B2 0
9 *4548:A1_N 0
10 *4963:A 0
11 *4964:X 4.84662e-05
12 *977:117 0.00117607
13 *977:106 6.04047e-05
14 *977:100 0.00151065
15 *977:92 0.00252269
16 *977:83 0.000417421
17 *977:68 0.000361637
18 *977:64 0.000617076
19 *977:54 0.000526363
20 *977:52 0.000544403
21 *977:46 0.00136554
22 *977:31 0.00198394
23 *977:21 0.00271637
24 *977:12 0.000271786
25 *977:6 0.00195079
26 *4372:B1 *4372:C1 0.000147644
27 *4461:C *4461:A_N 0.000126914
28 *4461:C *4461:B 0.000267173
29 *4507:C *4507:B 5.50106e-05
30 *977:31 *4631:B1 0.000486504
31 *977:31 *978:49 8.92841e-05
32 *977:31 *978:96 2.95125e-05
33 *977:31 *994:63 0
34 *977:31 *996:100 0.000632358
35 *977:31 *996:102 7.70737e-05
36 *977:31 *997:136 0.000111045
37 *977:31 *1000:132 0.000242944
38 *977:46 *4512:B 0
39 *977:46 *998:84 0
40 *977:46 *998:92 0
41 *977:46 *1003:10 6.08032e-05
42 *977:52 *1003:10 6.48049e-05
43 *977:52 *1003:30 0.000639359
44 *977:54 *4461:A_N 5.5525e-05
45 *977:54 *4461:B 6.7991e-05
46 *977:64 *4461:A_N 0.00017077
47 *977:64 *4461:B 4.03463e-05
48 *977:64 *1003:30 0
49 *977:64 *1003:45 0.000182245
50 *977:64 *1006:14 0
51 *977:68 *979:57 0.000191166
52 *977:83 *979:57 1.14452e-05
53 *977:83 *1003:73 1.62615e-05
54 *977:83 *1006:45 0.000254155
55 *977:83 *1008:14 0.000141879
56 *977:92 *1006:59 0.000456477
57 *977:92 *1008:14 0.000220351
58 *977:100 *997:55 0.000271692
59 *977:100 *997:69 9.41764e-05
60 *977:100 *1003:73 0.000162623
61 *977:106 *979:10 0.000196549
62 *977:117 *4372:C1 5.50106e-05
63 *977:117 *979:106 0
64 *977:117 *1006:59 0.00021039
65 *977:117 *1008:14 0.000229501
66 *977:117 *1008:31 3.24466e-05
67 *4168:A1 *977:12 0
68 *4343:A *977:117 6.16531e-05
69 *4343:B *977:117 0
70 *4344:A *977:117 1.14452e-05
71 *4344:B *977:117 0
72 *4372:A2 *4372:B1 2.90712e-05
73 *4461:D *4461:C 0.00014196
74 *4548:B2 *977:31 9.84794e-05
75 *4550:A *977:31 9.72057e-06
76 *4550:A *977:46 0.000111596
77 *4662:B2 *977:31 0
78 *4964:A *977:21 0.000178371
79 *4990:A *977:64 2.33476e-05
80 *127:8 *977:12 2.71504e-05
81 *161:19 *977:31 0
82 *161:41 *977:31 0
83 *161:52 *977:31 0
84 *161:82 *977:52 5.94125e-05
85 *161:82 *977:64 0
86 *301:19 *977:117 0.000207134
87 *304:14 *977:117 0
88 *334:10 *4372:B1 0.000141954
89 *338:14 *977:100 9.84851e-05
90 *340:8 *977:117 6.33511e-05
91 *348:10 *977:100 0.000358425
92 *351:16 *977:100 0.00139953
93 *393:14 *977:100 0.000137651
94 *419:8 *977:64 0
95 *441:8 *977:68 0
96 *441:8 *977:83 0
97 *442:6 *977:64 0.000164518
98 *464:10 *4507:C 8.41505e-05
99 *506:12 *977:46 3.70187e-05
100 *511:10 *977:46 0
101 *511:16 *977:46 6.68822e-05
102 *514:21 *977:31 0
103 *614:10 *977:31 0.000234484
104 *774:119 *977:12 0
105 *781:35 *977:64 6.99589e-05
106 *796:21 *977:6 1.39317e-05
107 *796:21 *977:21 0.000552599
108 *796:25 *977:46 0.000335249
109 *796:36 *977:52 0
110 *859:29 *977:106 0.000194327
111 *975:50 *977:31 3.2457e-05
112 *976:135 *977:46 0
*RES
1 *4964:X *977:6 23.6214 
2 *977:6 *977:12 34.3707 
3 *977:12 *4963:A 23 
4 *977:6 *977:21 40.3957 
5 *977:21 *977:31 42.752 
6 *977:31 *4548:A1_N 23 
7 *977:31 *977:46 32.9852 
8 *977:46 *977:52 24.9221 
9 *977:52 *977:54 0.792321 
10 *977:54 *977:64 41.1391 
11 *977:64 *977:68 17.61 
12 *977:68 *4416:B2 38 
13 *977:68 *977:83 7.16714 
14 *977:83 *4414:A 38 
15 *977:83 *977:92 6.13143 
16 *977:92 *977:100 49.6136 
17 *977:100 *977:106 32.61 
18 *977:106 *4195:B2 23 
19 *977:92 *977:117 33.415 
20 *977:117 *4373:A1 23 
21 *977:117 *4372:B1 27.8057 
22 *977:54 *4460:A1_N 23 
23 *977:52 *4461:C 26.48 
24 *977:46 *4507:C 39.0979 
*END

*D_NET *978 0.0173317
*CONN
*I *4260:A0 I *D sky130_fd_sc_hd__mux2_1
*I *4561:A1 I *D sky130_fd_sc_hd__a22o_1
*I *4512:A I *D sky130_fd_sc_hd__nand2_1
*I *4467:A I *D sky130_fd_sc_hd__nand2_1
*I *4630:A1 I *D sky130_fd_sc_hd__a31o_1
*I *4625:A1 I *D sky130_fd_sc_hd__a21oi_2
*I *4624:A1 I *D sky130_fd_sc_hd__a22oi_1
*I *4660:A1 I *D sky130_fd_sc_hd__a21oi_2
*I *4599:A I *D sky130_fd_sc_hd__nand2_1
*I *4560:A I *D sky130_fd_sc_hd__nand4_1
*I *4965:X O *D sky130_fd_sc_hd__buf_2
*CAP
1 *4260:A0 0
2 *4561:A1 0
3 *4512:A 0.000109839
4 *4467:A 0
5 *4630:A1 0
6 *4625:A1 0
7 *4624:A1 0.000193744
8 *4660:A1 0.000105257
9 *4599:A 9.37445e-05
10 *4560:A 0
11 *4965:X 0.000369846
12 *978:104 0.000634389
13 *978:96 0.00111793
14 *978:73 0.00038975
15 *978:71 0.000196005
16 *978:60 0.000466847
17 *978:49 0.000921773
18 *978:43 0.00178881
19 *978:34 0.000135202
20 *978:28 0.00148055
21 *978:20 0.00142643
22 *978:10 0.00139959
23 *4624:A1 *981:54 5.50106e-05
24 *4624:A1 *983:54 9.5628e-05
25 *4660:A1 *994:69 0.000138718
26 *978:10 *979:6 6.00866e-05
27 *978:10 *979:23 2.65879e-05
28 *978:10 *999:27 8.19866e-06
29 *978:20 *4556:A2 0.00017849
30 *978:20 *4561:A2 0
31 *978:20 *996:6 4.39725e-05
32 *978:20 *996:19 0.000437691
33 *978:20 *997:12 2.32004e-05
34 *978:28 *981:98 0.000357631
35 *978:28 *994:43 0
36 *978:34 *996:49 4.55577e-05
37 *978:43 *4514:B2 8.10145e-05
38 *978:43 *981:98 0.000182832
39 *978:43 *981:122 0.000338288
40 *978:43 *996:81 0.000274078
41 *978:43 *996:100 0.000386967
42 *978:49 *994:63 0
43 *978:49 *1000:132 0.000161121
44 *978:60 *983:60 0
45 *978:60 *994:63 0.000666476
46 *978:60 *994:69 1.01436e-05
47 *978:60 *1000:37 0
48 *978:73 *4557:B 1.76557e-05
49 *978:73 *4557:C 9.70259e-06
50 *978:73 *981:54 0.000217372
51 *978:73 *983:54 7.06229e-05
52 *978:96 *4514:A1 0
53 *978:96 *979:42 0
54 *978:96 *994:63 0
55 *978:96 *1000:132 6.16531e-05
56 *978:104 *979:42 0
57 *978:104 *1000:55 0.000327317
58 *4166:S *978:20 0.000275809
59 *4261:A *978:10 7.70737e-05
60 *4261:A *978:20 0.00021263
61 *4471:A *978:104 3.22879e-05
62 *4516:A *4512:A 9.84851e-05
63 *4560:C *978:20 2.18409e-05
64 *4561:B1 *978:20 0
65 *4590:A *978:28 0
66 *4590:A *978:34 0
67 *4624:B1 *4624:A1 1.14154e-05
68 *4625:A2 *978:60 0
69 *4625:A2 *978:73 0.00010018
70 *4625:B1 *4624:A1 5.50106e-05
71 *161:52 *978:96 0
72 *161:52 *978:104 0
73 *463:16 *978:104 0.000141954
74 *472:8 *978:96 0
75 *473:8 *978:96 0.000138718
76 *504:8 *978:96 0
77 *504:20 *4512:A 0.00010018
78 *513:8 *978:20 0.000116477
79 *514:8 *978:73 9.90162e-05
80 *514:21 *4660:A1 0
81 *514:21 *978:73 5.50049e-05
82 *515:6 *4624:A1 1.94812e-05
83 *516:12 *978:28 1.19796e-05
84 *516:23 *978:28 0
85 *516:23 *978:34 0
86 *553:36 *4660:A1 7.91596e-05
87 *553:36 *978:73 9.67842e-05
88 *556:8 *978:60 0
89 *774:18 *978:10 8.62783e-05
90 *774:18 *978:20 0.000240435
91 *840:53 *978:20 3.70094e-05
92 *977:31 *978:49 8.92841e-05
93 *977:31 *978:96 2.95125e-05
*RES
1 *4965:X *978:10 43.6343 
2 *978:10 *978:20 36.9571 
3 *978:20 *978:28 36.5664 
4 *978:28 *978:34 32.2579 
5 *978:34 *4560:A 23 
6 *978:28 *978:43 29.9143 
7 *978:43 *978:49 23.6793 
8 *978:49 *4599:A 24.5743 
9 *978:49 *978:60 23.9486 
10 *978:60 *4660:A1 40.61 
11 *978:60 *978:71 15 
12 *978:71 *978:73 6.815 
13 *978:73 *4624:A1 27.5986 
14 *978:73 *4625:A1 23 
15 *978:71 *4630:A1 23 
16 *978:43 *978:96 7.01179 
17 *978:96 *978:104 27.9568 
18 *978:104 *4467:A 23 
19 *978:96 *4512:A 40.5168 
20 *978:20 *4561:A1 23 
21 *978:10 *4260:A0 38 
*END

*D_NET *979 0.0238996
*CONN
*I *4547:A1 I *D sky130_fd_sc_hd__a31o_1
*I *4342:A I *D sky130_fd_sc_hd__nand2_1
*I *4413:A1 I *D sky130_fd_sc_hd__a31o_1
*I *4375:A I *D sky130_fd_sc_hd__nand2_1
*I *4414:B I *D sky130_fd_sc_hd__and4_1
*I *4416:A1 I *D sky130_fd_sc_hd__a22o_1
*I *4505:A1 I *D sky130_fd_sc_hd__a31o_1
*I *4965:A I *D sky130_fd_sc_hd__buf_2
*I *4192:B2 I *D sky130_fd_sc_hd__a22o_1
*I *4966:X O *D sky130_fd_sc_hd__buf_2
*CAP
1 *4547:A1 0
2 *4342:A 0.000367197
3 *4413:A1 4.60455e-05
4 *4375:A 2.44422e-05
5 *4414:B 2.32701e-05
6 *4416:A1 0
7 *4505:A1 0.000165782
8 *4965:A 4.01155e-05
9 *4192:B2 0.000166192
10 *4966:X 8.51796e-05
11 *979:106 0.000951694
12 *979:89 0.00116925
13 *979:76 0.000961553
14 *979:61 0.000399116
15 *979:57 0.000953273
16 *979:42 0.00165845
17 *979:36 0.00149054
18 *979:23 0.000973174
19 *979:10 0.00177242
20 *979:8 0.00160623
21 *979:6 0.000134273
22 *4192:B2 *997:97 0.000137651
23 *4342:A *1006:67 0.000288867
24 *4342:A *1008:14 0
25 *4413:A1 *1006:67 3.20914e-05
26 *4413:A1 *1008:14 0
27 *4414:B *4414:D 5.3304e-05
28 *4505:A1 *1000:47 0.000349813
29 *979:6 *999:27 0.000221084
30 *979:10 *993:70 1.47563e-05
31 *979:10 *995:48 0
32 *979:10 *995:68 0.000212332
33 *979:10 *995:81 0.00026323
34 *979:23 *999:27 0.000185434
35 *979:36 *4554:A2 0.000443673
36 *979:36 *998:25 9.5877e-05
37 *979:36 *998:76 0.000471314
38 *979:36 *999:27 0.0010436
39 *979:42 *984:59 0.000117971
40 *979:42 *1000:43 0
41 *979:57 *1000:47 0.000429534
42 *979:57 *1000:55 0.000138195
43 *979:57 *1000:62 9.84851e-05
44 *979:57 *1003:30 0
45 *979:57 *1006:14 0.000278717
46 *979:57 *1006:30 0.000302884
47 *979:57 *1006:45 2.46345e-05
48 *979:76 *1003:54 0.000349386
49 *979:76 *1003:73 5.94125e-05
50 *979:89 *4414:D 4.2573e-05
51 *979:89 *1003:73 0
52 *979:89 *1006:59 0
53 *979:106 *1006:59 0.000104752
54 *4380:A *4375:A 9.84851e-05
55 *4380:A *979:106 0.000141954
56 *4380:B *979:106 3.34247e-05
57 *4470:A_N *4505:A1 0.00013961
58 *4470:A_N *979:57 7.88926e-05
59 *4474:A2 *979:10 0.000431843
60 *4505:B1 *4505:A1 6.99492e-05
61 *4515:A_N *979:36 2.93845e-05
62 *4554:B1 *979:10 0
63 *4554:B1 *979:36 5.50106e-05
64 *5107:A *979:10 0.000131735
65 *161:52 *979:57 4.26957e-05
66 *161:65 *979:57 0.000176658
67 *180:82 *979:10 0.000146967
68 *181:50 *4414:B 5.3304e-05
69 *181:50 *979:89 0.000183733
70 *194:8 *4192:B2 2.93845e-05
71 *304:14 *4342:A 0.00010018
72 *339:14 *979:106 9.84851e-05
73 *339:27 *4413:A1 0
74 *339:27 *979:106 4.6595e-05
75 *373:12 *4375:A 5.41385e-05
76 *373:12 *979:106 9.24795e-06
77 *374:8 *979:76 3.56433e-05
78 *374:18 *979:76 0
79 *375:10 *979:76 0
80 *376:10 *979:76 4.83778e-05
81 *376:22 *979:76 0
82 *392:12 *979:89 0
83 *418:12 *979:61 5.30121e-05
84 *418:12 *979:76 8.48502e-06
85 *418:14 *979:76 2.93845e-05
86 *430:10 *979:57 0
87 *439:8 *979:57 0
88 *472:8 *979:42 2.76611e-06
89 *504:8 *979:42 0
90 *511:10 *979:36 0.000516936
91 *841:118 *979:10 0.000368752
92 *859:16 *979:10 0.00064177
93 *859:29 *979:10 0.000217885
94 *965:10 *979:57 0
95 *973:24 *4192:B2 0.000139357
96 *973:24 *979:10 1.19796e-05
97 *973:35 *4192:B2 0.000136738
98 *975:101 *979:10 0
99 *975:113 *979:10 0.000303269
100 *977:68 *979:57 0.000191166
101 *977:83 *979:57 1.14452e-05
102 *977:106 *979:10 0.000196549
103 *977:117 *979:106 0
104 *978:10 *979:6 6.00866e-05
105 *978:10 *979:23 2.65879e-05
106 *978:96 *979:42 0
107 *978:104 *979:42 0
*RES
1 *4966:X *979:6 25.5271 
2 *979:6 *979:8 15 
3 *979:8 *979:10 44.8671 
4 *979:10 *4192:B2 41.9771 
5 *979:6 *979:23 2.05071 
6 *979:23 *4965:A 23.8493 
7 *979:23 *979:36 26.9907 
8 *979:36 *979:42 40.7093 
9 *979:42 *4505:A1 27.93 
10 *979:42 *979:57 38.2621 
11 *979:57 *979:61 16.0979 
12 *979:61 *4416:A1 23 
13 *979:61 *979:76 37.0221 
14 *979:76 *4414:B 23.6214 
15 *979:76 *979:89 25.9993 
16 *979:89 *4375:A 39.0979 
17 *979:89 *979:106 38.1407 
18 *979:106 *4413:A1 38.8493 
19 *979:106 *4342:A 47.1143 
20 *979:36 *4547:A1 23 
*END

*D_NET *980 0.000354618
*CONN
*I *4150:D I *D sky130_fd_sc_hd__or4_1
*I *5064:X O *D sky130_fd_sc_hd__clkbuf_1
*CAP
1 *4150:D 4.42822e-05
2 *5064:X 4.8046e-05
3 *980:8 9.23282e-05
4 *4150:B *980:8 0.000114092
5 *5064:A *980:8 5.58694e-05
*RES
1 *5064:X *980:8 39.5536 
2 *980:8 *4150:D 38.6214 
*END

*D_NET *981 0.0175581
*CONN
*I *4514:B2 I *D sky130_fd_sc_hd__a22o_1
*I *4513:A I *D sky130_fd_sc_hd__and4_1
*I *4468:A I *D sky130_fd_sc_hd__and4_1
*I *4469:B2 I *D sky130_fd_sc_hd__a22o_1
*I *4556:B2 I *D sky130_fd_sc_hd__a22o_1
*I *4559:A I *D sky130_fd_sc_hd__nand4_1
*I *4558:A I *D sky130_fd_sc_hd__nand3_1
*I *4557:A I *D sky130_fd_sc_hd__and3_1
*I *4597:A1 I *D sky130_fd_sc_hd__o21a_1
*I *4258:A0 I *D sky130_fd_sc_hd__mux2_1
*I *4967:X O *D sky130_fd_sc_hd__buf_2
*CAP
1 *4514:B2 0.000131077
2 *4513:A 0
3 *4468:A 0.000192392
4 *4469:B2 0
5 *4556:B2 0
6 *4559:A 0
7 *4558:A 0
8 *4557:A 0
9 *4597:A1 0
10 *4258:A0 0
11 *4967:X 0.00016119
12 *981:122 0.000227072
13 *981:102 0.000580349
14 *981:98 0.000857435
15 *981:85 0.000499281
16 *981:78 0.000201438
17 *981:68 0.000426151
18 *981:54 0.000454444
19 *981:37 0.000638816
20 *981:31 0.000712729
21 *981:21 0.00199912
22 *981:12 0.00137185
23 *981:10 0.00016119
24 *4468:A *4468:C 6.17437e-06
25 *4468:A *985:65 8.16356e-05
26 *4468:A *998:39 9.67842e-05
27 *4468:A *1004:137 5.97178e-05
28 *4514:B2 *4514:B1 2.02517e-05
29 *4514:B2 *994:52 7.27182e-05
30 *4514:B2 *996:73 0.000178517
31 *4514:B2 *996:81 0.00014196
32 *981:10 *1000:31 5.3304e-05
33 *981:21 *995:8 5.50106e-05
34 *981:31 *983:10 7.80035e-05
35 *981:31 *984:27 1.14452e-05
36 *981:31 *984:42 0.000148736
37 *981:31 *992:29 0.000139657
38 *981:37 *4597:A2 0.000397108
39 *981:37 *983:10 3.70187e-05
40 *981:37 *984:27 6.48142e-05
41 *981:37 *992:79 0
42 *981:54 *4597:A2 2.4754e-05
43 *981:54 *992:79 5.50106e-05
44 *981:54 *992:85 4.59768e-05
45 *981:68 *992:29 0.000296937
46 *981:78 *983:29 6.16531e-05
47 *981:78 *1000:31 0.000175903
48 *981:85 *4556:A2 0.000181952
49 *981:85 *992:29 8.62876e-05
50 *981:98 *4556:A2 3.92407e-05
51 *981:98 *994:43 7.55595e-05
52 *981:98 *997:23 0.000530627
53 *981:98 *997:130 0.000430436
54 *981:102 *996:49 5.94125e-05
55 *981:102 *997:27 0
56 *981:122 *996:73 6.36307e-05
57 *981:122 *997:130 0.000221997
58 *4258:A1 *981:10 0.000296017
59 *4258:A1 *981:21 5.50049e-05
60 *4258:S *981:21 1.5769e-05
61 *4598:B *981:54 0
62 *4624:A1 *981:54 5.50106e-05
63 *4980:A *981:21 4.9662e-05
64 *224:44 *981:10 0.000293785
65 *553:8 *981:54 0
66 *553:26 *981:54 0.000185434
67 *580:8 *981:54 0.000114092
68 *787:8 *981:31 0
69 *788:25 *981:31 0.000141888
70 *788:25 *981:68 0.000289034
71 *788:25 *981:85 0.000262187
72 *788:25 *981:98 0.000185104
73 *792:23 *981:21 0.000455893
74 *792:23 *981:31 0.000521102
75 *793:23 *4468:A 0.000194309
76 *793:23 *981:102 0.000659894
77 *978:28 *981:98 0.000357631
78 *978:43 *4514:B2 8.10145e-05
79 *978:43 *981:98 0.000182832
80 *978:43 *981:122 0.000338288
81 *978:73 *981:54 0.000217372
*RES
1 *4967:X *981:10 42.64 
2 *981:10 *981:12 15 
3 *981:12 *4258:A0 23 
4 *981:12 *981:21 35.155 
5 *981:21 *981:31 40.0257 
6 *981:31 *981:37 20.1371 
7 *981:37 *4597:A1 23 
8 *981:37 *981:54 39.8393 
9 *981:54 *4557:A 23 
10 *981:31 *4558:A 38 
11 *981:21 *981:68 4.01857 
12 *981:68 *981:78 47.9 
13 *981:78 *4559:A 23 
14 *981:68 *981:85 3.66643 
15 *981:85 *4556:B2 38 
16 *981:85 *981:98 28.2364 
17 *981:98 *981:102 23.9486 
18 *981:102 *4469:B2 38 
19 *981:102 *4468:A 42.6607 
20 *981:98 *981:122 3.95643 
21 *981:122 *4513:A 23 
22 *981:122 *4514:B2 27.4743 
*END

*D_NET *982 0.0126488
*CONN
*I *4315:A I *D sky130_fd_sc_hd__and4_1
*I *4314:B2 I *D sky130_fd_sc_hd__a22oi_1
*I *4189:B2 I *D sky130_fd_sc_hd__a22o_1
*I *4340:B2 I *D sky130_fd_sc_hd__a22oi_1
*I *4339:A I *D sky130_fd_sc_hd__and4_1
*I *4377:A I *D sky130_fd_sc_hd__and4_1
*I *4378:B2 I *D sky130_fd_sc_hd__a22o_1
*I *4376:A I *D sky130_fd_sc_hd__nand2_1
*I *4968:X O *D sky130_fd_sc_hd__clkbuf_2
*CAP
1 *4315:A 0
2 *4314:B2 0
3 *4189:B2 0
4 *4340:B2 0
5 *4339:A 0
6 *4377:A 3.68431e-05
7 *4378:B2 2.46456e-05
8 *4376:A 0
9 *4968:X 0
10 *982:87 0.0013997
11 *982:83 0.00172011
12 *982:79 0.000909536
13 *982:66 0.000353835
14 *982:58 0.000999522
15 *982:49 0.00049052
16 *982:38 0.000794041
17 *982:23 0.000925939
18 *982:12 0.000179224
19 *982:4 0.000757278
20 *4377:A *984:59 6.07611e-06
21 *4377:A *984:70 2.91533e-05
22 *982:12 *997:55 0
23 *982:12 *1000:93 0.000140661
24 *982:23 *1000:93 0
25 *982:49 *984:70 0.000406671
26 *982:49 *984:78 1.19796e-05
27 *982:49 *1003:116 0
28 *982:58 *984:78 3.39231e-05
29 *982:66 *1003:93 1.74874e-06
30 *982:66 *1003:116 3.87221e-06
31 *982:66 *1006:67 1.05441e-05
32 *982:66 *1006:73 0.000121303
33 *982:79 *984:78 0.000295687
34 *982:79 *984:91 2.8936e-05
35 *982:79 *1006:73 2.18409e-05
36 *982:83 *4314:A2 0.000121618
37 *982:83 *4314:B1 1.92007e-05
38 *982:83 *1006:73 7.73389e-05
39 *982:87 *4302:B 5.3304e-05
40 *982:87 *984:99 0.000128969
41 *982:87 *984:107 0.000102093
42 *982:87 *999:88 0.000330455
43 *4302:D *982:87 9.41704e-05
44 *4314:A1 *982:83 2.45645e-05
45 *4425:B *982:12 6.68793e-05
46 *4459:B1 *982:12 3.92407e-05
47 *181:40 *982:12 1.41077e-05
48 *278:10 *982:83 5.67058e-05
49 *337:21 *982:12 1.02387e-05
50 *339:8 *4377:A 3.70094e-05
51 *384:8 *982:12 2.70366e-05
52 *385:10 *982:12 9.76261e-05
53 *385:10 *982:23 0.000237623
54 *391:6 *982:12 0.000226306
55 *391:6 *982:23 5.67058e-05
56 *391:12 *982:23 5.21127e-05
57 *792:33 *982:23 0.00020195
58 *792:33 *982:38 7.49001e-05
59 *792:39 *982:38 4.70953e-05
60 *792:39 *982:49 0
61 *973:18 *982:87 0.000747994
*RES
1 *4968:X *982:4 23 
2 *982:4 *982:12 36.1936 
3 *982:12 *4376:A 23 
4 *982:4 *982:23 27.1075 
5 *982:23 *4378:B2 38.6732 
6 *982:23 *982:38 5.17857 
7 *982:38 *4377:A 39.0254 
8 *982:38 *982:49 10.8854 
9 *982:49 *4339:A 38 
10 *982:49 *982:58 1.55357 
11 *982:58 *982:66 35.3857 
12 *982:66 *4340:B2 38 
13 *982:58 *982:79 28.4436 
14 *982:79 *982:83 7.06357 
15 *982:83 *982:87 29.7043 
16 *982:87 *4189:B2 23 
17 *982:83 *4314:B2 23 
18 *982:79 *4315:A 23 
*END

*D_NET *983 0.0157894
*CONN
*I *4557:B I *D sky130_fd_sc_hd__and3_1
*I *4514:A1 I *D sky130_fd_sc_hd__a22o_1
*I *4513:B I *D sky130_fd_sc_hd__and4_1
*I *4423:B2 I *D sky130_fd_sc_hd__a22o_1
*I *4422:A I *D sky130_fd_sc_hd__nand4_1
*I *4468:B I *D sky130_fd_sc_hd__and4_1
*I *4558:B I *D sky130_fd_sc_hd__nand3_1
*I *4556:A1 I *D sky130_fd_sc_hd__a22o_1
*I *4559:B I *D sky130_fd_sc_hd__nand4_1
*I *4597:A2 I *D sky130_fd_sc_hd__o21a_1
*I *4969:X O *D sky130_fd_sc_hd__buf_2
*CAP
1 *4557:B 3.97175e-05
2 *4514:A1 0.000367457
3 *4513:B 0
4 *4423:B2 0.000126555
5 *4422:A 6.24384e-05
6 *4468:B 0
7 *4558:B 0
8 *4556:A1 7.61774e-05
9 *4559:B 4.99221e-05
10 *4597:A2 0.000253435
11 *4969:X 0
12 *983:89 0.000188994
13 *983:87 0.000846936
14 *983:70 0.00136861
15 *983:64 0.000602432
16 *983:60 0.00105802
17 *983:54 0.00120461
18 *983:29 0.000589299
19 *983:23 0.0004632
20 *983:10 0.000443059
21 *983:4 0.000744714
22 *4422:A *997:42 1.79961e-05
23 *4422:A *998:67 0.000141954
24 *4422:A *999:29 3.33617e-05
25 *4423:B2 *4423:B1 5.50049e-05
26 *4423:B2 *997:42 6.03737e-05
27 *4423:B2 *999:29 7.90568e-05
28 *4423:B2 *999:42 1.83667e-05
29 *4514:A1 *994:63 6.07611e-06
30 *4556:A1 *994:30 0.000100778
31 *4559:B *995:27 5.3304e-05
32 *4597:A2 *994:17 0
33 *983:10 *992:62 2.02872e-05
34 *983:29 *984:23 0.000359326
35 *983:29 *992:51 0.000272383
36 *983:29 *992:62 4.6595e-05
37 *983:29 *994:17 0.000663045
38 *983:29 *994:30 8.72173e-05
39 *983:60 *994:63 0
40 *983:60 *996:81 6.16439e-05
41 *983:60 *1000:37 0.00026917
42 *983:60 *1000:43 0.000287463
43 *983:64 *994:43 4.08664e-05
44 *983:64 *994:52 5.50106e-05
45 *983:70 *4468:C 0.000115382
46 *983:70 *994:43 0.000182826
47 *983:70 *996:53 0.000185573
48 *983:70 *998:25 0.000188916
49 *983:70 *998:29 0.000528168
50 *983:70 *998:46 0.000131744
51 *983:87 *998:46 1.14452e-05
52 *983:87 *998:67 0.0011627
53 *4600:A *983:60 0.000192671
54 *4624:A1 *983:54 9.5628e-05
55 *4625:A2 *983:54 5.41288e-05
56 *4625:A2 *983:60 0.000112169
57 *4625:B1 *983:54 2.93845e-05
58 *382:10 *983:87 0.000271476
59 *471:10 *4514:A1 1.01436e-05
60 *515:6 *983:10 0.000139352
61 *515:6 *983:54 0.000215671
62 *516:12 *4556:A1 0
63 *556:8 *983:60 3.62219e-05
64 *781:35 *4423:B2 5.50049e-05
65 *787:8 *983:10 0
66 *787:8 *983:29 0
67 *792:29 *983:60 5.3402e-05
68 *792:29 *983:70 8.57661e-05
69 *792:29 *983:87 2.34278e-05
70 *792:33 *983:87 6.52489e-06
71 *793:23 *983:70 0
72 *793:23 *983:87 0
73 *978:60 *983:60 0
74 *978:73 *4557:B 1.76557e-05
75 *978:73 *983:54 7.06229e-05
76 *978:96 *4514:A1 0
77 *981:31 *983:10 7.80035e-05
78 *981:37 *4597:A2 0.000397108
79 *981:37 *983:10 3.70187e-05
80 *981:54 *4597:A2 2.4754e-05
81 *981:78 *983:29 6.16531e-05
*RES
1 *4969:X *983:4 23 
2 *983:4 *983:10 18.6043 
3 *983:10 *4597:A2 44.09 
4 *983:10 *983:23 15 
5 *983:23 *983:29 28.9614 
6 *983:29 *4559:B 38.6214 
7 *983:29 *4556:A1 39.5536 
8 *983:23 *4558:B 23 
9 *983:4 *983:54 8.72071 
10 *983:54 *983:60 29.8521 
11 *983:60 *983:64 16.0979 
12 *983:64 *983:70 28.4643 
13 *983:70 *4468:B 38 
14 *983:70 *983:87 37.4129 
15 *983:87 *983:89 15 
16 *983:89 *4422:A 40.4236 
17 *983:89 *4423:B2 41.2314 
18 *983:64 *4513:B 23 
19 *983:60 *4514:A1 42.1429 
20 *983:54 *4557:B 23.6214 
*END

*D_NET *984 0.0324127
*CONN
*I *4339:B I *D sky130_fd_sc_hd__and4_1
*I *4340:A1 I *D sky130_fd_sc_hd__a22oi_1
*I *4303:A1 I *D sky130_fd_sc_hd__a22o_1
*I *4302:A I *D sky130_fd_sc_hd__nand4_1
*I *4186:A1 I *D sky130_fd_sc_hd__a22o_1
*I *4315:B I *D sky130_fd_sc_hd__and4_1
*I *4377:B I *D sky130_fd_sc_hd__and4_1
*I *4469:A1 I *D sky130_fd_sc_hd__a22o_1
*I *4969:A I *D sky130_fd_sc_hd__buf_2
*I *4256:A0 I *D sky130_fd_sc_hd__mux2_1
*I *4970:X O *D sky130_fd_sc_hd__buf_6
*CAP
1 *4339:B 0
2 *4340:A1 0.00019362
3 *4303:A1 7.66549e-05
4 *4302:A 0
5 *4186:A1 0.00136031
6 *4315:B 0
7 *4377:B 0
8 *4469:A1 0
9 *4969:A 0
10 *4256:A0 0
11 *4970:X 0.000196131
12 *984:107 0.00149835
13 *984:99 0.000347006
14 *984:93 0.000285626
15 *984:91 0.0014863
16 *984:78 0.0020579
17 *984:72 0.000779201
18 *984:70 0.000337825
19 *984:59 0.00216046
20 *984:57 0.00205377
21 *984:46 0.00106655
22 *984:42 0.00133182
23 *984:27 0.000513348
24 *984:23 0.00267378
25 *984:16 0.000273122
26 *984:8 0.00311212
27 *4186:A1 *1001:20 3.91683e-06
28 *4340:A1 *4339:D 9.84851e-05
29 *4340:A1 *1005:106 2.61526e-05
30 *4340:A1 *1005:114 4.79612e-05
31 *984:23 *992:25 0.000176911
32 *984:23 *992:51 3.75171e-05
33 *984:23 *992:62 2.43944e-05
34 *984:27 *992:79 0
35 *984:42 *992:79 0
36 *984:46 *996:53 0.000582829
37 *984:46 *997:130 8.9356e-05
38 *984:57 *4521:A 0
39 *984:59 *1000:89 0
40 *984:59 *1003:73 0.000132614
41 *984:70 *1003:73 6.07611e-06
42 *984:70 *1003:93 0.000431193
43 *984:72 *1005:106 2.18409e-05
44 *984:78 *1005:106 0.000102093
45 *984:99 *999:88 0.000362172
46 *984:107 *999:88 0.000182826
47 *4162:A1 *984:16 8.4047e-05
48 *4169:B *984:23 2.93747e-05
49 *4186:B2 *4186:A1 0.000396241
50 *4187:C1 *4186:A1 1.37232e-05
51 *4256:A1 *984:16 0.000280856
52 *4302:D *984:99 9.41704e-05
53 *4303:B2 *984:91 0.00014196
54 *4325:C *984:91 0.000443673
55 *4355:A2 *984:91 7.27182e-05
56 *4377:A *984:59 6.07611e-06
57 *4377:A *984:70 2.91533e-05
58 *4481:A1 *984:59 2.22183e-05
59 *4598:B *984:42 0
60 *4598:B *984:46 2.8936e-05
61 *4844:D *984:23 0.00016727
62 *4845:D *984:23 1.64354e-05
63 *4970:A *984:8 6.17437e-06
64 *4970:A *984:23 0.000121204
65 *181:46 *984:59 0
66 *194:12 *984:107 0.000275473
67 *196:10 *4303:A1 7.48331e-05
68 *196:10 *984:99 0.000138727
69 *199:10 *4303:A1 0
70 *199:10 *984:99 0
71 *228:10 *984:16 5.37348e-06
72 *249:29 *984:107 0.000140661
73 *277:8 *984:91 0
74 *278:10 *984:91 2.29192e-05
75 *278:23 *984:91 5.12328e-05
76 *279:10 *984:91 0.000234596
77 *301:8 *4340:A1 0.000181919
78 *317:8 *984:91 7.43025e-06
79 *339:8 *984:59 2.36844e-05
80 *427:10 *984:59 4.66036e-05
81 *428:10 *984:57 0.00022109
82 *428:10 *984:59 0
83 *429:8 *984:59 0.000140958
84 *430:10 *984:59 0
85 *430:20 *984:59 0.000125904
86 *437:12 *984:59 0
87 *438:10 *984:59 3.31683e-05
88 *439:8 *984:59 0
89 *440:8 *984:59 0.000380435
90 *441:8 *984:59 0
91 *463:8 *984:59 5.56203e-05
92 *478:12 *984:57 0.000164354
93 *479:10 *984:57 0.000269438
94 *775:14 *4186:A1 0.000407438
95 *775:116 *4186:A1 2.93747e-05
96 *788:8 *984:23 2.80924e-06
97 *792:23 *984:42 0.000526324
98 *792:29 *984:46 0
99 *792:33 *984:59 0
100 *792:39 *984:78 0.000338048
101 *793:23 *984:46 0.000558274
102 *841:118 *984:23 0.000141173
103 *972:85 *4186:A1 1.98684e-05
104 *979:42 *984:59 0.000117971
105 *981:31 *984:27 1.14452e-05
106 *981:31 *984:42 0.000148736
107 *981:37 *984:27 6.48142e-05
108 *982:49 *984:70 0.000406671
109 *982:49 *984:78 1.19796e-05
110 *982:58 *984:78 3.39231e-05
111 *982:79 *984:78 0.000295687
112 *982:79 *984:91 2.8936e-05
113 *982:87 *984:99 0.000128969
114 *982:87 *984:107 0.000102093
115 *983:29 *984:23 0.000359326
*RES
1 *4970:X *984:8 25.5479 
2 *984:8 *984:16 36.1729 
3 *984:16 *4256:A0 23 
4 *984:8 *984:23 36.3536 
5 *984:23 *984:27 15.8493 
6 *984:27 *4969:A 38 
7 *984:27 *984:42 38.12 
8 *984:42 *984:46 35.2171 
9 *984:46 *4469:A1 23 
10 *984:46 *984:57 21.7114 
11 *984:57 *984:59 36.7679 
12 *984:59 *4377:B 38 
13 *984:59 *984:70 26.4136 
14 *984:70 *984:72 0.621429 
15 *984:72 *984:78 30.5771 
16 *984:78 *4315:B 38 
17 *984:78 *984:91 37.765 
18 *984:91 *984:93 15 
19 *984:93 *984:99 20.8621 
20 *984:99 *984:107 35.7171 
21 *984:107 *4186:A1 42.6993 
22 *984:99 *4302:A 23 
23 *984:93 *4303:A1 39.2014 
24 *984:72 *4340:A1 27.93 
25 *984:70 *4339:B 23 
*END

*D_NET *985 0.013651
*CONN
*I *4519:A1 I *D sky130_fd_sc_hd__a31o_1
*I *4475:B1 I *D sky130_fd_sc_hd__a2bb2o_1
*I *4423:A1 I *D sky130_fd_sc_hd__a22o_1
*I *4476:C_N I *D sky130_fd_sc_hd__or4bb_4
*I *4521:A I *D sky130_fd_sc_hd__nand2_1
*I *4520:A I *D sky130_fd_sc_hd__and2_1
*I *4518:B1 I *D sky130_fd_sc_hd__a2bb2o_1
*I *4517:C_N I *D sky130_fd_sc_hd__or3b_1
*I *4554:A1 I *D sky130_fd_sc_hd__a21oi_2
*I *4254:A0 I *D sky130_fd_sc_hd__mux2_1
*I *4971:X O *D sky130_fd_sc_hd__buf_6
*CAP
1 *4519:A1 0
2 *4475:B1 0
3 *4423:A1 0
4 *4476:C_N 0
5 *4521:A 4.38626e-05
6 *4520:A 0
7 *4518:B1 3.34522e-05
8 *4517:C_N 0
9 *4554:A1 0.000231013
10 *4254:A0 0.000234859
11 *4971:X 0
12 *985:105 0.000842176
13 *985:90 0.000890237
14 *985:67 0.000153965
15 *985:65 0.000508088
16 *985:61 0.000391773
17 *985:59 0.000643593
18 *985:51 0.00102282
19 *985:38 0.000547012
20 *985:27 0.000604453
21 *985:21 0.000801189
22 *985:19 0.0015375
23 *985:4 0.00117682
24 *4254:A0 *4971:A 0.0002778
25 *4554:A1 *995:40 0.000400886
26 *985:19 *4971:A 0.000259468
27 *985:27 *995:40 0.000324665
28 *985:38 *995:40 3.47781e-05
29 *985:51 *993:53 8.08615e-05
30 *985:51 *995:48 0
31 *985:51 *995:110 2.98648e-05
32 *985:59 *4476:D_N 5.13694e-05
33 *985:59 *993:93 0
34 *985:65 *986:33 0
35 *985:90 *986:33 0
36 *985:105 *4423:B1 3.91386e-05
37 *985:105 *986:33 0
38 *985:105 *997:42 0
39 *4254:A1 *4254:A0 5.67058e-05
40 *4424:B *985:105 4.64729e-05
41 *4468:A *985:65 8.16356e-05
42 *4476:B *985:59 0.000384365
43 *4518:A2_N *985:38 7.80251e-05
44 *4519:B1 *985:21 3.22879e-05
45 *4519:B1 *985:27 1.22822e-05
46 *4521:B *985:67 0.00014196
47 *4554:B1 *4554:A1 0
48 *224:16 *4254:A0 2.18506e-05
49 *224:16 *985:19 0.000111848
50 *224:42 *985:19 0
51 *382:10 *985:105 8.4047e-05
52 *431:37 *985:51 0.000227208
53 *431:37 *985:59 0.000228909
54 *432:8 *985:38 4.32475e-05
55 *432:8 *985:51 0.00020394
56 *432:42 *985:51 0.000170529
57 *433:8 *985:38 0
58 *433:8 *985:51 0
59 *477:8 *4554:A1 0
60 *478:12 *4521:A 2.93845e-05
61 *478:12 *985:67 5.41288e-05
62 *479:10 *4521:A 5.37348e-06
63 *781:35 *985:105 6.33455e-05
64 *793:23 *985:65 0.000133511
65 *793:23 *985:90 3.2457e-05
66 *793:23 *985:105 0.000245847
67 *864:10 *985:65 0
68 *984:57 *4521:A 0
*RES
1 *4971:X *985:4 23 
2 *985:4 *4254:A0 27.9093 
3 *985:4 *985:19 46.2193 
4 *985:19 *985:21 10.15 
5 *985:21 *985:27 19.4536 
6 *985:27 *4554:A1 43.4271 
7 *985:27 *985:38 3.66643 
8 *985:38 *4517:C_N 38 
9 *985:38 *985:51 24.86 
10 *985:51 *985:59 40.0464 
11 *985:59 *985:61 15 
12 *985:61 *985:65 22.54 
13 *985:65 *985:67 3.00357 
14 *985:67 *4518:B1 23.6214 
15 *985:67 *4520:A 23 
16 *985:65 *4521:A 24.1186 
17 *985:61 *985:90 1.20143 
18 *985:90 *4476:C_N 38 
19 *985:90 *985:105 30.0386 
20 *985:105 *4423:A1 23 
21 *985:51 *4475:B1 23 
22 *985:21 *4519:A1 23 
*END

*D_NET *986 0.0299888
*CONN
*I *4294:A I *D sky130_fd_sc_hd__nand2_1
*I *4317:A I *D sky130_fd_sc_hd__nand2_1
*I *4381:A I *D sky130_fd_sc_hd__nand2_1
*I *4345:A I *D sky130_fd_sc_hd__nand2_1
*I *4279:A I *D sky130_fd_sc_hd__nand2_1
*I *4183:B2 I *D sky130_fd_sc_hd__a22o_1
*I *4422:B I *D sky130_fd_sc_hd__nand4_1
*I *4971:A I *D sky130_fd_sc_hd__buf_6
*I *4972:X O *D sky130_fd_sc_hd__buf_4
*CAP
1 *4294:A 0
2 *4317:A 0.000111585
3 *4381:A 0
4 *4345:A 2.34823e-05
5 *4279:A 2.34823e-05
6 *4183:B2 1.61963e-05
7 *4422:B 0.000105932
8 *4971:A 0.000219468
9 *4972:X 4.23312e-05
10 *986:101 0.000628655
11 *986:84 0.000811966
12 *986:78 0.000271414
13 *986:76 0.00115914
14 *986:68 0.00154949
15 *986:57 0.000962757
16 *986:48 0.00058388
17 *986:44 0.00173126
18 *986:33 0.00122427
19 *986:27 0.00322427
20 *986:21 0.00389653
21 *986:8 0.000339896
22 *4317:A *999:65 0
23 *4317:A *1001:67 0
24 *4317:A *1004:113 5.26204e-05
25 *4422:B *998:67 0.000139346
26 *986:27 *1004:27 1.98781e-05
27 *986:27 *1004:137 0.000384858
28 *986:33 *997:27 0.000329134
29 *986:33 *997:42 2.24608e-05
30 *986:33 *1004:137 0.00035756
31 *986:48 *4183:A1 2.93431e-05
32 *986:57 *4183:A1 0.000292197
33 *986:57 *4280:A 9.64943e-05
34 *986:57 *4280:B 8.48502e-06
35 *986:57 *4280:C 4.05745e-05
36 *986:57 *4280:D 0.000140259
37 *986:57 *987:64 0.000262858
38 *986:57 *1005:93 6.17437e-06
39 *986:68 *4294:B 5.90675e-06
40 *986:68 *987:114 0.000116564
41 *986:68 *1005:93 0.000429288
42 *986:68 *1007:109 9.84851e-05
43 *986:76 *1004:113 0.000979841
44 *986:84 *999:65 0
45 *986:84 *1000:97 0.000271476
46 *986:84 *1001:71 0
47 *986:84 *1001:77 0
48 *986:84 *1004:113 7.66699e-05
49 *986:101 *4381:B 5.50049e-05
50 *986:101 *1000:93 0.000981725
51 *986:101 *1000:97 0.000207853
52 *986:101 *1001:77 0
53 *4183:A2 *986:57 2.02872e-05
54 *4250:A1 *986:44 0
55 *4250:S *986:27 0.000225274
56 *4252:S *986:27 0.000129522
57 *4254:A0 *4971:A 0.0002778
58 *4348:C *986:101 9.5877e-05
59 *4349:B1 *986:101 2.02872e-05
60 *170:27 *4971:A 0
61 *170:27 *986:21 0
62 *170:27 *986:27 0.000170398
63 *170:27 *986:44 0
64 *171:10 *986:44 0
65 *180:34 *4183:B2 2.02517e-05
66 *180:34 *986:44 0
67 *180:34 *986:48 5.56356e-05
68 *180:34 *986:57 0.000264269
69 *180:56 *986:44 5.86165e-05
70 *180:67 *986:44 0
71 *182:49 *986:44 0.000641581
72 *224:16 *4971:A 0.000538963
73 *224:34 *986:27 0.000562566
74 *225:10 *986:44 6.93449e-05
75 *245:10 *986:57 3.34247e-05
76 *259:10 *986:76 8.06039e-05
77 *307:6 *986:84 3.22879e-05
78 *307:6 *986:101 2.32004e-05
79 *307:14 *986:101 6.7177e-06
80 *307:21 *986:101 2.18409e-05
81 *308:21 *986:101 0.000136486
82 *311:12 *4345:A 0
83 *347:10 *986:101 0
84 *349:8 *986:101 0
85 *351:8 *986:101 8.62876e-05
86 *475:10 *986:33 5.50106e-05
87 *773:12 *986:44 0.000195248
88 *773:14 *4971:A 0.000224345
89 *773:14 *986:21 0.000132665
90 *773:14 *986:44 0.00112984
91 *773:47 *986:44 0.000223043
92 *808:14 *986:44 0.000585981
93 *841:37 *986:44 0.000327828
94 *859:42 *4317:A 0
95 *864:10 *986:33 0.000399297
96 *866:16 *986:27 4.77213e-05
97 *972:32 *986:44 1.34542e-05
98 *972:51 *986:44 0.00032898
99 *973:24 *986:76 0.000163361
100 *974:24 *986:44 0
101 *974:26 *986:44 0
102 *974:32 *986:44 0
103 *985:19 *4971:A 0.000259468
104 *985:65 *986:33 0
105 *985:90 *986:33 0
106 *985:105 *986:33 0
*RES
1 *4972:X *986:8 38.6214 
2 *986:8 *4971:A 46.8243 
3 *986:8 *986:21 1.90571 
4 *986:21 *986:27 46.61 
5 *986:27 *986:33 39.505 
6 *986:33 *4422:B 39.5743 
7 *986:21 *986:44 45.9236 
8 *986:44 *986:48 15.6214 
9 *986:48 *4183:B2 23.4971 
10 *986:48 *986:57 13.485 
11 *986:57 *4279:A 23.4971 
12 *986:57 *986:68 10.1707 
13 *986:68 *986:76 48.125 
14 *986:76 *986:78 15 
15 *986:78 *986:84 19.5571 
16 *986:84 *4345:A 23.4971 
17 *986:84 *986:101 46.675 
18 *986:101 *4381:A 23 
19 *986:78 *4317:A 40.2579 
20 *986:68 *4294:A 23 
*END

*D_NET *987 0.0117394
*CONN
*I *4318:A I *D sky130_fd_sc_hd__and4_1
*I *4319:B2 I *D sky130_fd_sc_hd__a22oi_2
*I *4296:B2 I *D sky130_fd_sc_hd__a22oi_2
*I *4281:B2 I *D sky130_fd_sc_hd__a22oi_2
*I *4271:A I *D sky130_fd_sc_hd__and4_1
*I *4280:A I *D sky130_fd_sc_hd__and4_1
*I *4295:A I *D sky130_fd_sc_hd__and4_1
*I *4272:A I *D sky130_fd_sc_hd__nand4_1
*I *4270:B2 I *D sky130_fd_sc_hd__a22o_1
*I *4180:B2 I *D sky130_fd_sc_hd__a22o_1
*I *4973:X O *D sky130_fd_sc_hd__buf_2
*CAP
1 *4318:A 2.83804e-05
2 *4319:B2 0
3 *4296:B2 0
4 *4281:B2 0
5 *4271:A 0
6 *4280:A 6.11843e-05
7 *4295:A 0
8 *4272:A 0
9 *4270:B2 0
10 *4180:B2 0
11 *4973:X 0
12 *987:114 0.000993682
13 *987:93 0.00100157
14 *987:81 0.000229394
15 *987:64 0.000575011
16 *987:54 0.00078079
17 *987:52 0.000709623
18 *987:41 0.000532352
19 *987:20 0.000532276
20 *987:10 0.0005506
21 *987:8 0.000193404
22 *987:4 0.000530433
23 *4318:A *999:67 4.79641e-05
24 *4318:A *1005:106 9.5877e-05
25 *987:8 *4272:C 2.93845e-05
26 *987:8 *4272:D 4.56951e-05
27 *987:8 *4973:A 0.00010018
28 *987:8 *1005:40 9.84794e-05
29 *987:10 *4272:D 5.50106e-05
30 *987:10 *1005:40 1.41077e-05
31 *987:20 *4267:C 9.70259e-06
32 *987:20 *4272:B 1.01436e-05
33 *987:20 *4272:C 2.72055e-05
34 *987:20 *989:23 0.000491525
35 *987:20 *990:74 0.000140259
36 *987:20 *1005:17 9.48381e-06
37 *987:20 *1005:23 0.000784604
38 *987:20 *1005:30 0.000176647
39 *987:20 *1010:78 0
40 *987:41 *4272:C 0
41 *987:41 *4973:A 9.84794e-05
42 *987:52 *1000:105 2.79004e-05
43 *987:52 *1004:90 0
44 *987:54 *1005:52 0.000169595
45 *987:54 *1005:93 0.000140259
46 *987:64 *1005:52 0.00010018
47 *987:64 *1005:56 0.00019747
48 *987:81 *4271:B 6.17437e-06
49 *987:81 *1004:57 8.58779e-05
50 *987:114 *4318:C 0
51 *987:114 *999:67 9.67842e-05
52 *987:114 *999:73 0.00026808
53 *987:114 *1004:90 4.6318e-06
54 *987:114 *1005:93 1.61361e-05
55 *987:114 *1005:106 0.000367024
56 *180:48 *987:20 5.47983e-06
57 *180:82 *987:41 0
58 *233:10 *987:20 1.86973e-05
59 *246:8 *987:64 5.56203e-05
60 *259:10 *987:114 1.52362e-05
61 *260:8 *987:114 0.000114074
62 *784:25 *987:81 0.000183102
63 *797:24 *987:20 0.000356947
64 *844:18 *987:64 0
65 *866:43 *987:20 7.37948e-05
66 *972:28 *987:81 6.94745e-06
67 *973:24 *987:41 0
68 *973:24 *987:52 0
69 *986:57 *4280:A 9.64943e-05
70 *986:57 *987:64 0.000262858
71 *986:68 *987:114 0.000116564
*RES
1 *4973:X *987:4 23 
2 *987:4 *987:8 4.32929 
3 *987:8 *987:10 0.621429 
4 *987:10 *987:20 47.8143 
5 *987:20 *4180:B2 23 
6 *987:10 *4270:B2 23 
7 *987:8 *4272:A 23 
8 *987:4 *987:41 21.8771 
9 *987:41 *4295:A 38 
10 *987:41 *987:52 18.3143 
11 *987:52 *987:54 9.67357 
12 *987:54 *987:64 36.7114 
13 *987:64 *4280:A 24.0979 
14 *987:64 *987:81 34.205 
15 *987:81 *4271:A 23 
16 *987:54 *4281:B2 23 
17 *987:52 *987:93 0.621429 
18 *987:93 *4296:B2 23 
19 *987:93 *987:114 47.8557 
20 *987:114 *4319:B2 23 
21 *987:114 *4318:A 24.0979 
*END

*D_NET *988 0.0146333
*CONN
*I *4473:A1 I *D sky130_fd_sc_hd__o21ai_2
*I *4383:B I *D sky130_fd_sc_hd__and4_1
*I *4346:A I *D sky130_fd_sc_hd__and4_1
*I *4347:B2 I *D sky130_fd_sc_hd__a22oi_2
*I *4973:A I *D sky130_fd_sc_hd__buf_2
*I *4384:B2 I *D sky130_fd_sc_hd__a22oi_2
*I *4382:A I *D sky130_fd_sc_hd__nand2_1
*I *4472:A I *D sky130_fd_sc_hd__and3_4
*I *4474:A1 I *D sky130_fd_sc_hd__o21a_1
*I *4252:A0 I *D sky130_fd_sc_hd__mux2_1
*I *4974:X O *D sky130_fd_sc_hd__buf_6
*CAP
1 *4473:A1 3.18575e-05
2 *4383:B 3.88336e-05
3 *4346:A 1.68194e-05
4 *4347:B2 0
5 *4973:A 0.00060133
6 *4384:B2 0.000223538
7 *4382:A 0
8 *4472:A 0
9 *4474:A1 0.000200517
10 *4252:A0 0
11 *4974:X 6.30365e-05
12 *988:102 0.000507569
13 *988:83 0.00125101
14 *988:79 0.000309891
15 *988:66 0.000608953
16 *988:55 0.000801622
17 *988:27 0.000256094
18 *988:23 0.000583909
19 *988:21 0.000602933
20 *988:14 0.000301396
21 *988:6 0.000935508
22 *4346:A *4346:B 5.50106e-05
23 *4383:B *4383:C 2.4754e-05
24 *4384:B2 *4383:A 1.03955e-05
25 *4384:B2 *4383:C 5.3304e-05
26 *4384:B2 *997:69 4.92924e-05
27 *4473:A1 *4473:A2 5.3304e-05
28 *4474:A1 *4474:B1 3.17634e-05
29 *4474:A1 *990:28 5.50106e-05
30 *4973:A *4272:D 1.14154e-05
31 *988:6 *990:14 3.3577e-05
32 *988:14 *1004:135 1.72202e-05
33 *988:14 *1004:137 1.32314e-05
34 *988:21 *4473:A2 4.08664e-05
35 *988:21 *990:14 0.000179262
36 *988:21 *990:18 0.000182826
37 *988:27 *990:28 0.000141879
38 *988:27 *993:53 0.000141879
39 *988:55 *990:28 2.46345e-05
40 *988:55 *993:53 0.000160191
41 *988:55 *995:48 4.99753e-06
42 *988:55 *995:56 0.000290634
43 *988:55 *995:68 6.91968e-05
44 *988:66 *4195:A1 3.47781e-05
45 *988:66 *995:68 5.01986e-05
46 *988:66 *995:81 0.000806123
47 *988:79 *4383:C 0.000124306
48 *988:83 *4383:D 2.29192e-05
49 *988:83 *997:87 8.83341e-05
50 *988:102 *4346:B 0.000113139
51 *988:102 *4347:A1 0
52 *988:102 *989:77 0.000166072
53 *988:102 *997:87 2.72055e-05
54 *4195:A2 *4973:A 5.3304e-05
55 *4252:A1 *988:14 5.50106e-05
56 *4474:A2 *4474:A1 5.67058e-05
57 *4974:A *988:21 0.000446275
58 *180:86 *4973:A 0.000139764
59 *196:8 *4973:A 3.7122e-06
60 *196:10 *988:102 0.000349386
61 *309:10 *4346:A 1.5769e-05
62 *309:10 *988:102 6.17437e-06
63 *343:12 *988:55 0.000110913
64 *345:8 *4384:B2 1.56665e-05
65 *386:12 *988:55 5.3304e-05
66 *386:25 *988:55 0.000128948
67 *387:10 *988:55 0.00016276
68 *772:48 *988:66 0.000845248
69 *772:48 *988:102 0.000103009
70 *772:54 *988:55 0.000233742
71 *772:54 *988:66 3.70094e-05
72 *774:8 *988:21 2.93747e-05
73 *781:23 *988:55 6.99492e-05
74 *859:16 *4384:B2 9.75779e-05
75 *859:29 *4384:B2 5.50049e-05
76 *866:16 *988:14 0.000168423
77 *973:35 *988:102 0.000195248
78 *973:41 *988:55 0.000213551
79 *973:41 *988:83 0.000351617
80 *973:41 *988:102 2.46345e-05
81 *987:8 *4973:A 0.00010018
82 *987:41 *4973:A 9.84794e-05
*RES
1 *4974:X *988:6 24.0979 
2 *988:6 *988:14 35.8207 
3 *988:14 *4252:A0 23 
4 *988:6 *988:21 13.0086 
5 *988:21 *988:23 15 
6 *988:23 *988:27 16.9057 
7 *988:27 *4474:A1 26.9979 
8 *988:27 *4472:A 23 
9 *988:23 *988:55 43.63 
10 *988:55 *4382:A 38 
11 *988:55 *988:66 26.7657 
12 *988:66 *4384:B2 26.9771 
13 *988:66 *988:79 2.07143 
14 *988:79 *988:83 19.7229 
15 *988:83 *4973:A 49.1236 
16 *988:83 *988:102 27.1386 
17 *988:102 *4347:B2 23 
18 *988:102 *4346:A 23.6214 
19 *988:79 *4383:B 23.6214 
20 *988:21 *4473:A1 23.6214 
*END

*D_NET *989 0.0125115
*CONN
*I *4383:A I *D sky130_fd_sc_hd__and4_1
*I *4272:B I *D sky130_fd_sc_hd__nand4_1
*I *4270:A1 I *D sky130_fd_sc_hd__a22o_1
*I *4346:B I *D sky130_fd_sc_hd__and4_1
*I *4347:A1 I *D sky130_fd_sc_hd__a22oi_2
*I *4295:B I *D sky130_fd_sc_hd__and4_1
*I *4271:B I *D sky130_fd_sc_hd__and4_1
*I *4280:B I *D sky130_fd_sc_hd__and4_1
*I *4281:A1 I *D sky130_fd_sc_hd__a22oi_2
*I *4267:B I *D sky130_fd_sc_hd__and3_1
*I *4975:X O *D sky130_fd_sc_hd__buf_2
*CAP
1 *4383:A 0.000807515
2 *4272:B 0.000211809
3 *4270:A1 0
4 *4346:B 8.05358e-05
5 *4347:A1 2.34823e-05
6 *4295:B 0
7 *4271:B 0.000128067
8 *4280:B 9.28544e-05
9 *4281:A1 0
10 *4267:B 0.000137858
11 *4975:X 0
12 *989:77 0.000706317
13 *989:70 0.00094452
14 *989:48 0.00034686
15 *989:39 0.000532466
16 *989:33 0.000953014
17 *989:27 0.00025296
18 *989:23 0.000488206
19 *989:19 0.00141241
20 *989:4 0.000515045
21 *4267:B *1005:23 0.000182826
22 *4271:B *4271:C 7.6816e-05
23 *4271:B *1001:38 9.64943e-05
24 *4271:B *1007:121 2.24608e-05
25 *4272:B *4272:D 5.67058e-05
26 *4272:B *1007:74 2.46345e-05
27 *4272:B *1007:98 4.70953e-05
28 *4280:B *4280:C 5.3304e-05
29 *4280:B *4280:D 6.17437e-06
30 *4346:B *4346:C 0.000354127
31 *4383:A *997:69 9.58714e-05
32 *989:19 *1004:35 3.56537e-05
33 *989:19 *1010:78 5.31444e-05
34 *989:23 *1007:74 0.000192087
35 *989:23 *1010:78 0
36 *989:27 *4272:D 5.3304e-05
37 *989:27 *1005:40 3.95244e-05
38 *989:33 *1005:48 0.000132486
39 *989:33 *1007:74 3.47781e-05
40 *989:33 *1007:98 0.000422629
41 *989:39 *1004:49 0.000169674
42 *989:39 *1004:84 0.000314606
43 *989:39 *1005:56 4.21594e-06
44 *989:48 *4271:C 1.69668e-05
45 *989:48 *1005:56 7.98052e-05
46 *989:70 *1004:84 0.000360843
47 *989:77 *4346:C 0.000183733
48 *989:77 *1004:84 4.95081e-05
49 *4346:A *4346:B 5.50106e-05
50 *4384:B2 *4383:A 1.03955e-05
51 *236:19 *989:33 5.94125e-05
52 *238:10 *989:27 2.65505e-05
53 *238:27 *989:23 0
54 *259:10 *989:77 5.67058e-05
55 *309:10 *4346:B 2.65879e-05
56 *345:8 *4383:A 0.000262858
57 *784:17 *989:48 9.81497e-06
58 *784:25 *4271:B 0.000126343
59 *784:25 *989:48 0.00026566
60 *844:18 *989:39 0
61 *859:16 *4383:A 2.32004e-05
62 *986:57 *4280:B 8.48502e-06
63 *987:20 *4272:B 1.01436e-05
64 *987:20 *989:23 0.000491525
65 *987:81 *4271:B 6.17437e-06
66 *988:102 *4346:B 0.000113139
67 *988:102 *4347:A1 0
68 *988:102 *989:77 0.000166072
*RES
1 *4975:X *989:4 23 
2 *989:4 *4267:B 25.0507 
3 *989:4 *989:19 36.4629 
4 *989:19 *989:23 21.4836 
5 *989:23 *989:27 16.0979 
6 *989:27 *989:33 36.1314 
7 *989:33 *989:39 23.5964 
8 *989:39 *4281:A1 38 
9 *989:39 *989:48 4.01857 
10 *989:48 *4280:B 39.0979 
11 *989:48 *4271:B 41.0036 
12 *989:33 *989:70 7.29143 
13 *989:70 *4295:B 23 
14 *989:70 *989:77 11.1029 
15 *989:77 *4347:A1 23.4971 
16 *989:77 *4346:B 26.9564 
17 *989:27 *4270:A1 23 
18 *989:23 *4272:B 41.5421 
19 *989:19 *4383:A 36.485 
*END

*D_NET *990 0.0104942
*CONN
*I *4975:A I *D sky130_fd_sc_hd__buf_2
*I *4427:B I *D sky130_fd_sc_hd__and3_1
*I *4426:A1 I *D sky130_fd_sc_hd__a21oi_1
*I *4473:A2 I *D sky130_fd_sc_hd__o21ai_2
*I *4472:C I *D sky130_fd_sc_hd__and3_4
*I *4976:X O *D sky130_fd_sc_hd__buf_8
*CAP
1 *4975:A 0
2 *4427:B 0.000287922
3 *4426:A1 5.38745e-06
4 *4473:A2 8.17927e-05
5 *4472:C 0
6 *4976:X 0.000318118
7 *990:74 0.000706274
8 *990:44 0.000346946
9 *990:28 0.000204988
10 *990:18 0.000391807
11 *990:14 0.00136091
12 *990:10 0.00222664
13 *4427:B *993:57 0.00011501
14 *4427:B *993:70 6.48142e-05
15 *4473:A2 *995:110 6.82514e-05
16 *990:18 *995:48 2.18506e-05
17 *990:28 *4474:B1 5.41288e-05
18 *990:28 *993:36 3.22879e-05
19 *990:28 *993:38 2.93845e-05
20 *990:28 *993:53 2.35393e-05
21 *990:28 *995:48 0.000107641
22 *990:44 *995:48 4.6318e-06
23 *990:74 *1004:35 3.61397e-05
24 *990:74 *1007:23 0.000167443
25 *990:74 *1007:42 0.000164282
26 *990:74 *1010:78 1.34354e-05
27 *4473:A1 *4473:A2 5.3304e-05
28 *4474:A1 *990:28 5.50106e-05
29 *4474:A2 *4426:A1 1.23172e-05
30 *4474:A2 *4427:B 1.78655e-05
31 *4474:A2 *990:44 7.17297e-05
32 *4974:A *990:14 0.000252161
33 *4976:A *990:10 0.000306054
34 *4976:A *990:14 4.67488e-05
35 *172:10 *990:74 4.83778e-05
36 *772:54 *4427:B 6.22866e-05
37 *772:54 *4473:A2 5.3304e-05
38 *772:54 *990:18 5.50049e-05
39 *772:54 *990:44 1.40281e-05
40 *781:12 *990:74 7.91493e-05
41 *797:24 *990:74 0.000140259
42 *797:32 *990:74 0.000161121
43 *841:77 *990:10 8.94487e-05
44 *841:77 *990:74 0.000580867
45 *841:94 *990:74 0
46 *852:25 *990:10 8.72173e-05
47 *852:25 *990:74 0.000354778
48 *866:43 *990:74 0.000376252
49 *987:20 *990:74 0.000140259
50 *988:6 *990:14 3.3577e-05
51 *988:21 *4473:A2 4.08664e-05
52 *988:21 *990:14 0.000179262
53 *988:21 *990:18 0.000182826
54 *988:27 *990:28 0.000141879
55 *988:55 *990:28 2.46345e-05
*RES
1 *4976:X *990:10 44.5871 
2 *990:10 *990:14 31.82 
3 *990:14 *990:18 2.9 
4 *990:18 *990:28 35.51 
5 *990:28 *4472:C 23 
6 *990:18 *4473:A2 25.0507 
7 *990:14 *990:44 16.0254 
8 *990:44 *4426:A1 38.3211 
9 *990:44 *4427:B 43.3754 
10 *990:10 *990:74 35.3829 
11 *990:74 *4975:A 23 
*END

*D_NET *991 0.00138348
*CONN
*I *4150:C I *D sky130_fd_sc_hd__or4_1
*I *5065:X O *D sky130_fd_sc_hd__clkbuf_1
*CAP
1 *4150:C 0
2 *5065:X 0.000382017
3 *991:10 0.000382017
4 *4150:B *991:10 0.000598616
5 *969:10 *991:10 2.08324e-05
*RES
1 *5065:X *991:10 46.99 
2 *991:10 *4150:C 38 
*END

*D_NET *992 0.0109526
*CONN
*I *4597:B1 I *D sky130_fd_sc_hd__o21a_1
*I *4557:C I *D sky130_fd_sc_hd__and3_1
*I *4662:A2_N I *D sky130_fd_sc_hd__o2bb2a_1
*I *4689:S I *D sky130_fd_sc_hd__mux2_1
*I *4663:B I *D sky130_fd_sc_hd__and4b_1
*I *4624:A2 I *D sky130_fd_sc_hd__a22oi_1
*I *4558:C I *D sky130_fd_sc_hd__nand3_1
*I *4556:A2 I *D sky130_fd_sc_hd__a22o_1
*I *4559:C I *D sky130_fd_sc_hd__nand4_1
*I *4170:A0 I *D sky130_fd_sc_hd__mux2_1
*I *4977:X O *D sky130_fd_sc_hd__buf_2
*CAP
1 *4597:B1 0
2 *4557:C 0.000169939
3 *4662:A2_N 0.000329798
4 *4689:S 0
5 *4663:B 4.17987e-05
6 *4624:A2 0
7 *4558:C 0
8 *4556:A2 0.000183316
9 *4559:C 0
10 *4170:A0 0.000203085
11 *4977:X 0
12 *992:98 0.00038857
13 *992:89 0.000556704
14 *992:85 0.000889218
15 *992:79 0.000486453
16 *992:62 0.000435036
17 *992:51 0.000363577
18 *992:29 0.000438377
19 *992:25 0.000835807
20 *992:4 0.000631981
21 *4556:A2 *994:30 0.000190227
22 *4556:A2 *994:43 2.55642e-05
23 *4556:A2 *996:19 4.63378e-05
24 *4662:A2_N *4663:A_N 4.21921e-05
25 *4663:B *4663:A_N 0.000102971
26 *992:25 *4979:A 0
27 *992:29 *994:17 0.00063618
28 *992:29 *994:30 2.68751e-05
29 *992:89 *994:110 0
30 *992:98 *4663:A_N 0.000268112
31 *4168:S *4170:A0 5.72217e-05
32 *4168:S *992:25 2.25419e-05
33 *4169:B *992:25 5.50049e-05
34 *4598:B *992:79 9.21347e-06
35 *4624:B1 *992:62 1.78991e-05
36 *4844:D *992:25 0.000127324
37 *4977:A *992:25 5.67058e-05
38 *4977:A *992:29 4.54033e-05
39 *170:59 *992:25 0
40 *177:8 *992:25 6.6869e-05
41 *515:6 *992:62 0.000267412
42 *515:6 *992:79 1.34533e-06
43 *553:8 *992:79 5.0135e-05
44 *553:26 *992:85 0.000533224
45 *553:36 *4557:C 0
46 *580:8 *4557:C 0
47 *617:10 *4662:A2_N 0.000139352
48 *617:10 *992:89 0
49 *617:10 *992:98 0.000187129
50 *642:18 *4662:A2_N 0.000115694
51 *788:8 *992:25 0.000225975
52 *788:25 *992:29 3.47879e-05
53 *917:25 *4170:A0 1.39431e-05
54 *975:38 *4662:A2_N 2.193e-05
55 *978:20 *4556:A2 0.00017849
56 *978:73 *4557:C 9.70259e-06
57 *981:31 *992:29 0.000139657
58 *981:37 *992:79 0
59 *981:54 *992:79 5.50106e-05
60 *981:54 *992:85 4.59768e-05
61 *981:68 *992:29 0.000296937
62 *981:85 *4556:A2 0.000181952
63 *981:85 *992:29 8.62876e-05
64 *981:98 *4556:A2 3.92407e-05
65 *983:10 *992:62 2.02872e-05
66 *983:29 *992:51 0.000272383
67 *983:29 *992:62 4.6595e-05
68 *984:23 *992:25 0.000176911
69 *984:23 *992:51 3.75171e-05
70 *984:23 *992:62 2.43944e-05
71 *984:27 *992:79 0
72 *984:42 *992:79 0
*RES
1 *4977:X *992:4 23 
2 *992:4 *4170:A0 26.0036 
3 *992:4 *992:25 40.8129 
4 *992:25 *992:29 23.9486 
5 *992:29 *4559:C 38 
6 *992:29 *4556:A2 43.0336 
7 *992:25 *992:51 3.95643 
8 *992:51 *4558:C 23 
9 *992:51 *992:62 5.40125 
10 *992:62 *4624:A2 23 
11 *992:62 *992:79 34.0238 
12 *992:79 *992:85 22.3121 
13 *992:85 *992:89 23.2443 
14 *992:89 *4663:B 24.0979 
15 *992:89 *992:98 3.00357 
16 *992:98 *4689:S 23 
17 *992:98 *4662:A2_N 28.7793 
18 *992:85 *4557:C 40.4857 
19 *992:79 *4597:B1 23 
*END

*D_NET *993 0.00718118
*CONN
*I *4473:B1 I *D sky130_fd_sc_hd__o21ai_2
*I *4472:B I *D sky130_fd_sc_hd__and3_4
*I *4427:C I *D sky130_fd_sc_hd__and3_1
*I *4199:A1 I *D sky130_fd_sc_hd__a221o_1
*I *4426:A2 I *D sky130_fd_sc_hd__a21oi_1
*I *4474:B1 I *D sky130_fd_sc_hd__o21a_1
*I *4518:B2 I *D sky130_fd_sc_hd__a2bb2o_1
*I *4554:A2 I *D sky130_fd_sc_hd__a21oi_2
*I *4978:X O *D sky130_fd_sc_hd__buf_6
*CAP
1 *4473:B1 0
2 *4472:B 0
3 *4427:C 1.91754e-05
4 *4199:A1 0
5 *4426:A2 3.10113e-05
6 *4474:B1 0.000133536
7 *4518:B2 0.000219057
8 *4554:A2 0.00025701
9 *4978:X 0
10 *993:93 8.70875e-05
11 *993:70 8.40229e-05
12 *993:57 0.000289803
13 *993:53 0.00043721
14 *993:38 0.000403545
15 *993:36 0.00019078
16 *993:34 0.000868235
17 *993:19 0.000976858
18 *993:6 0.000397701
19 *4554:A2 *999:29 0
20 *993:19 *999:29 0
21 *993:34 *999:29 0
22 *993:53 *995:48 0
23 *993:70 *995:68 9.168e-05
24 *4427:A *993:57 9.58714e-05
25 *4427:B *993:57 0.00011501
26 *4427:B *993:70 6.48142e-05
27 *4474:A1 *4474:B1 3.17634e-05
28 *4474:A2 *993:70 9.03784e-05
29 *4518:A2_N *4518:B2 0.000227208
30 *5107:A *993:70 0.000139647
31 *386:8 *993:70 3.72639e-05
32 *431:8 *993:34 0
33 *431:8 *993:93 6.48142e-05
34 *431:12 *993:34 0
35 *431:37 *993:93 0.00016046
36 *432:8 *993:53 0
37 *432:8 *993:93 0.000277714
38 *432:42 *993:93 0
39 *475:10 *993:19 0
40 *475:10 *993:34 0
41 *476:8 *993:19 4.08641e-05
42 *511:10 *4554:A2 0.000176484
43 *772:54 *993:70 6.02277e-06
44 *788:25 *4554:A2 0
45 *788:25 *993:19 0
46 *862:12 *993:34 4.23817e-05
47 *866:65 *4426:A2 3.7122e-06
48 *975:124 *4426:A2 5.50106e-05
49 *975:124 *993:57 8.43466e-05
50 *979:10 *993:70 1.47563e-05
51 *979:36 *4554:A2 0.000443673
52 *985:51 *993:53 8.08615e-05
53 *985:59 *993:93 0
54 *988:27 *993:53 0.000141879
55 *988:55 *993:53 0.000160191
56 *990:28 *4474:B1 5.41288e-05
57 *990:28 *993:36 3.22879e-05
58 *990:28 *993:38 2.93845e-05
59 *990:28 *993:53 2.35393e-05
*RES
1 *4978:X *993:6 38 
2 *993:6 *4554:A2 45.5193 
3 *993:6 *993:19 2.61 
4 *993:19 *4518:B2 41.9564 
5 *993:19 *993:34 25.2121 
6 *993:34 *993:36 2.52714 
7 *993:36 *993:38 0.621429 
8 *993:38 *4474:B1 25.5479 
9 *993:38 *993:53 35.4271 
10 *993:53 *993:57 3.85286 
11 *993:57 *4426:A2 23.6214 
12 *993:57 *993:70 33.3143 
13 *993:70 *4199:A1 23 
14 *993:53 *4427:C 23.2279 
15 *993:36 *4472:B 23 
16 *993:34 *993:93 33.6664 
17 *993:93 *4473:B1 23 
*END

*D_NET *994 0.0173205
*CONN
*I *4630:A2 I *D sky130_fd_sc_hd__a31o_1
*I *4632:B I *D sky130_fd_sc_hd__and4b_1
*I *4662:B1 I *D sky130_fd_sc_hd__o2bb2a_1
*I *4663:A_N I *D sky130_fd_sc_hd__and4b_1
*I *4631:A2_N I *D sky130_fd_sc_hd__o2bb2a_1
*I *4514:A2 I *D sky130_fd_sc_hd__a22o_1
*I *4513:C I *D sky130_fd_sc_hd__and4_1
*I *4556:B1 I *D sky130_fd_sc_hd__a22o_1
*I *4559:D I *D sky130_fd_sc_hd__nand4_1
*I *4168:A0 I *D sky130_fd_sc_hd__mux2_1
*I *4979:X O *D sky130_fd_sc_hd__clkbuf_2
*CAP
1 *4630:A2 0
2 *4632:B 9.78511e-05
3 *4662:B1 0
4 *4663:A_N 9.75594e-05
5 *4631:A2_N 0
6 *4514:A2 0
7 *4513:C 0
8 *4556:B1 0
9 *4559:D 7.24575e-05
10 *4168:A0 0.000180046
11 *4979:X 0
12 *994:110 0.000551785
13 *994:94 0.000473949
14 *994:90 0.000294536
15 *994:80 0.000566572
16 *994:69 0.000775233
17 *994:63 0.0013095
18 *994:52 0.000878992
19 *994:43 0.000656616
20 *994:30 0.000599031
21 *994:17 0.00055725
22 *994:4 0.000571604
23 *4168:A0 *4979:A 2.4754e-05
24 *4559:D *995:27 4.67488e-05
25 *4559:D *1000:31 9.41704e-05
26 *994:17 *4979:A 2.4754e-05
27 *994:43 *996:49 0.000219383
28 *994:43 *996:73 0.000308946
29 *994:43 *997:23 0.000249258
30 *994:43 *997:27 0
31 *994:43 *997:130 0.000218329
32 *994:43 *998:19 0.00108537
33 *994:52 *4514:B1 3.74929e-05
34 *994:52 *996:73 4.08664e-05
35 *994:52 *996:81 2.9938e-05
36 *994:52 *996:100 1.22822e-05
37 *994:63 *996:100 2.93747e-05
38 *994:63 *1000:37 0
39 *4514:A1 *994:63 6.07611e-06
40 *4514:B2 *994:52 7.27182e-05
41 *4556:A1 *994:30 0.000100778
42 *4556:A2 *994:30 0.000190227
43 *4556:A2 *994:43 2.55642e-05
44 *4597:A2 *994:17 0
45 *4632:C *4632:B 2.64616e-05
46 *4632:D *4632:B 1.21972e-05
47 *4633:B *994:80 0.000163076
48 *4660:A1 *994:69 0.000138718
49 *4662:A2_N *4663:A_N 4.21921e-05
50 *4662:B2 *994:90 0.000110922
51 *4663:B *4663:A_N 0.000102971
52 *4977:A *4168:A0 0.000228903
53 *4977:A *994:17 3.71198e-05
54 *471:10 *994:52 0.000141052
55 *514:21 *994:63 1.19692e-05
56 *514:21 *994:69 4.23817e-05
57 *516:12 *994:30 0
58 *516:12 *994:43 0
59 *580:18 *994:69 0.000648011
60 *580:18 *994:80 4.08664e-05
61 *587:10 *994:80 4.6318e-06
62 *587:10 *994:90 0.000108672
63 *614:10 *994:110 1.91026e-05
64 *617:10 *994:110 1.76016e-05
65 *617:31 *994:94 8.93708e-05
66 *617:31 *994:110 0.000100486
67 *642:18 *994:94 9.79925e-05
68 *642:18 *994:110 0.000142678
69 *788:25 *994:43 2.72055e-05
70 *796:21 *994:90 8.06804e-06
71 *975:31 *4663:A_N 0.00024917
72 *975:38 *4663:A_N 0.000314255
73 *975:50 *994:90 2.04389e-05
74 *975:50 *994:110 0.000432903
75 *975:63 *994:80 7.70737e-05
76 *975:63 *994:90 0.000152396
77 *975:74 *994:80 0.000272312
78 *976:51 *994:90 8.71386e-05
79 *976:74 *994:90 0.000139846
80 *977:31 *994:63 0
81 *978:28 *994:43 0
82 *978:49 *994:63 0
83 *978:60 *994:63 0.000666476
84 *978:60 *994:69 1.01436e-05
85 *978:96 *994:63 0
86 *981:98 *994:43 7.55595e-05
87 *983:29 *994:17 0.000663045
88 *983:29 *994:30 8.72173e-05
89 *983:60 *994:63 0
90 *983:64 *994:43 4.08664e-05
91 *983:64 *994:52 5.50106e-05
92 *983:70 *994:43 0.000182826
93 *992:29 *994:17 0.00063618
94 *992:29 *994:30 2.68751e-05
95 *992:89 *994:110 0
96 *992:98 *4663:A_N 0.000268112
*RES
1 *4979:X *994:4 23 
2 *994:4 *4168:A0 26.0036 
3 *994:4 *994:17 26.455 
4 *994:17 *4559:D 39.595 
5 *994:17 *994:30 2.96214 
6 *994:30 *4556:B1 38 
7 *994:30 *994:43 33.5807 
8 *994:43 *4513:C 23 
9 *994:43 *994:52 4.45357 
10 *994:52 *4514:A2 23 
11 *994:52 *994:63 30.2043 
12 *994:63 *994:69 24.1971 
13 *994:69 *4631:A2_N 23 
14 *994:69 *994:80 20.3443 
15 *994:80 *994:90 36.3179 
16 *994:90 *994:94 16.0979 
17 *994:94 *994:110 49.8354 
18 *994:110 *4663:A_N 28.8621 
19 *994:94 *4662:B1 23 
20 *994:80 *4632:B 39.0979 
21 *994:63 *4630:A2 38 
*END

*D_NET *995 0.018954
*CONN
*I *4519:A2 I *D sky130_fd_sc_hd__a31o_1
*I *4476:D_N I *D sky130_fd_sc_hd__or4bb_4
*I *4475:B2 I *D sky130_fd_sc_hd__a2bb2o_1
*I *4195:A1 I *D sky130_fd_sc_hd__a22o_1
*I *4383:C I *D sky130_fd_sc_hd__and4_1
*I *4384:A2 I *D sky130_fd_sc_hd__a22oi_2
*I *4382:B I *D sky130_fd_sc_hd__nand2_1
*I *4599:B I *D sky130_fd_sc_hd__nand2_1
*I *4979:A I *D sky130_fd_sc_hd__clkbuf_2
*I *4980:X O *D sky130_fd_sc_hd__clkbuf_4
*CAP
1 *4519:A2 0
2 *4476:D_N 0.000467824
3 *4475:B2 5.21569e-05
4 *4195:A1 0.000195554
5 *4383:C 9.10614e-05
6 *4384:A2 0
7 *4382:B 0.000163261
8 *4599:B 0
9 *4979:A 0.000470156
10 *4980:X 1.97605e-05
11 *995:110 0.00100044
12 *995:83 9.10614e-05
13 *995:81 0.000486412
14 *995:68 0.000706273
15 *995:56 0.000506401
16 *995:48 0.00125271
17 *995:40 0.00130544
18 *995:27 0.000957958
19 *995:21 0.0020835
20 *995:8 0.000828024
21 *995:27 *1000:31 0.000550115
22 *4168:A0 *4979:A 2.4754e-05
23 *4168:A1 *4979:A 0.00010018
24 *4168:S *4979:A 2.4754e-05
25 *4383:B *4383:C 2.4754e-05
26 *4384:B2 *4383:C 5.3304e-05
27 *4428:C *4382:B 3.91386e-05
28 *4473:A2 *995:110 6.82514e-05
29 *4474:A2 *995:48 6.78463e-05
30 *4476:A *4476:D_N 0.000361856
31 *4476:B *4476:D_N 1.40958e-05
32 *4518:A2_N *995:40 1.01436e-05
33 *4519:A3 *995:40 5.50049e-05
34 *4519:B1 *995:40 0.000103379
35 *4554:A1 *995:40 0.000400886
36 *4554:B1 *995:48 6.07611e-06
37 *4559:B *995:27 5.3304e-05
38 *4559:D *995:27 4.67488e-05
39 *4600:B *995:27 9.76261e-05
40 *4919:A *4382:B 9.41704e-05
41 *4977:A *4979:A 0.000272383
42 *5107:A *995:56 4.05745e-05
43 *199:8 *995:56 5.3304e-05
44 *343:12 *995:68 0.000168744
45 *343:21 *4382:B 1.21972e-05
46 *345:8 *4383:C 0.000264559
47 *386:8 *995:68 0.000208843
48 *431:37 *4476:D_N 9.24795e-06
49 *431:37 *995:110 1.14876e-05
50 *432:42 *4476:D_N 5.70419e-05
51 *432:42 *995:110 0.000314157
52 *433:8 *995:48 0.000167319
53 *475:10 *995:40 0
54 *516:6 *995:27 0.000143655
55 *516:23 *995:27 0.000304321
56 *772:48 *4195:A1 0.000379631
57 *772:54 *995:48 9.202e-05
58 *772:54 *995:56 0.000290634
59 *772:54 *995:110 4.17736e-05
60 *774:119 *4979:A 0.000190227
61 *786:8 *995:40 0.000185676
62 *788:25 *4979:A 0
63 *788:25 *995:21 0
64 *788:25 *995:40 0
65 *792:23 *995:8 1.94812e-05
66 *859:29 *4195:A1 0.000240176
67 *859:29 *995:81 1.01436e-05
68 *979:10 *995:48 0
69 *979:10 *995:68 0.000212332
70 *979:10 *995:81 0.00026323
71 *981:21 *995:8 5.50106e-05
72 *985:27 *995:40 0.000324665
73 *985:38 *995:40 3.47781e-05
74 *985:51 *995:48 0
75 *985:51 *995:110 2.98648e-05
76 *985:59 *4476:D_N 5.13694e-05
77 *988:55 *995:48 4.99753e-06
78 *988:55 *995:56 0.000290634
79 *988:55 *995:68 6.91968e-05
80 *988:66 *4195:A1 3.47781e-05
81 *988:66 *995:68 5.01986e-05
82 *988:66 *995:81 0.000806123
83 *988:79 *4383:C 0.000124306
84 *990:18 *995:48 2.18506e-05
85 *990:28 *995:48 0.000107641
86 *990:44 *995:48 4.6318e-06
87 *992:25 *4979:A 0
88 *993:53 *995:48 0
89 *993:70 *995:68 9.168e-05
90 *994:17 *4979:A 2.4754e-05
*RES
1 *4980:X *995:8 38.6214 
2 *995:8 *4979:A 48.0879 
3 *995:8 *995:21 5.77929 
4 *995:21 *995:27 36.1286 
5 *995:27 *4599:B 23 
6 *995:21 *995:40 32.98 
7 *995:40 *995:48 40.3986 
8 *995:48 *995:56 35.5929 
9 *995:56 *995:68 24.0729 
10 *995:68 *4382:B 40.4236 
11 *995:68 *995:81 10.7093 
12 *995:81 *995:83 15 
13 *995:83 *4384:A2 23 
14 *995:83 *4383:C 26.0036 
15 *995:81 *4195:A1 44.5457 
16 *995:48 *995:110 7.29143 
17 *995:110 *4475:B2 23.8493 
18 *995:110 *4476:D_N 32.3836 
19 *995:40 *4519:A2 23 
*END

*D_NET *996 0.0138792
*CONN
*I *4513:D I *D sky130_fd_sc_hd__and4_1
*I *4591:B I *D sky130_fd_sc_hd__and4b_1
*I *4592:A2_N I *D sky130_fd_sc_hd__o2bb2a_1
*I *4631:B1 I *D sky130_fd_sc_hd__o2bb2a_1
*I *4514:B1 I *D sky130_fd_sc_hd__a22o_1
*I *4468:C I *D sky130_fd_sc_hd__and4_1
*I *4469:A2 I *D sky130_fd_sc_hd__a22o_1
*I *4560:B I *D sky130_fd_sc_hd__nand4_1
*I *4561:A2 I *D sky130_fd_sc_hd__a22o_1
*I *4166:A0 I *D sky130_fd_sc_hd__mux2_1
*I *4981:X O *D sky130_fd_sc_hd__buf_4
*CAP
1 *4513:D 0
2 *4591:B 0.000195407
3 *4592:A2_N 0.000183894
4 *4631:B1 0.000155174
5 *4514:B1 3.81261e-05
6 *4468:C 0.000186987
7 *4469:A2 0
8 *4560:B 5.72297e-06
9 *4561:A2 1.79949e-05
10 *4166:A0 0
11 *4981:X 0.000230608
12 *996:102 0.00037727
13 *996:100 0.000712782
14 *996:81 0.000604865
15 *996:73 0.00019128
16 *996:53 0.000440027
17 *996:49 0.000803695
18 *996:28 0.000569439
19 *996:19 0.000893539
20 *996:6 0.000989378
21 *4468:C *998:39 0.000117601
22 *4468:C *1004:137 0.000137651
23 *4591:B *4591:A_N 1.59094e-05
24 *4631:B1 *997:136 0.000481112
25 *996:6 *997:12 9.75779e-05
26 *996:49 *997:27 0
27 *996:49 *997:130 0.00022109
28 *996:53 *998:25 0.000191157
29 *996:53 *998:39 6.07611e-06
30 *996:73 *997:130 4.17736e-05
31 *996:100 *997:136 0.000512998
32 *996:100 *1000:132 9.5877e-05
33 *996:102 *997:136 8.4047e-05
34 *4166:S *996:6 0.000104714
35 *4166:S *996:19 0.00010018
36 *4468:A *4468:C 6.17437e-06
37 *4514:B2 *4514:B1 2.02517e-05
38 *4514:B2 *996:73 0.000178517
39 *4514:B2 *996:81 0.00014196
40 *4556:A2 *996:19 4.63378e-05
41 *4560:C *4561:A2 0
42 *4560:C *996:19 1.22822e-05
43 *4560:C *996:28 0.000102093
44 *4561:B1 *4561:A2 5.90675e-06
45 *4591:C *4591:B 6.17437e-06
46 *4592:A1_N *4592:A2_N 6.17437e-06
47 *4592:B2 *4592:A2_N 6.70361e-05
48 *161:41 *996:100 3.96156e-05
49 *516:23 *996:49 0
50 *517:8 *996:49 9.24795e-06
51 *518:12 *996:28 1.98161e-05
52 *518:12 *996:49 8.1796e-05
53 *519:12 *996:49 5.50049e-05
54 *556:12 *4591:B 7.89586e-06
55 *793:23 *4468:C 2.72055e-05
56 *793:23 *996:49 0.000104756
57 *793:23 *996:53 6.02277e-06
58 *977:31 *4631:B1 0.000486504
59 *977:31 *996:100 0.000632358
60 *977:31 *996:102 7.70737e-05
61 *978:20 *4561:A2 0
62 *978:20 *996:6 4.39725e-05
63 *978:20 *996:19 0.000437691
64 *978:34 *996:49 4.55577e-05
65 *978:43 *996:81 0.000274078
66 *978:43 *996:100 0.000386967
67 *981:102 *996:49 5.94125e-05
68 *981:122 *996:73 6.36307e-05
69 *983:60 *996:81 6.16439e-05
70 *983:70 *4468:C 0.000115382
71 *983:70 *996:53 0.000185573
72 *984:46 *996:53 0.000582829
73 *994:43 *996:49 0.000219383
74 *994:43 *996:73 0.000308946
75 *994:52 *4514:B1 3.74929e-05
76 *994:52 *996:73 4.08664e-05
77 *994:52 *996:81 2.9938e-05
78 *994:52 *996:100 1.22822e-05
79 *994:63 *996:100 2.93747e-05
*RES
1 *4981:X *996:6 27.4329 
2 *996:6 *4166:A0 23 
3 *996:6 *996:19 13.195 
4 *996:19 *4561:A2 23.4971 
5 *996:19 *996:28 2.52714 
6 *996:28 *4560:B 23.4971 
7 *996:28 *996:49 39.715 
8 *996:49 *996:53 23.2443 
9 *996:53 *4469:A2 38 
10 *996:53 *4468:C 42.8886 
11 *996:49 *996:73 3.95643 
12 *996:73 *996:81 33.8529 
13 *996:81 *4514:B1 24.6157 
14 *996:81 *996:100 29.9557 
15 *996:100 *996:102 1.20143 
16 *996:102 *4631:B1 44.4836 
17 *996:102 *4592:A2_N 40.0507 
18 *996:100 *4591:B 40.0507 
19 *996:73 *4513:D 23 
*END

*D_NET *997 0.0235586
*CONN
*I *4632:A_N I *D sky130_fd_sc_hd__and4b_1
*I *4346:C I *D sky130_fd_sc_hd__and4_1
*I *4347:A2 I *D sky130_fd_sc_hd__a22oi_2
*I *4192:A1 I *D sky130_fd_sc_hd__a22o_1
*I *4383:D I *D sky130_fd_sc_hd__and4_1
*I *4384:B1 I *D sky130_fd_sc_hd__a22oi_2
*I *4423:A2 I *D sky130_fd_sc_hd__a22o_1
*I *4422:C I *D sky130_fd_sc_hd__nand4_1
*I *4981:A I *D sky130_fd_sc_hd__buf_4
*I *4982:X O *D sky130_fd_sc_hd__buf_2
*CAP
1 *4632:A_N 0
2 *4346:C 0.000447085
3 *4347:A2 0
4 *4192:A1 0
5 *4383:D 7.34012e-05
6 *4384:B1 0
7 *4423:A2 0
8 *4422:C 7.14025e-05
9 *4981:A 0
10 *4982:X 0
11 *997:136 0.000776667
12 *997:130 0.0010547
13 *997:104 0.00056167
14 *997:97 0.000242221
15 *997:87 0.000662324
16 *997:76 0.000378919
17 *997:69 0.000743222
18 *997:55 0.00215246
19 *997:42 0.00181572
20 *997:27 0.00153281
21 *997:23 0.00206674
22 *997:12 0.000148464
23 *997:4 0.000882254
24 *997:23 *998:19 9.4763e-05
25 *997:27 *999:29 0.000351972
26 *997:42 *999:29 0
27 *997:55 *999:42 0
28 *997:55 *1000:93 0
29 *997:136 *4549:A_N 9.41704e-05
30 *997:136 *4592:B1 0.000241355
31 *997:136 *998:98 0.000422638
32 *997:136 *1000:43 9.41704e-05
33 *997:136 *1000:124 0.000700216
34 *4166:S *997:12 5.3304e-05
35 *4192:B2 *997:97 0.000137651
36 *4346:B *4346:C 0.000354127
37 *4383:A *997:69 9.58714e-05
38 *4384:B2 *997:69 4.92924e-05
39 *4422:A *997:42 1.79961e-05
40 *4423:B2 *997:42 6.03737e-05
41 *4459:B1 *997:55 0
42 *4631:B1 *997:136 0.000481112
43 *4982:A *997:23 6.51763e-05
44 *161:19 *997:136 0.000114645
45 *161:30 *997:136 0.000188672
46 *170:55 *997:12 0.000136486
47 *170:59 *997:12 3.47781e-05
48 *180:82 *997:69 0.000141869
49 *196:10 *4346:C 2.60152e-05
50 *196:10 *997:87 9.74132e-05
51 *196:10 *997:104 9.17704e-05
52 *309:10 *4346:C 5.14746e-06
53 *337:21 *997:55 8.58219e-05
54 *347:10 *997:55 0.000142408
55 *382:10 *997:42 0
56 *382:10 *997:55 0
57 *384:8 *997:55 0
58 *435:8 *997:27 8.62783e-05
59 *436:14 *4422:C 2.24608e-05
60 *436:14 *997:27 0.000179938
61 *519:12 *997:136 0.0001396
62 *546:6 *997:136 0.000609617
63 *772:48 *997:97 8.62783e-05
64 *792:29 *997:130 5.33213e-05
65 *857:8 *997:55 0.000249918
66 *859:29 *997:97 4.334e-05
67 *864:10 *997:27 0
68 *865:10 *4346:C 0
69 *865:10 *4383:D 0
70 *865:10 *997:87 0
71 *865:10 *997:104 0
72 *895:30 *997:12 0
73 *895:30 *997:23 0.000227208
74 *977:31 *997:136 0.000111045
75 *977:100 *997:55 0.000271692
76 *977:100 *997:69 9.41764e-05
77 *978:20 *997:12 2.32004e-05
78 *981:98 *997:23 0.000530627
79 *981:98 *997:130 0.000430436
80 *981:102 *997:27 0
81 *981:122 *997:130 0.000221997
82 *982:12 *997:55 0
83 *984:46 *997:130 8.9356e-05
84 *985:105 *997:42 0
85 *986:33 *997:27 0.000329134
86 *986:33 *997:42 2.24608e-05
87 *988:83 *4383:D 2.29192e-05
88 *988:83 *997:87 8.83341e-05
89 *988:102 *997:87 2.72055e-05
90 *989:77 *4346:C 0.000183733
91 *994:43 *997:23 0.000249258
92 *994:43 *997:27 0
93 *994:43 *997:130 0.000218329
94 *996:6 *997:12 9.75779e-05
95 *996:49 *997:27 0
96 *996:49 *997:130 0.00022109
97 *996:73 *997:130 4.17736e-05
98 *996:100 *997:136 0.000512998
99 *996:102 *997:136 8.4047e-05
*RES
1 *4982:X *997:4 23 
2 *997:4 *997:12 33.3557 
3 *997:12 *4981:A 23 
4 *997:4 *997:23 15.4321 
5 *997:23 *997:27 39.6189 
6 *997:27 *4422:C 38.9425 
7 *997:27 *997:42 5.2925 
8 *997:42 *4423:A2 38 
9 *997:42 *997:55 39.2771 
10 *997:55 *997:69 40.8129 
11 *997:69 *4384:B1 23 
12 *997:55 *997:76 15 
13 *997:76 *4383:D 39.2014 
14 *997:76 *997:87 7.18786 
15 *997:87 *997:97 49.205 
16 *997:97 *4192:A1 23 
17 *997:87 *997:104 2.61 
18 *997:104 *4347:A2 38 
19 *997:104 *4346:C 45.1879 
20 *997:23 *997:130 39.9014 
21 *997:130 *997:136 44.58 
22 *997:136 *4632:A_N 38 
*END

*D_NET *998 0.021492
*CONN
*I *4547:A2 I *D sky130_fd_sc_hd__a31o_1
*I *4512:B I *D sky130_fd_sc_hd__nand2_1
*I *4548:A2_N I *D sky130_fd_sc_hd__o2bb2a_1
*I *4549:B I *D sky130_fd_sc_hd__and4b_1
*I *4591:A_N I *D sky130_fd_sc_hd__and4b_1
*I *4592:B1 I *D sky130_fd_sc_hd__o2bb2a_1
*I *4422:D I *D sky130_fd_sc_hd__nand4_1
*I *4468:D I *D sky130_fd_sc_hd__and4_1
*I *4469:B1 I *D sky130_fd_sc_hd__a22o_1
*I *4164:A0 I *D sky130_fd_sc_hd__mux2_1
*I *4983:X O *D sky130_fd_sc_hd__buf_4
*CAP
1 *4547:A2 0
2 *4512:B 0.000190038
3 *4548:A2_N 0
4 *4549:B 0
5 *4591:A_N 3.45092e-05
6 *4592:B1 0.000199658
7 *4422:D 0
8 *4468:D 4.99221e-05
9 *4469:B1 0
10 *4164:A0 0
11 *4983:X 8.02048e-05
12 *998:98 0.000394857
13 *998:92 0.000380344
14 *998:84 0.000296251
15 *998:82 0.000549657
16 *998:76 0.000577349
17 *998:67 0.000831997
18 *998:46 0.00092992
19 *998:39 0.000259085
20 *998:29 0.000504011
21 *998:25 0.000636273
22 *998:19 0.00201483
23 *998:6 0.00195001
24 *4468:D *1004:137 5.3304e-05
25 *998:6 *999:14 9.84794e-05
26 *4164:A1 *998:6 5.50106e-05
27 *4164:A1 *998:19 4.17736e-05
28 *4164:S *998:19 2.4754e-05
29 *4260:S *998:19 0.000611453
30 *4422:A *998:67 0.000141954
31 *4422:B *998:67 0.000139346
32 *4468:A *998:39 9.67842e-05
33 *4468:C *998:39 0.000117601
34 *4515:A_N *998:76 1.22822e-05
35 *4515:A_N *998:82 0.000190434
36 *4515:B *998:76 0
37 *4515:B *998:82 0.000216471
38 *4547:A3 *998:82 5.50049e-05
39 *4591:B *4591:A_N 1.59094e-05
40 *4592:B2 *4592:B1 9.41704e-05
41 *4982:A *998:19 0.000177899
42 *161:30 *4592:B1 3.47781e-05
43 *161:41 *4592:B1 0.000206577
44 *161:41 *998:98 0.000432782
45 *170:40 *998:6 3.40181e-05
46 *170:40 *998:19 2.07355e-05
47 *175:8 *998:6 5.29672e-05
48 *230:10 *998:19 0.000143655
49 *436:8 *998:67 1.24376e-05
50 *480:18 *4512:B 4.67488e-05
51 *504:20 *4512:B 9.41704e-05
52 *506:12 *998:92 0
53 *511:10 *998:82 0.000280745
54 *511:10 *998:84 2.54046e-05
55 *511:10 *998:92 1.44546e-05
56 *519:12 *998:92 3.78695e-05
57 *519:12 *998:98 2.64616e-05
58 *546:6 *998:92 9.41704e-05
59 *546:6 *998:98 2.02872e-05
60 *556:12 *4591:A_N 2.64616e-05
61 *792:29 *998:29 0.000528168
62 *792:29 *998:46 0.000139647
63 *792:29 *998:67 0.00094193
64 *793:23 *998:39 0.000168744
65 *895:20 *998:6 0.000401899
66 *895:20 *998:19 0.000356724
67 *895:30 *998:19 9.18764e-05
68 *976:135 *4512:B 0.000234373
69 *976:135 *998:84 0.000127272
70 *976:135 *998:92 0.000243587
71 *977:46 *4512:B 0
72 *977:46 *998:84 0
73 *977:46 *998:92 0
74 *979:36 *998:25 9.5877e-05
75 *979:36 *998:76 0.000471314
76 *983:70 *998:25 0.000188916
77 *983:70 *998:29 0.000528168
78 *983:70 *998:46 0.000131744
79 *983:87 *998:46 1.14452e-05
80 *983:87 *998:67 0.0011627
81 *994:43 *998:19 0.00108537
82 *996:53 *998:25 0.000191157
83 *996:53 *998:39 6.07611e-06
84 *997:23 *998:19 9.4763e-05
85 *997:136 *4592:B1 0.000241355
86 *997:136 *998:98 0.000422638
*RES
1 *4983:X *998:6 27.4329 
2 *998:6 *4164:A0 23 
3 *998:6 *998:19 48.6607 
4 *998:19 *998:25 18.7079 
5 *998:25 *998:29 22.1879 
6 *998:29 *998:39 49.785 
7 *998:39 *4469:B1 23 
8 *998:29 *998:46 1.90571 
9 *998:46 *4468:D 38.6214 
10 *998:46 *998:67 37.8064 
11 *998:67 *4422:D 23 
12 *998:25 *998:76 6.35929 
13 *998:76 *998:82 23.265 
14 *998:82 *998:84 1.90571 
15 *998:84 *998:92 19.9093 
16 *998:92 *998:98 21.4007 
17 *998:98 *4592:B1 42.8886 
18 *998:98 *4591:A_N 38.6214 
19 *998:92 *4549:B 23 
20 *998:84 *4548:A2_N 38 
21 *998:82 *4512:B 42.4121 
22 *998:76 *4547:A2 23 
*END

*D_NET *999 0.0206475
*CONN
*I *4346:D I *D sky130_fd_sc_hd__and4_1
*I *4318:C I *D sky130_fd_sc_hd__and4_1
*I *4347:B1 I *D sky130_fd_sc_hd__a22oi_2
*I *4189:A1 I *D sky130_fd_sc_hd__a22o_1
*I *4319:A2 I *D sky130_fd_sc_hd__a22oi_2
*I *4381:B I *D sky130_fd_sc_hd__nand2_1
*I *4423:B1 I *D sky130_fd_sc_hd__a22o_1
*I *4983:A I *D sky130_fd_sc_hd__buf_4
*I *4984:X O *D sky130_fd_sc_hd__buf_2
*CAP
1 *4346:D 0
2 *4318:C 4.01156e-05
3 *4347:B1 0
4 *4189:A1 0
5 *4319:A2 0
6 *4381:B 0.000288036
7 *4423:B1 9.43617e-05
8 *4983:A 0
9 *4984:X 0
10 *999:99 0.000220466
11 *999:88 0.00145224
12 *999:73 0.00162259
13 *999:67 0.000577598
14 *999:65 0.000511255
15 *999:59 0.000963506
16 *999:42 0.00156467
17 *999:29 0.00181841
18 *999:27 0.00258238
19 *999:14 0.000433064
20 *999:4 0.00188888
21 *999:59 *1001:77 0
22 *999:65 *1001:77 0
23 *999:67 *1005:106 4.39488e-05
24 *999:88 *4319:B1 0
25 *999:88 *1001:46 0
26 *4164:A1 *999:14 2.76611e-06
27 *4261:A *999:27 0.000103637
28 *4317:A *999:65 0
29 *4318:A *999:67 4.79641e-05
30 *4386:A *999:42 0.000244526
31 *4386:A *999:59 2.46345e-05
32 *4386:C *999:42 7.76364e-06
33 *4387:B1 *999:59 0.000166513
34 *4422:A *999:29 3.33617e-05
35 *4423:B2 *4423:B1 5.50049e-05
36 *4423:B2 *999:29 7.90568e-05
37 *4423:B2 *999:42 1.83667e-05
38 *4554:A2 *999:29 0
39 *4984:A *999:14 2.93747e-05
40 *85:8 *999:14 0
41 *175:8 *999:14 5.70419e-05
42 *180:133 *999:88 2.30292e-05
43 *192:8 *999:88 1.32314e-05
44 *196:10 *999:73 2.46933e-05
45 *196:10 *999:88 0.000355096
46 *199:10 *999:29 0
47 *199:10 *999:42 0
48 *199:10 *999:59 0
49 *199:10 *999:65 0
50 *199:10 *999:88 0
51 *199:10 *999:99 0.000175143
52 *224:42 *999:14 0
53 *266:10 *999:88 9.5877e-05
54 *308:6 *999:59 5.41288e-05
55 *309:10 *999:59 3.53115e-05
56 *342:6 *4381:B 0.000484551
57 *344:22 *4381:B 2.64616e-05
58 *344:28 *999:42 0.000141879
59 *347:10 *999:59 0
60 *348:10 *999:59 0
61 *349:8 *999:59 0
62 *432:42 *999:29 0
63 *434:8 *999:29 0.00014411
64 *435:8 *999:29 4.08537e-05
65 *436:14 *999:29 0.000382564
66 *476:8 *999:29 2.5415e-05
67 *781:35 *4423:B1 4.50607e-05
68 *782:29 *999:29 2.11157e-05
69 *857:8 *999:42 0
70 *857:29 *999:42 0
71 *859:42 *999:65 0.000188926
72 *865:10 *999:73 1.86973e-05
73 *865:10 *999:88 4.21594e-06
74 *865:10 *999:99 0.000109893
75 *973:18 *999:88 2.25419e-05
76 *978:10 *999:27 8.19866e-06
77 *979:6 *999:27 0.000221084
78 *979:23 *999:27 0.000185434
79 *979:36 *999:27 0.0010436
80 *982:87 *999:88 0.000330455
81 *984:99 *999:88 0.000362172
82 *984:107 *999:88 0.000182826
83 *985:105 *4423:B1 3.91386e-05
84 *986:84 *999:65 0
85 *986:101 *4381:B 5.50049e-05
86 *987:114 *4318:C 0
87 *987:114 *999:67 9.67842e-05
88 *987:114 *999:73 0.00026808
89 *993:19 *999:29 0
90 *993:34 *999:29 0
91 *997:27 *999:29 0.000351972
92 *997:42 *999:29 0
93 *997:55 *999:42 0
94 *998:6 *999:14 9.84794e-05
*RES
1 *4984:X *999:4 23 
2 *999:4 *999:14 37.8921 
3 *999:14 *4983:A 23 
4 *999:4 *999:27 38.6557 
5 *999:27 *999:29 24.4429 
6 *999:29 *4423:B1 40.0714 
7 *999:29 *999:42 12.1179 
8 *999:42 *4381:B 44.8357 
9 *999:42 *999:59 28.1121 
10 *999:59 *999:65 35.075 
11 *999:65 *999:67 3.48 
12 *999:67 *999:73 18.8529 
13 *999:73 *4319:A2 38 
14 *999:73 *999:88 46.7757 
15 *999:88 *4189:A1 23 
16 *999:67 *999:99 35.075 
17 *999:99 *4347:B1 23 
18 *999:65 *4318:C 23.8493 
19 *999:59 *4346:D 23 
*END

*D_NET *1000 0.0300492
*CONN
*I *4549:A_N I *D sky130_fd_sc_hd__and4b_1
*I *4548:B1 I *D sky130_fd_sc_hd__o2bb2a_1
*I *4376:B I *D sky130_fd_sc_hd__nand2_1
*I *4296:A2 I *D sky130_fd_sc_hd__a22oi_2
*I *4295:C I *D sky130_fd_sc_hd__and4_1
*I *4505:A2 I *D sky130_fd_sc_hd__a31o_1
*I *4507:B I *D sky130_fd_sc_hd__and4b_1
*I *4506:A2_N I *D sky130_fd_sc_hd__o2bb2a_1
*I *4467:B I *D sky130_fd_sc_hd__nand2_1
*I *4162:A0 I *D sky130_fd_sc_hd__mux2_1
*I *4985:X O *D sky130_fd_sc_hd__buf_2
*CAP
1 *4549:A_N 3.61924e-05
2 *4548:B1 0
3 *4376:B 0
4 *4296:A2 3.83602e-05
5 *4295:C 0
6 *4505:A2 0
7 *4507:B 0.000200899
8 *4506:A2_N 0
9 *4467:B 0
10 *4162:A0 0
11 *4985:X 0
12 *1000:132 0.000143945
13 *1000:124 0.000299406
14 *1000:105 0.00032453
15 *1000:97 0.00170419
16 *1000:93 0.00231827
17 *1000:89 0.00177369
18 *1000:76 0.00083285
19 *1000:62 0.000499333
20 *1000:55 0.000179966
21 *1000:47 0.00103923
22 *1000:43 0.00130901
23 *1000:37 0.00100095
24 *1000:31 0.002719
25 *1000:12 0.000371225
26 *1000:4 0.00292059
27 *4507:B *4506:B1 4.88316e-05
28 *1000:62 *4506:B1 2.79543e-05
29 *1000:97 *1004:113 9.51143e-05
30 *1000:105 *1004:90 8.62783e-05
31 *1000:105 *1004:113 5.89196e-05
32 *4162:A1 *1000:12 5.40876e-05
33 *4167:A *1000:31 9.84794e-05
34 *4167:B *1000:31 0.000170058
35 *4349:B1 *1000:97 1.21972e-05
36 *4470:B *1000:89 5.24393e-05
37 *4505:A1 *1000:47 0.000349813
38 *4507:C *4507:B 5.50106e-05
39 *4559:D *1000:31 9.41704e-05
40 *4600:B *1000:31 4.9662e-05
41 *229:10 *1000:12 2.76611e-06
42 *310:10 *1000:93 2.76611e-06
43 *347:10 *1000:93 0
44 *385:10 *1000:93 0
45 *391:12 *1000:93 0
46 *418:12 *1000:89 0.000441065
47 *428:10 *1000:43 0.000318411
48 *428:10 *1000:76 6.16531e-05
49 *428:10 *1000:89 1.14452e-05
50 *437:12 *1000:89 0.0003055
51 *463:8 *1000:89 3.81391e-05
52 *463:16 *1000:55 2.02872e-05
53 *464:10 *4507:B 1.89178e-05
54 *471:10 *1000:43 0
55 *519:12 *4549:A_N 8.264e-05
56 *519:12 *1000:43 9.58714e-05
57 *519:12 *1000:124 0.000689485
58 *556:8 *1000:37 1.01436e-05
59 *774:68 *1000:12 0.000169683
60 *774:80 *1000:12 0.00023506
61 *774:89 *1000:12 4.17736e-05
62 *792:29 *1000:43 0.000579729
63 *792:29 *1000:76 2.95125e-05
64 *792:29 *1000:89 0.000423833
65 *792:33 *1000:89 0.000432703
66 *792:39 *1000:93 0
67 *793:12 *1000:31 0.000150242
68 *793:23 *1000:93 0.000246757
69 *859:42 *1000:97 0.00050218
70 *860:8 *4296:A2 4.00259e-06
71 *860:8 *1000:97 5.10686e-05
72 *860:8 *1000:105 4.74355e-05
73 *884:16 *1000:31 0.000575004
74 *976:135 *4507:B 8.34104e-06
75 *976:135 *1000:62 7.88926e-05
76 *977:31 *1000:132 0.000242944
77 *978:49 *1000:132 0.000161121
78 *978:60 *1000:37 0
79 *978:96 *1000:132 6.16531e-05
80 *978:104 *1000:55 0.000327317
81 *979:42 *1000:43 0
82 *979:57 *1000:47 0.000429534
83 *979:57 *1000:55 0.000138195
84 *979:57 *1000:62 9.84851e-05
85 *981:10 *1000:31 5.3304e-05
86 *981:78 *1000:31 0.000175903
87 *982:12 *1000:93 0.000140661
88 *982:23 *1000:93 0
89 *983:60 *1000:37 0.00026917
90 *983:60 *1000:43 0.000287463
91 *984:59 *1000:89 0
92 *986:84 *1000:97 0.000271476
93 *986:101 *1000:93 0.000981725
94 *986:101 *1000:97 0.000207853
95 *987:52 *1000:105 2.79004e-05
96 *994:63 *1000:37 0
97 *995:27 *1000:31 0.000550115
98 *996:100 *1000:132 9.5877e-05
99 *997:55 *1000:93 0
100 *997:136 *4549:A_N 9.41704e-05
101 *997:136 *1000:43 9.41704e-05
102 *997:136 *1000:124 0.000700216
*RES
1 *4985:X *1000:4 23 
2 *1000:4 *1000:12 37.9957 
3 *1000:12 *4162:A0 23 
4 *1000:4 *1000:31 44.95 
5 *1000:31 *1000:37 33.6664 
6 *1000:37 *1000:43 32.4414 
7 *1000:43 *1000:47 23.7207 
8 *1000:47 *1000:55 35.1164 
9 *1000:55 *4467:B 23 
10 *1000:47 *1000:62 4.43286 
11 *1000:62 *4506:A2_N 23 
12 *1000:62 *4507:B 26.0036 
13 *1000:43 *1000:76 0.849286 
14 *1000:76 *4505:A2 38 
15 *1000:76 *1000:89 36.9571 
16 *1000:89 *1000:93 36.9779 
17 *1000:93 *1000:97 35.155 
18 *1000:97 *1000:105 34.6814 
19 *1000:105 *4295:C 23 
20 *1000:97 *4296:A2 23.8493 
21 *1000:89 *4376:B 23 
22 *1000:37 *1000:124 7.76786 
23 *1000:124 *1000:132 34.06 
24 *1000:132 *4548:B1 23 
25 *1000:124 *4549:A_N 24.0979 
*END

*D_NET *1001 0.0147869
*CONN
*I *4187:A1 I *D sky130_fd_sc_hd__a211o_1
*I *4318:D I *D sky130_fd_sc_hd__and4_1
*I *4345:B I *D sky130_fd_sc_hd__nand2_1
*I *4377:C I *D sky130_fd_sc_hd__and4_1
*I *4378:A2 I *D sky130_fd_sc_hd__a22o_1
*I *4319:B1 I *D sky130_fd_sc_hd__a22oi_2
*I *4986:X O *D sky130_fd_sc_hd__clkbuf_2
*CAP
1 *4187:A1 0
2 *4318:D 0
3 *4345:B 0
4 *4377:C 0.00020256
5 *4378:A2 3.87043e-05
6 *4319:B1 3.86316e-05
7 *4986:X 0.000158017
8 *1001:77 0.00131446
9 *1001:71 0.0011756
10 *1001:67 0.000364628
11 *1001:59 0.000523189
12 *1001:46 0.000407838
13 *1001:42 0.00117772
14 *1001:38 0.0016867
15 *1001:20 0.00164666
16 *1001:10 0.00118746
17 *4377:C *4378:B1 2.80394e-05
18 *4378:A2 *4378:B1 5.90675e-06
19 *1001:20 *1010:18 2.472e-05
20 *1001:38 *4271:C 6.9805e-05
21 *1001:42 *1007:134 0.000353988
22 *1001:59 *1005:106 0.000352421
23 *1001:67 *4317:B 5.50049e-05
24 *1001:67 *1005:106 0.000161451
25 *1001:71 *1004:113 0.000194063
26 *1001:77 *4378:B1 1.5769e-05
27 *4186:A1 *1001:20 3.91683e-06
28 *4186:A2 *1001:20 5.66688e-05
29 *4187:A2 *1001:10 0.000154843
30 *4187:A2 *1001:20 1.12863e-05
31 *4271:B *1001:38 9.64943e-05
32 *4282:B *1001:42 4.34745e-05
33 *4282:C *1001:42 0.000143655
34 *4283:B1 *1001:38 1.57571e-05
35 *4317:A *1001:67 0
36 *4349:A2 *1001:71 2.04774e-05
37 *4389:A *1001:77 2.4754e-05
38 *4389:B *1001:77 0.000353214
39 *5068:A *1001:10 0.000140939
40 *180:125 *1001:20 0.00018531
41 *180:133 *1001:20 0
42 *182:74 *1001:10 7.50825e-05
43 *182:74 *1001:20 5.58975e-06
44 *199:10 *4319:B1 2.96051e-05
45 *199:10 *1001:46 9.74132e-05
46 *244:10 *1001:38 0
47 *244:18 *1001:38 9.67842e-05
48 *244:18 *1001:42 1.40958e-05
49 *245:27 *1001:42 9.84851e-05
50 *246:21 *1001:38 4.34427e-05
51 *247:10 *1001:42 0.000143655
52 *263:8 *1001:42 5.61255e-06
53 *281:8 *1001:67 4.6318e-06
54 *308:21 *1001:71 0
55 *309:14 *1001:71 4.21594e-06
56 *309:14 *1001:77 5.83025e-05
57 *311:12 *1001:71 0
58 *339:14 *4377:C 0.000180224
59 *349:8 *1001:77 9.77972e-05
60 *350:10 *1001:77 5.72091e-05
61 *784:25 *1001:20 0.000948295
62 *792:39 *1001:77 9.41704e-05
63 *819:53 *1001:20 2.72882e-05
64 *844:18 *1001:38 4.88204e-05
65 *859:42 *1001:67 2.08324e-05
66 *865:10 *4319:B1 4.21594e-06
67 *972:28 *1001:38 5.25436e-05
68 *972:85 *1001:20 0.000144494
69 *974:14 *1001:20 0
70 *986:84 *1001:71 0
71 *986:84 *1001:77 0
72 *986:101 *1001:77 0
73 *999:59 *1001:77 0
74 *999:65 *1001:77 0
75 *999:88 *4319:B1 0
76 *999:88 *1001:46 0
*RES
1 *4986:X *1001:10 41.8321 
2 *1001:10 *1001:20 49.4093 
3 *1001:20 *1001:38 40.5021 
4 *1001:38 *1001:42 35.155 
5 *1001:42 *1001:46 17.61 
6 *1001:46 *4319:B1 38.8493 
7 *1001:46 *1001:59 18.9564 
8 *1001:59 *1001:67 35.1579 
9 *1001:67 *1001:71 17.9621 
10 *1001:71 *1001:77 31.2607 
11 *1001:77 *4378:A2 23.8493 
12 *1001:77 *4377:C 26.0036 
13 *1001:71 *4345:B 38 
14 *1001:59 *4318:D 23 
15 *1001:10 *4187:A1 38 
*END

*D_NET *1002 0.0349679
*CONN
*I *4778:C1 I *D sky130_fd_sc_hd__a211oi_1
*I *4791:C1 I *D sky130_fd_sc_hd__a211oi_1
*I *4804:C1 I *D sky130_fd_sc_hd__a211oi_1
*I *4820:C1 I *D sky130_fd_sc_hd__a211oi_1
*I *4831:C1 I *D sky130_fd_sc_hd__a211oi_2
*I *4836:C1 I *D sky130_fd_sc_hd__a211oi_1
*I *4147:A I *D sky130_fd_sc_hd__inv_2
*I *4152:A I *D sky130_fd_sc_hd__nor3_1
*I *5066:X O *D sky130_fd_sc_hd__clkbuf_4
*CAP
1 *4778:C1 0
2 *4791:C1 0
3 *4804:C1 0
4 *4820:C1 2.34823e-05
5 *4831:C1 0
6 *4836:C1 0
7 *4147:A 0
8 *4152:A 1.92429e-05
9 *5066:X 0
10 *1002:115 0.000192694
11 *1002:95 0.00100762
12 *1002:78 0.00144519
13 *1002:67 0.00142522
14 *1002:54 0.00488327
15 *1002:46 0.00387637
16 *1002:44 0.000832713
17 *1002:30 0.00186087
18 *1002:28 0.00226115
19 *1002:26 0.00188119
20 *1002:22 0.00144854
21 *1002:12 0.00147708
22 *1002:6 0.000845945
23 *1002:30 *4820:A1 5.29672e-05
24 *1002:44 *4820:A1 0.000203388
25 *1002:44 *1010:146 0
26 *1002:54 *1009:100 0.000114584
27 *1002:78 *1009:100 0.000311919
28 *4231:A *1002:12 1.47563e-05
29 *4778:A1 *1002:12 7.44257e-05
30 *4778:A2 *1002:12 1.83667e-05
31 *4778:B1 *1002:12 4.34745e-05
32 *4778:B1 *1002:22 0.000272383
33 *4783:B1 *1002:28 6.17437e-06
34 *4789:A *1002:26 6.7177e-06
35 *4805:C *1002:28 0.000397596
36 *4805:D *1002:28 8.77809e-05
37 *4820:A2 *1002:30 0.000490778
38 *4892:D *1002:44 0.000227208
39 *4925:A *1002:26 1.22906e-05
40 *5111:A *1002:28 2.4754e-05
41 *80:8 *1002:67 5.61311e-05
42 *135:8 *1002:44 0.000168195
43 *135:8 *1002:54 0
44 *154:8 *1002:22 0.00014411
45 *183:28 *1002:30 0.00012354
46 *183:28 *1002:54 0.00125752
47 *183:103 *1002:12 0.000194327
48 *215:8 *1002:12 0
49 *671:47 *1002:28 8.48502e-06
50 *729:10 *1002:26 5.90738e-05
51 *730:10 *1002:26 0
52 *731:10 *1002:22 6.02277e-06
53 *731:10 *1002:26 0.00012077
54 *732:8 *1002:22 0.000181432
55 *768:12 *1002:78 0
56 *769:10 *1002:78 2.04774e-05
57 *769:10 *1002:95 1.19692e-05
58 *771:10 *1002:78 8.62876e-05
59 *772:94 *1002:26 4.96264e-05
60 *776:45 *1002:78 0.000106516
61 *813:38 *1002:26 4.73585e-05
62 *825:6 *1002:44 0.000270682
63 *832:61 *1002:115 0
64 *832:87 *1002:115 0
65 *835:62 *1002:26 7.56417e-05
66 *835:94 *1002:22 0.000230252
67 *836:29 *1002:54 0.0014194
68 *837:85 *1002:22 0
69 *837:85 *1002:26 1.58805e-05
70 *837:87 *1002:28 9.67842e-05
71 *838:124 *1002:115 0
72 *844:64 *1002:54 0.00170649
73 *844:75 *1002:44 0.000481931
74 *844:81 *1002:95 0.00035793
75 *853:10 *1002:28 5.50106e-05
76 *914:8 *1002:44 0
77 *962:59 *1002:26 0.000651994
78 *968:40 *1002:95 3.70187e-05
79 *970:23 *1002:28 0.000657418
80 *970:23 *1002:30 0.000429452
81 *972:142 *1002:95 0
*RES
1 *5066:X *1002:6 38 
2 *1002:6 *1002:12 31.53 
3 *1002:12 *1002:22 30.7429 
4 *1002:22 *1002:26 34.1607 
5 *1002:26 *1002:28 21.5843 
6 *1002:28 *1002:30 20.6314 
7 *1002:30 *1002:44 47.3586 
8 *1002:44 *1002:46 15 
9 *1002:46 *1002:54 30.6145 
10 *1002:54 *4152:A 38.3211 
11 *1002:54 *1002:67 42.7882 
12 *1002:67 *4147:A 23 
13 *1002:46 *1002:78 11.4757 
14 *1002:78 *4836:C1 38 
15 *1002:78 *1002:95 46.9857 
16 *1002:95 *4831:C1 38 
17 *1002:30 *4820:C1 23.4971 
18 *1002:28 *1002:115 33.3143 
19 *1002:115 *4804:C1 23 
20 *1002:22 *4791:C1 38 
21 *1002:12 *4778:C1 23 
*END

*D_NET *1003 0.0124022
*CONN
*I *4460:A2_N I *D sky130_fd_sc_hd__o2bb2a_1
*I *4340:A2 I *D sky130_fd_sc_hd__a22oi_1
*I *4339:C I *D sky130_fd_sc_hd__and4_1
*I *4377:D I *D sky130_fd_sc_hd__and4_1
*I *4378:B1 I *D sky130_fd_sc_hd__a22o_1
*I *4414:C I *D sky130_fd_sc_hd__and4_1
*I *4416:A2 I *D sky130_fd_sc_hd__a22o_1
*I *4461:B I *D sky130_fd_sc_hd__and4b_1
*I *4507:A_N I *D sky130_fd_sc_hd__and4b_1
*I *4506:B1 I *D sky130_fd_sc_hd__o2bb2a_1
*I *4987:X O *D sky130_fd_sc_hd__clkbuf_2
*CAP
1 *4460:A2_N 0
2 *4340:A2 0
3 *4339:C 3.55465e-05
4 *4377:D 0
5 *4378:B1 0.000167906
6 *4414:C 4.99221e-05
7 *4416:A2 0
8 *4461:B 0.000208388
9 *4507:A_N 0
10 *4506:B1 0.000164017
11 *4987:X 0.000222415
12 *1003:116 0.000404022
13 *1003:93 0.000901533
14 *1003:75 0.000167906
15 *1003:73 0.00135474
16 *1003:54 0.00113967
17 *1003:45 0.000726355
18 *1003:30 0.00117261
19 *1003:12 0.000164017
20 *1003:10 0.000657246
21 *4378:B1 *1006:67 0
22 *4414:C *4414:D 5.3304e-05
23 *1003:45 *4461:A_N 2.9938e-05
24 *1003:45 *1006:14 0.000140607
25 *1003:45 *1006:30 9.70251e-05
26 *1003:54 *1006:45 6.07826e-05
27 *1003:73 *1006:59 0.000407208
28 *1003:73 *1006:67 0
29 *1003:93 *1006:67 0
30 *1003:116 *1005:114 6.33303e-06
31 *1003:116 *1006:67 2.75733e-06
32 *1003:116 *1006:73 5.58152e-06
33 *4377:C *4378:B1 2.80394e-05
34 *4378:A2 *4378:B1 5.90675e-06
35 *4461:C *4461:B 0.000267173
36 *4507:B *4506:B1 4.88316e-05
37 *161:52 *1003:10 0
38 *161:52 *1003:30 0
39 *161:65 *1003:30 0
40 *161:82 *1003:30 1.78655e-05
41 *161:82 *1003:45 0
42 *301:8 *1003:116 7.27694e-06
43 *302:12 *1003:116 2.11157e-05
44 *338:14 *1003:73 5.70419e-05
45 *339:14 *4378:B1 0.00012103
46 *350:10 *4378:B1 0.000394994
47 *374:18 *1003:45 0
48 *374:18 *1003:54 0
49 *393:14 *1003:73 0.000219383
50 *419:8 *1003:30 1.01436e-05
51 *464:10 *4506:B1 5.50049e-05
52 *781:41 *1003:45 0.000136486
53 *781:41 *1003:54 0.000239765
54 *792:39 *4378:B1 2.64616e-05
55 *976:135 *4506:B1 0.000143377
56 *976:135 *1003:10 0
57 *977:46 *1003:10 6.08032e-05
58 *977:52 *1003:10 6.48049e-05
59 *977:52 *1003:30 0.000639359
60 *977:54 *4461:B 6.7991e-05
61 *977:64 *4461:B 4.03463e-05
62 *977:64 *1003:30 0
63 *977:64 *1003:45 0.000182245
64 *977:83 *1003:73 1.62615e-05
65 *977:100 *1003:73 0.000162623
66 *979:57 *1003:30 0
67 *979:76 *1003:54 0.000349386
68 *979:76 *1003:73 5.94125e-05
69 *979:89 *1003:73 0
70 *982:49 *1003:116 0
71 *982:66 *1003:93 1.74874e-06
72 *982:66 *1003:116 3.87221e-06
73 *984:59 *1003:73 0.000132614
74 *984:70 *1003:73 6.07611e-06
75 *984:70 *1003:93 0.000431193
76 *1000:62 *4506:B1 2.79543e-05
77 *1001:77 *4378:B1 1.5769e-05
*RES
1 *4987:X *1003:10 42.1843 
2 *1003:10 *1003:12 15 
3 *1003:12 *4506:B1 26.9564 
4 *1003:12 *4507:A_N 23 
5 *1003:10 *1003:30 24.9221 
6 *1003:30 *4461:B 27.4536 
7 *1003:30 *1003:45 25.5436 
8 *1003:45 *4416:A2 38 
9 *1003:45 *1003:54 5.075 
10 *1003:54 *4414:C 38.6214 
11 *1003:54 *1003:73 47.5657 
12 *1003:73 *1003:75 15 
13 *1003:75 *4378:B1 28.4271 
14 *1003:75 *4377:D 23 
15 *1003:73 *1003:93 11.4136 
16 *1003:93 *4339:C 38.6214 
17 *1003:93 *1003:116 32.4701 
18 *1003:116 *4340:A2 23 
19 *1003:30 *4460:A2_N 23 
*END

*D_NET *1004 0.0270375
*CONN
*I *4987:A I *D sky130_fd_sc_hd__clkbuf_2
*I *4295:D I *D sky130_fd_sc_hd__and4_1
*I *4317:B I *D sky130_fd_sc_hd__nand2_1
*I *4296:B1 I *D sky130_fd_sc_hd__a22oi_2
*I *4281:A2 I *D sky130_fd_sc_hd__a22oi_2
*I *4280:C I *D sky130_fd_sc_hd__and4_1
*I *4183:A1 I *D sky130_fd_sc_hd__a22o_1
*I *4160:A0 I *D sky130_fd_sc_hd__mux2_1
*I *4988:X O *D sky130_fd_sc_hd__buf_2
*CAP
1 *4987:A 0
2 *4295:D 0
3 *4317:B 1.50079e-05
4 *4296:B1 0
5 *4281:A2 0
6 *4280:C 5.87783e-05
7 *4183:A1 0.000387351
8 *4160:A0 0.000100619
9 *4988:X 6.73878e-05
10 *1004:137 0.00260644
11 *1004:135 0.00276885
12 *1004:113 0.000689377
13 *1004:90 0.000789213
14 *1004:84 0.000761424
15 *1004:57 0.000696699
16 *1004:49 0.000351567
17 *1004:43 0.00122575
18 *1004:35 0.00151327
19 *1004:27 0.00173831
20 *1004:10 0.000641432
21 *1004:8 6.73878e-05
22 *4317:B *1005:106 5.50049e-05
23 *1004:35 *1007:23 5.61311e-05
24 *1004:35 *1007:42 0.000194488
25 *1004:35 *1007:55 0.000108681
26 *1004:35 *1007:74 0.000324742
27 *1004:35 *1010:78 0
28 *1004:43 *1007:74 0.00019747
29 *4160:S *4160:A0 7.53384e-06
30 *4160:S *1004:27 4.21281e-05
31 *4183:A2 *4183:A1 9.8971e-06
32 *4250:A1 *1004:27 5.79559e-05
33 *4250:S *1004:27 0.000139067
34 *4250:S *1004:135 4.17736e-05
35 *4252:A1 *1004:135 7.39261e-05
36 *4252:S *1004:135 0.000110425
37 *4273:A *1004:43 0
38 *4280:B *4280:C 5.3304e-05
39 *4317:A *1004:113 5.26204e-05
40 *4468:A *1004:137 5.97178e-05
41 *4468:C *1004:137 0.000137651
42 *4468:D *1004:137 5.3304e-05
43 *170:27 *1004:27 0.000289461
44 *180:34 *4183:A1 1.57571e-05
45 *182:14 *1004:35 0.00077016
46 *182:39 *1004:35 6.49555e-06
47 *182:39 *1004:43 6.17437e-06
48 *224:10 *1004:35 0.000796649
49 *224:34 *1004:135 0.000575004
50 *225:10 *1004:27 0.000146822
51 *234:25 *1004:43 0.000431833
52 *239:10 *1004:43 8.16253e-05
53 *259:10 *1004:90 0.000138718
54 *427:10 *1004:137 9.5877e-05
55 *774:64 *1004:35 0.000244517
56 *781:12 *1004:35 8.16253e-05
57 *784:17 *1004:27 5.86204e-05
58 *784:17 *1004:35 0.000283034
59 *784:17 *1004:43 0.000143925
60 *784:17 *1004:49 0.000235638
61 *784:17 *1004:57 4.20768e-05
62 *784:25 *1004:49 0
63 *784:25 *1004:57 6.56651e-05
64 *797:32 *1004:35 0.000163361
65 *808:34 *1004:43 0
66 *841:53 *1004:8 0.000114092
67 *841:77 *1004:35 9.40162e-05
68 *844:18 *1004:43 0
69 *844:18 *1004:49 0
70 *844:18 *1004:84 0
71 *844:35 *1004:8 0
72 *859:42 *1004:113 0.000755863
73 *860:8 *1004:113 0.000436729
74 *864:10 *1004:137 9.88574e-06
75 *866:16 *1004:27 0.000323963
76 *866:16 *1004:135 0.000617571
77 *973:24 *1004:90 0
78 *986:27 *1004:27 1.98781e-05
79 *986:27 *1004:137 0.000384858
80 *986:33 *1004:137 0.00035756
81 *986:48 *4183:A1 2.93431e-05
82 *986:57 *4183:A1 0.000292197
83 *986:57 *4280:C 4.05745e-05
84 *986:76 *1004:113 0.000979841
85 *986:84 *1004:113 7.66699e-05
86 *987:52 *1004:90 0
87 *987:81 *1004:57 8.58779e-05
88 *987:114 *1004:90 4.6318e-06
89 *988:14 *1004:135 1.72202e-05
90 *988:14 *1004:137 1.32314e-05
91 *989:19 *1004:35 3.56537e-05
92 *989:39 *1004:49 0.000169674
93 *989:39 *1004:84 0.000314606
94 *989:70 *1004:84 0.000360843
95 *989:77 *1004:84 4.95081e-05
96 *990:74 *1004:35 3.61397e-05
97 *1000:97 *1004:113 9.51143e-05
98 *1000:105 *1004:90 8.62783e-05
99 *1000:105 *1004:113 5.89196e-05
100 *1001:67 *4317:B 5.50049e-05
101 *1001:71 *1004:113 0.000194063
*RES
1 *4988:X *1004:8 39.5536 
2 *1004:8 *1004:10 15 
3 *1004:10 *4160:A0 24.5743 
4 *1004:10 *1004:27 42.0971 
5 *1004:27 *1004:35 45.6157 
6 *1004:35 *1004:43 41.2789 
7 *1004:43 *1004:49 18.7596 
8 *1004:49 *1004:57 34.7643 
9 *1004:57 *4183:A1 30.2914 
10 *1004:57 *4280:C 24.0979 
11 *1004:49 *4281:A2 23 
12 *1004:43 *1004:84 30.2561 
13 *1004:84 *1004:90 32.61 
14 *1004:90 *4296:B1 23 
15 *1004:90 *1004:113 38.6143 
16 *1004:113 *4317:B 38.6214 
17 *1004:84 *4295:D 23 
18 *1004:27 *1004:135 9.38357 
19 *1004:135 *1004:137 45.8821 
20 *1004:137 *4987:A 23 
*END

*D_NET *1005 0.0206702
*CONN
*I *4272:C I *D sky130_fd_sc_hd__nand4_1
*I *4270:A2 I *D sky130_fd_sc_hd__a22o_1
*I *4339:D I *D sky130_fd_sc_hd__and4_1
*I *4375:B I *D sky130_fd_sc_hd__nand2_1
*I *4294:B I *D sky130_fd_sc_hd__nand2_1
*I *4281:B1 I *D sky130_fd_sc_hd__a22oi_2
*I *4271:C I *D sky130_fd_sc_hd__and4_1
*I *4280:D I *D sky130_fd_sc_hd__and4_1
*I *4180:A1 I *D sky130_fd_sc_hd__a22o_1
*I *4158:A0 I *D sky130_fd_sc_hd__mux2_1
*I *4989:X O *D sky130_fd_sc_hd__buf_2
*CAP
1 *4272:C 7.28472e-05
2 *4270:A2 0
3 *4339:D 5.48409e-05
4 *4375:B 0
5 *4294:B 2.14194e-05
6 *4281:B1 0
7 *4271:C 0.000216106
8 *4280:D 5.63754e-05
9 *4180:A1 0
10 *4158:A0 0.000126493
11 *4989:X 6.44903e-05
12 *1005:114 0.00132125
13 *1005:106 0.00295325
14 *1005:93 0.00245033
15 *1005:56 0.00039102
16 *1005:52 0.000309021
17 *1005:48 0.00142251
18 *1005:40 0.00069294
19 *1005:30 0.000703054
20 *1005:23 0.000564331
21 *1005:17 0.00155246
22 *1005:6 0.000861565
23 *4271:C *1007:121 6.08768e-05
24 *4272:C *4272:D 5.50106e-05
25 *1005:17 *1010:101 0.000218962
26 *1005:40 *4272:D 5.61255e-06
27 *1005:48 *1007:98 0
28 *1005:93 *1007:98 0.000169201
29 *1005:93 *1007:109 9.67842e-05
30 *4267:B *1005:23 0.000182826
31 *4271:B *4271:C 7.6816e-05
32 *4273:A *1005:48 0
33 *4274:A2 *1005:40 0
34 *4274:A2 *1005:48 5.3304e-05
35 *4275:B *1005:40 0
36 *4280:B *4280:D 6.17437e-06
37 *4317:B *1005:106 5.50049e-05
38 *4318:A *1005:106 9.5877e-05
39 *4340:A1 *4339:D 9.84851e-05
40 *4340:A1 *1005:106 2.61526e-05
41 *4340:A1 *1005:114 4.79612e-05
42 *4341:B *1005:114 1.39317e-05
43 *4343:B *1005:114 0.000144067
44 *4372:A2 *1005:114 2.18409e-05
45 *4886:CLK *1005:17 0
46 *129:8 *1005:17 0
47 *180:48 *1005:23 3.19833e-05
48 *180:78 *4158:A0 0.000185434
49 *180:78 *1005:6 8.6949e-05
50 *233:10 *1005:17 0
51 *236:19 *1005:48 1.12487e-05
52 *238:10 *1005:40 1.56762e-05
53 *238:10 *1005:48 4.08664e-05
54 *238:27 *1005:48 3.47781e-05
55 *244:10 *1005:93 0.000104396
56 *245:10 *4271:C 4.70182e-05
57 *245:10 *4280:D 2.93747e-05
58 *246:8 *4271:C 1.69668e-05
59 *246:8 *1005:56 1.34354e-05
60 *301:8 *1005:114 9.69599e-06
61 *305:10 *1005:114 0.000339704
62 *351:20 *1005:114 0
63 *351:35 *1005:114 0
64 *782:12 *1005:17 0
65 *797:24 *1005:17 0.000407208
66 *797:24 *1005:23 7.1349e-05
67 *808:34 *1005:48 0
68 *844:18 *1005:48 0.000201474
69 *844:18 *1005:93 0
70 *866:25 *1005:17 0
71 *866:43 *1005:23 1.63039e-05
72 *984:72 *1005:106 2.18409e-05
73 *984:78 *1005:106 0.000102093
74 *986:57 *4280:D 0.000140259
75 *986:57 *1005:93 6.17437e-06
76 *986:68 *4294:B 5.90675e-06
77 *986:68 *1005:93 0.000429288
78 *987:8 *4272:C 2.93845e-05
79 *987:8 *1005:40 9.84794e-05
80 *987:10 *1005:40 1.41077e-05
81 *987:20 *4272:C 2.72055e-05
82 *987:20 *1005:17 9.48381e-06
83 *987:20 *1005:23 0.000784604
84 *987:20 *1005:30 0.000176647
85 *987:41 *4272:C 0
86 *987:54 *1005:52 0.000169595
87 *987:54 *1005:93 0.000140259
88 *987:64 *1005:52 0.00010018
89 *987:64 *1005:56 0.00019747
90 *987:114 *1005:93 1.61361e-05
91 *987:114 *1005:106 0.000367024
92 *989:27 *1005:40 3.95244e-05
93 *989:33 *1005:48 0.000132486
94 *989:39 *1005:56 4.21594e-06
95 *989:48 *4271:C 1.69668e-05
96 *989:48 *1005:56 7.98052e-05
97 *999:67 *1005:106 4.39488e-05
98 *1001:38 *4271:C 6.9805e-05
99 *1001:59 *1005:106 0.000352421
100 *1001:67 *1005:106 0.000161451
101 *1003:116 *1005:114 6.33303e-06
*RES
1 *4989:X *1005:6 24.0979 
2 *1005:6 *4158:A0 25.0507 
3 *1005:6 *1005:17 28.8786 
4 *1005:17 *1005:23 27.4286 
5 *1005:23 *4180:A1 23 
6 *1005:17 *1005:30 7.18786 
7 *1005:30 *1005:40 19.9714 
8 *1005:40 *1005:48 38.99 
9 *1005:48 *1005:52 3.97714 
10 *1005:52 *1005:56 18.3143 
11 *1005:56 *4280:D 39.5743 
12 *1005:56 *4271:C 42.3086 
13 *1005:52 *4281:B1 23 
14 *1005:48 *1005:93 47.0686 
15 *1005:93 *4294:B 23.4971 
16 *1005:93 *1005:106 31.03 
17 *1005:106 *1005:114 36.9571 
18 *1005:114 *4375:B 38 
19 *1005:106 *4339:D 24.9471 
20 *1005:40 *4270:A2 23 
21 *1005:30 *4272:C 39.8229 
*END

*D_NET *1006 0.0117857
*CONN
*I *4414:D I *D sky130_fd_sc_hd__and4_1
*I *4413:A2 I *D sky130_fd_sc_hd__a31o_1
*I *4340:B1 I *D sky130_fd_sc_hd__a22oi_1
*I *4315:C I *D sky130_fd_sc_hd__and4_1
*I *4314:A2 I *D sky130_fd_sc_hd__a22oi_1
*I *4416:B1 I *D sky130_fd_sc_hd__a22o_1
*I *4460:B1 I *D sky130_fd_sc_hd__o2bb2a_1
*I *4461:A_N I *D sky130_fd_sc_hd__and4b_1
*I *4990:X O *D sky130_fd_sc_hd__clkbuf_2
*CAP
1 *4414:D 6.66759e-05
2 *4413:A2 0
3 *4340:B1 3.91021e-05
4 *4315:C 0
5 *4314:A2 4.23013e-05
6 *4416:B1 0
7 *4460:B1 0
8 *4461:A_N 0.0001389
9 *4990:X 0.000292986
10 *1006:73 0.000988923
11 *1006:67 0.00158786
12 *1006:59 0.00107777
13 *1006:45 0.000749571
14 *1006:30 0.00036073
15 *1006:14 0.000311976
16 *1006:8 0.000619528
17 *4314:A2 *4314:B1 2.32101e-05
18 *4314:A2 *1008:55 3.22879e-05
19 *1006:67 *1008:31 0
20 *1006:73 *1008:55 0.000285221
21 *4314:A1 *4314:A2 0.000124942
22 *4342:A *1006:67 0.000288867
23 *4344:A *1006:73 0
24 *4344:B *1006:73 0
25 *4378:B1 *1006:67 0
26 *4380:A *1006:59 0
27 *4380:B *1006:59 0.000137651
28 *4413:A1 *1006:67 3.20914e-05
29 *4414:B *4414:D 5.3304e-05
30 *4414:C *4414:D 5.3304e-05
31 *4461:C *4461:A_N 0.000126914
32 *161:65 *4461:A_N 5.67058e-05
33 *161:65 *1006:14 2.18506e-05
34 *161:82 *4461:A_N 0.000310636
35 *181:50 *4414:D 2.32004e-05
36 *181:50 *1006:45 1.41077e-05
37 *302:12 *1006:67 1.34542e-05
38 *304:14 *1006:67 6.3239e-06
39 *313:10 *1006:73 0
40 *313:27 *1006:73 0
41 *316:8 *1006:73 0
42 *338:6 *1006:67 5.3304e-05
43 *338:14 *1006:67 3.47781e-05
44 *339:14 *1006:59 2.87566e-05
45 *339:14 *1006:67 2.80512e-05
46 *339:27 *1006:59 9.84794e-05
47 *339:27 *1006:67 0
48 *350:10 *1006:59 6.51746e-05
49 *350:10 *1006:67 0.000141052
50 *373:12 *1006:59 6.74169e-05
51 *781:41 *1006:30 0.000110922
52 *781:41 *1006:45 0.000279936
53 *977:54 *4461:A_N 5.5525e-05
54 *977:64 *4461:A_N 0.00017077
55 *977:64 *1006:14 0
56 *977:83 *1006:45 0.000254155
57 *977:92 *1006:59 0.000456477
58 *977:117 *1006:59 0.00021039
59 *979:57 *1006:14 0.000278717
60 *979:57 *1006:30 0.000302884
61 *979:57 *1006:45 2.46345e-05
62 *979:89 *4414:D 4.2573e-05
63 *979:89 *1006:59 0
64 *979:106 *1006:59 0.000104752
65 *982:66 *1006:67 1.05441e-05
66 *982:66 *1006:73 0.000121303
67 *982:79 *1006:73 2.18409e-05
68 *982:83 *4314:A2 0.000121618
69 *982:83 *1006:73 7.73389e-05
70 *1003:45 *4461:A_N 2.9938e-05
71 *1003:45 *1006:14 0.000140607
72 *1003:45 *1006:30 9.70251e-05
73 *1003:54 *1006:45 6.07826e-05
74 *1003:73 *1006:59 0.000407208
75 *1003:73 *1006:67 0
76 *1003:93 *1006:67 0
77 *1003:116 *1006:67 2.75733e-06
78 *1003:116 *1006:73 5.58152e-06
*RES
1 *4990:X *1006:8 41.48 
2 *1006:8 *1006:14 20.2407 
3 *1006:14 *4461:A_N 28.4064 
4 *1006:14 *4460:B1 23 
5 *1006:8 *1006:30 4.37071 
6 *1006:30 *4416:B1 38 
7 *1006:30 *1006:45 21.5457 
8 *1006:45 *1006:59 44.0443 
9 *1006:59 *1006:67 29.1893 
10 *1006:67 *1006:73 34.7407 
11 *1006:73 *4314:A2 25.3407 
12 *1006:73 *4315:C 23 
13 *1006:67 *4340:B1 38.6214 
14 *1006:59 *4413:A2 23 
15 *1006:45 *4414:D 24.5743 
*END

*D_NET *1007 0.0175153
*CONN
*I *4303:A2 I *D sky130_fd_sc_hd__a22o_1
*I *4302:B I *D sky130_fd_sc_hd__nand4_1
*I *4271:D I *D sky130_fd_sc_hd__and4_1
*I *4279:B I *D sky130_fd_sc_hd__nand2_1
*I *4272:D I *D sky130_fd_sc_hd__nand4_1
*I *4270:B1 I *D sky130_fd_sc_hd__a22o_1
*I *4267:C I *D sky130_fd_sc_hd__and3_1
*I *4177:A1 I *D sky130_fd_sc_hd__a22o_1
*I *4266:A3 I *D sky130_fd_sc_hd__a31o_1
*I *4156:A0 I *D sky130_fd_sc_hd__mux2_1
*I *4991:X O *D sky130_fd_sc_hd__buf_2
*CAP
1 *4303:A2 0.00031514
2 *4302:B 4.99221e-05
3 *4271:D 0
4 *4279:B 0
5 *4272:D 0.000140255
6 *4270:B1 0
7 *4267:C 1.01647e-05
8 *4177:A1 0.000255906
9 *4266:A3 0.000296032
10 *4156:A0 0
11 *4991:X 0
12 *1007:136 0.000884914
13 *1007:134 0.000994099
14 *1007:121 0.000817027
15 *1007:109 0.00141806
16 *1007:98 0.000626077
17 *1007:76 0.000140255
18 *1007:74 0.00106101
19 *1007:55 0.000628316
20 *1007:42 0.000481721
21 *1007:23 0.000857196
22 *1007:12 0.00026112
23 *1007:4 0.000652905
24 *1007:74 *1010:78 0
25 *4178:B1 *4177:A1 3.15313e-05
26 *4178:C1 *4177:A1 0
27 *4266:A2 *4266:A3 9.84851e-05
28 *4268:B *4177:A1 9.41704e-05
29 *4271:B *1007:121 2.24608e-05
30 *4271:C *1007:121 6.08768e-05
31 *4272:B *4272:D 5.67058e-05
32 *4272:B *1007:74 2.46345e-05
33 *4272:B *1007:98 4.70953e-05
34 *4272:C *4272:D 5.50106e-05
35 *4273:A *1007:74 0.000218503
36 *4303:B1 *4303:A2 5.3304e-05
37 *4303:B2 *4303:A2 0.00020223
38 *4973:A *4272:D 1.14154e-05
39 *181:38 *1007:42 9.58714e-05
40 *182:14 *1007:42 4.6318e-06
41 *182:39 *1007:42 0.0001058
42 *182:39 *1007:55 9.85378e-05
43 *182:39 *1007:74 0.000262178
44 *194:12 *4303:A2 0
45 *194:12 *1007:136 0
46 *233:10 *4266:A3 5.70419e-05
47 *234:25 *1007:74 2.24151e-05
48 *236:19 *1007:74 7.69935e-05
49 *238:10 *4272:D 0.000139352
50 *238:27 *1007:74 7.76364e-06
51 *239:10 *1007:74 0.000355822
52 *244:10 *1007:109 6.92122e-05
53 *244:10 *1007:134 3.53031e-05
54 *263:8 *1007:134 0.00044458
55 *263:16 *1007:134 0
56 *264:21 *4303:A2 0.000149793
57 *265:10 *4303:A2 6.16531e-05
58 *265:10 *1007:136 0.000296947
59 *267:10 *4303:A2 9.62666e-05
60 *285:8 *1007:136 0.000116925
61 *772:48 *4303:A2 7.75329e-06
62 *772:48 *1007:136 0.000166095
63 *773:6 *1007:23 5.37348e-06
64 *773:10 *1007:12 1.83408e-05
65 *773:10 *1007:23 4.27419e-05
66 *781:12 *1007:23 0.00013965
67 *797:32 *4177:A1 2.18506e-05
68 *797:32 *1007:42 4.67488e-05
69 *866:43 *4266:A3 0.00043937
70 *866:43 *4267:C 1.95448e-05
71 *974:32 *1007:12 0.000440396
72 *982:87 *4302:B 5.3304e-05
73 *986:68 *1007:109 9.84851e-05
74 *987:8 *4272:D 4.56951e-05
75 *987:10 *4272:D 5.50106e-05
76 *987:20 *4267:C 9.70259e-06
77 *989:23 *1007:74 0.000192087
78 *989:27 *4272:D 5.3304e-05
79 *989:33 *1007:74 3.47781e-05
80 *989:33 *1007:98 0.000422629
81 *990:74 *1007:23 0.000167443
82 *990:74 *1007:42 0.000164282
83 *1001:42 *1007:134 0.000353988
84 *1004:35 *1007:23 5.61311e-05
85 *1004:35 *1007:42 0.000194488
86 *1004:35 *1007:55 0.000108681
87 *1004:35 *1007:74 0.000324742
88 *1004:43 *1007:74 0.00019747
89 *1005:40 *4272:D 5.61255e-06
90 *1005:48 *1007:98 0
91 *1005:93 *1007:98 0.000169201
92 *1005:93 *1007:109 9.67842e-05
*RES
1 *4991:X *1007:4 23 
2 *1007:4 *1007:12 36.4007 
3 *1007:12 *4156:A0 23 
4 *1007:4 *1007:23 21.6907 
5 *1007:23 *4266:A3 44.815 
6 *1007:23 *1007:42 34.9093 
7 *1007:42 *4177:A1 41.5007 
8 *1007:42 *1007:55 1.55357 
9 *1007:55 *4267:C 38.2279 
10 *1007:55 *1007:74 46.1364 
11 *1007:74 *1007:76 15 
12 *1007:76 *4270:B1 23 
13 *1007:76 *4272:D 26.9771 
14 *1007:74 *1007:98 26.8279 
15 *1007:98 *4279:B 23 
16 *1007:98 *1007:109 17.8275 
17 *1007:109 *1007:121 33.3724 
18 *1007:121 *4271:D 23 
19 *1007:109 *1007:134 41.2996 
20 *1007:134 *1007:136 11.0614 
21 *1007:136 *4302:B 38.6214 
22 *1007:136 *4303:A2 45.0221 
*END

*D_NET *1008 0.0110957
*CONN
*I *4417:A_N I *D sky130_fd_sc_hd__and4b_1
*I *4418:B2 I *D sky130_fd_sc_hd__o2bb2a_1
*I *4315:D I *D sky130_fd_sc_hd__and4_1
*I *4314:B1 I *D sky130_fd_sc_hd__a22oi_1
*I *4372:C1 I *D sky130_fd_sc_hd__o211a_1
*I *4373:A2 I *D sky130_fd_sc_hd__a211oi_1
*I *4342:B I *D sky130_fd_sc_hd__nand2_1
*I *4992:X O *D sky130_fd_sc_hd__clkbuf_2
*CAP
1 *4417:A_N 0
2 *4418:B2 0.00041201
3 *4315:D 0
4 *4314:B1 0.000207266
5 *4372:C1 8.99953e-05
6 *4373:A2 0
7 *4342:B 0
8 *4992:X 0
9 *1008:73 0.000523969
10 *1008:55 0.00194309
11 *1008:33 8.99953e-05
12 *1008:31 0.00230178
13 *1008:14 0.00158311
14 *1008:4 0.00112911
15 *4314:A1 *4314:B1 0.000185428
16 *4314:A2 *4314:B1 2.32101e-05
17 *4314:A2 *1008:55 3.22879e-05
18 *4342:A *1008:14 0
19 *4344:A *1008:55 0
20 *4354:A2 *1008:55 0
21 *4372:A2 *4372:C1 0.000141052
22 *4372:B1 *4372:C1 0.000147644
23 *4413:A1 *1008:14 0
24 *4418:A1_N *4418:B2 1.708e-05
25 *181:46 *1008:14 0
26 *301:19 *4372:C1 0.00014196
27 *301:31 *1008:31 0
28 *304:14 *1008:31 3.08071e-05
29 *305:10 *4372:C1 3.04516e-05
30 *306:10 *1008:55 0
31 *314:18 *1008:55 0
32 *315:8 *1008:55 8.62783e-05
33 *334:10 *4372:C1 9.75779e-05
34 *334:10 *1008:55 0
35 *339:27 *1008:14 0.000184816
36 *340:8 *1008:14 0.000133316
37 *376:14 *4418:B2 4.96717e-05
38 *377:6 *4418:B2 0.000139346
39 *393:14 *1008:14 0.000352538
40 *441:8 *1008:14 0
41 *796:55 *4418:B2 3.83243e-05
42 *977:83 *1008:14 0.000141879
43 *977:92 *1008:14 0.000220351
44 *977:117 *4372:C1 5.50106e-05
45 *977:117 *1008:14 0.000229501
46 *977:117 *1008:31 3.24466e-05
47 *982:83 *4314:B1 1.92007e-05
48 *1006:67 *1008:31 0
49 *1006:73 *1008:55 0.000285221
*RES
1 *4992:X *1008:4 23 
2 *1008:4 *1008:14 36.6257 
3 *1008:14 *4342:B 38 
4 *1008:14 *1008:31 38.2443 
5 *1008:31 *1008:33 15 
6 *1008:33 *4373:A2 23 
7 *1008:33 *4372:C1 27.1221 
8 *1008:31 *1008:55 41.7836 
9 *1008:55 *4314:B1 26.5007 
10 *1008:55 *4315:D 23 
11 *1008:4 *1008:73 1.94714 
12 *1008:73 *4418:B2 29.1107 
13 *1008:73 *4417:A_N 23 
*END

*D_NET *1009 0.020779
*CONN
*I *4371:A1 I *D sky130_fd_sc_hd__o211a_1
*I *4830:A I *D sky130_fd_sc_hd__nor2_1
*I *4831:A2 I *D sky130_fd_sc_hd__a211oi_2
*I *4835:B I *D sky130_fd_sc_hd__nor2_1
*I *4820:A1 I *D sky130_fd_sc_hd__a211oi_1
*I *4411:A1 I *D sky130_fd_sc_hd__o211a_1
*I *4410:A I *D sky130_fd_sc_hd__nand2_1
*I *4337:S I *D sky130_fd_sc_hd__mux2_1
*I *4313:A1 I *D sky130_fd_sc_hd__o211a_1
*I *4312:A I *D sky130_fd_sc_hd__nand2_1
*I *4993:X O *D sky130_fd_sc_hd__buf_2
*CAP
1 *4371:A1 0
2 *4830:A 1.11305e-05
3 *4831:A2 0
4 *4835:B 4.47995e-05
5 *4820:A1 0.000501287
6 *4411:A1 1.56201e-05
7 *4410:A 0
8 *4337:S 2.34823e-05
9 *4313:A1 0.000147314
10 *4312:A 3.40122e-05
11 *4993:X 0
12 *1009:121 2.61109e-05
13 *1009:117 0.00108798
14 *1009:100 0.00154839
15 *1009:80 0.000636434
16 *1009:67 0.000119528
17 *1009:65 0.00058128
18 *1009:63 0.00118134
19 *1009:55 0.00155853
20 *1009:42 0.00102806
21 *1009:16 0.000549677
22 *1009:6 0.000845055
23 *4820:A1 *1010:142 0.000519993
24 *1009:80 *1010:142 0.000155937
25 *4191:C1 *1009:42 6.17437e-06
26 *4313:A2 *4313:A1 0.000227446
27 *4313:B1 *4313:A1 1.59071e-05
28 *4337:A1 *1009:42 9.84851e-05
29 *4369:A *1009:63 0.000356724
30 *4409:A *1009:63 0.000274078
31 *4411:A2 *4411:A1 1.14154e-05
32 *4411:A2 *4820:A1 0.000279828
33 *4411:A2 *1009:80 3.22879e-05
34 *4411:C1 *1009:80 7.58422e-05
35 *4823:B *1009:117 0.00014196
36 *4831:A1 *4830:A 0.00010018
37 *4831:A1 *1009:121 5.50106e-05
38 *4833:A1 *1009:117 0.00044107
39 *4833:A2 *1009:117 0.000176355
40 *4834:A1 *1009:117 2.89256e-05
41 *134:10 *1009:55 6.7177e-06
42 *183:28 *1009:63 0.000128728
43 *193:10 *1009:16 5.58975e-06
44 *193:10 *1009:42 4.80733e-05
45 *331:10 *1009:63 0
46 *370:8 *1009:65 5.80303e-05
47 *758:10 *1009:117 4.59027e-05
48 *759:10 *1009:117 4.59027e-05
49 *760:10 *1009:117 0
50 *767:8 *4830:A 8.6949e-05
51 *767:8 *1009:121 5.50106e-05
52 *769:10 *1009:117 0.000113468
53 *771:10 *4835:B 1.59094e-05
54 *771:10 *1009:117 2.81066e-05
55 *775:59 *4312:A 0
56 *775:59 *1009:16 0
57 *775:70 *1009:16 0
58 *775:70 *1009:42 0
59 *775:89 *1009:42 3.85155e-05
60 *776:21 *1009:55 0.000618478
61 *776:45 *1009:100 0.000620453
62 *820:16 *1009:117 0
63 *825:6 *1009:55 9.52619e-05
64 *829:10 *1009:16 1.91149e-05
65 *829:10 *1009:42 0.000138607
66 *836:29 *1009:42 0.000104572
67 *839:81 *4312:A 6.16439e-05
68 *839:81 *1009:16 0.000308556
69 *839:93 *4337:S 0
70 *839:93 *1009:42 0.00111399
71 *839:93 *1009:55 0.000505064
72 *844:48 *1009:42 0.000834949
73 *844:48 *1009:55 0.00184947
74 *844:52 *1009:55 6.92121e-05
75 *844:64 *1009:55 6.07611e-06
76 *844:64 *1009:63 1.34542e-05
77 *844:64 *1009:65 2.8314e-06
78 *844:64 *1009:100 4.77164e-06
79 *844:75 *4820:A1 5.97296e-05
80 *844:75 *1009:80 5.53367e-05
81 *844:81 *1009:117 0
82 *1002:30 *4820:A1 5.29672e-05
83 *1002:44 *4820:A1 0.000203388
84 *1002:54 *1009:100 0.000114584
85 *1002:78 *1009:100 0.000311919
*RES
1 *4993:X *1009:6 38 
2 *1009:6 *1009:16 8.14071 
3 *1009:16 *4312:A 38.8493 
4 *1009:16 *4313:A1 41.3764 
5 *1009:6 *1009:42 31.9443 
6 *1009:42 *4337:S 23.4971 
7 *1009:42 *1009:55 38.2414 
8 *1009:55 *1009:63 49.0779 
9 *1009:63 *1009:65 2.25786 
10 *1009:65 *1009:67 15 
11 *1009:67 *4410:A 23 
12 *1009:67 *1009:80 4.01857 
13 *1009:80 *4411:A1 23.4971 
14 *1009:80 *4820:A1 37.4379 
15 *1009:65 *1009:100 27.035 
16 *1009:100 *4835:B 23.6214 
17 *1009:100 *1009:117 38.7593 
18 *1009:117 *1009:121 15.6214 
19 *1009:121 *4831:A2 23 
20 *1009:121 *4830:A 24.0979 
21 *1009:55 *4371:A1 38 
*END

*D_NET *1010 0.0295801
*CONN
*I *4834:B1 I *D sky130_fd_sc_hd__o31a_1
*I *4370:A I *D sky130_fd_sc_hd__nand2_1
*I *4993:A I *D sky130_fd_sc_hd__buf_2
*I *4266:A1 I *D sky130_fd_sc_hd__a31o_1
*I *4268:A I *D sky130_fd_sc_hd__nand2_1
*I *4277:A I *D sky130_fd_sc_hd__nand2_1
*I *4278:A1 I *D sky130_fd_sc_hd__o211a_1
*I *4292:A I *D sky130_fd_sc_hd__nand2_1
*I *4293:A1 I *D sky130_fd_sc_hd__o211a_1
*I *4994:X O *D sky130_fd_sc_hd__buf_2
*CAP
1 *4834:B1 0
2 *4370:A 3.88674e-05
3 *4993:A 4.05012e-05
4 *4266:A1 0
5 *4268:A 2.81847e-05
6 *4277:A 1.26784e-05
7 *4278:A1 0
8 *4292:A 2.34823e-05
9 *4293:A1 0
10 *4994:X 0
11 *1010:146 0.000676445
12 *1010:142 0.00209216
13 *1010:131 0.00400759
14 *1010:114 0.00285172
15 *1010:101 0.000483247
16 *1010:80 0.000511432
17 *1010:78 0.00138618
18 *1010:61 0.00154789
19 *1010:52 0.000899264
20 *1010:34 0.000304046
21 *1010:24 0.000412872
22 *1010:22 0.00100356
23 *1010:18 0.00153584
24 *1010:4 0.00162606
25 *4176:B *1010:18 0
26 *4184:A1 *1010:52 0
27 *4185:C1 *1010:34 6.48142e-05
28 *4187:A2 *1010:18 9.88678e-05
29 *4190:C1 *1010:131 0.000804543
30 *4196:B1 *1010:131 5.3304e-05
31 *4196:C1 *1010:131 0.00030342
32 *4266:A2 *1010:101 7.53384e-06
33 *4273:A *1010:78 7.56417e-05
34 *4274:A1 *1010:78 8.91468e-07
35 *4275:B *1010:78 2.93747e-05
36 *4276:A *1010:78 4.65877e-05
37 *4276:B *1010:78 2.68076e-05
38 *4277:B *4277:A 0
39 *4277:B *1010:78 0.000159904
40 *4278:C1 *4277:A 1.14154e-05
41 *4278:C1 *1010:61 2.93747e-05
42 *4278:C1 *1010:78 2.02872e-05
43 *4290:B1 *1010:78 6.77507e-05
44 *4293:B1 *1010:34 6.17437e-06
45 *4371:A2 *1010:131 7.06229e-05
46 *4371:A2 *1010:142 0.00019414
47 *4371:C1 *4370:A 1.00493e-05
48 *4371:C1 *1010:131 9.75779e-05
49 *4411:C1 *1010:142 9.75779e-05
50 *4820:A1 *1010:142 0.000519993
51 *4833:A2 *1010:146 5.31444e-05
52 *4848:CLK *1010:52 0
53 *4886:CLK *1010:101 0.000182832
54 *4886:D *1010:101 8.55313e-05
55 *4887:CLK *1010:52 0
56 *4888:CLK *1010:34 0.000135037
57 *129:8 *1010:101 2.76611e-06
58 *130:8 *1010:52 3.56537e-05
59 *134:10 *1010:131 1.83763e-05
60 *169:26 *1010:18 0.000334241
61 *179:10 *1010:18 0
62 *180:8 *1010:18 0
63 *180:22 *1010:18 0.000245242
64 *180:133 *1010:18 0
65 *181:38 *4268:A 2.30292e-05
66 *181:38 *1010:101 0.0001073
67 *182:53 *1010:52 0.000653287
68 *182:68 *1010:52 0.00058718
69 *183:10 *1010:18 0.000112419
70 *183:10 *1010:114 8.50457e-05
71 *183:18 *1010:114 7.36043e-05
72 *183:18 *1010:131 0.000772257
73 *183:28 *1010:131 0.000103645
74 *183:28 *1010:142 0.000257326
75 *197:10 *1010:131 6.71408e-06
76 *233:10 *1010:78 0
77 *233:10 *1010:101 0
78 *235:8 *1010:78 8.62783e-05
79 *238:27 *1010:78 0
80 *241:8 *1010:78 1.14876e-05
81 *254:12 *1010:18 0.000169683
82 *254:27 *1010:18 0
83 *255:8 *1010:78 0.000191255
84 *256:8 *1010:22 0.00030894
85 *256:8 *1010:24 5.50049e-05
86 *257:8 *1010:52 4.59027e-05
87 *764:12 *1010:146 2.49836e-05
88 *768:12 *1010:146 0
89 *775:59 *1010:18 0
90 *819:23 *1010:52 0
91 *819:40 *1010:18 0
92 *825:25 *1010:146 0.000167053
93 *839:40 *1010:52 0
94 *839:49 *1010:34 0.000171906
95 *841:18 *1010:61 0.000140259
96 *841:18 *1010:78 0.000355966
97 *841:94 *1010:78 1.09886e-05
98 *843:16 *1010:18 0
99 *843:16 *1010:114 3.54728e-05
100 *843:38 *1010:18 0.000457416
101 *843:50 *1010:34 0.000102638
102 *844:35 *1010:52 0
103 *844:81 *1010:146 0.000211315
104 *866:43 *1010:78 2.95125e-05
105 *907:10 *1010:52 0.000168754
106 *914:8 *1010:146 0.000135557
107 *955:8 *1010:18 5.61311e-05
108 *972:51 *1010:52 0
109 *972:116 *1010:131 2.40653e-05
110 *974:14 *1010:18 0
111 *987:20 *1010:78 0
112 *989:19 *1010:78 5.31444e-05
113 *989:23 *1010:78 0
114 *990:74 *1010:78 1.34354e-05
115 *1001:20 *1010:18 2.472e-05
116 *1002:44 *1010:146 0
117 *1004:35 *1010:78 0
118 *1005:17 *1010:101 0.000218962
119 *1007:74 *1010:78 0
120 *1009:80 *1010:142 0.000155937
*RES
1 *4994:X *1010:4 23 
2 *1010:4 *1010:18 45.015 
3 *1010:18 *1010:22 18.48 
4 *1010:22 *1010:24 1.57429 
5 *1010:24 *1010:34 35.8829 
6 *1010:34 *4293:A1 23 
7 *1010:24 *4292:A 23.4971 
8 *1010:22 *1010:52 49.1607 
9 *1010:52 *4278:A1 23 
10 *1010:52 *1010:61 3.02429 
11 *1010:61 *4277:A 23.4971 
12 *1010:61 *1010:78 39.1114 
13 *1010:78 *1010:80 15 
14 *1010:80 *4268:A 23.6214 
15 *1010:80 *1010:101 39.9636 
16 *1010:101 *4266:A1 23 
17 *1010:4 *1010:114 33.7286 
18 *1010:114 *4993:A 23.8493 
19 *1010:114 *1010:131 41.4493 
20 *1010:131 *4370:A 23.8493 
21 *1010:131 *1010:142 36.5843 
22 *1010:142 *1010:146 30.2871 
23 *1010:146 *4834:B1 23 
*END

*D_NET *1011 0.0109618
*CONN
*I *4725:A1 I *D sky130_fd_sc_hd__o221a_1
*I *4724:B1 I *D sky130_fd_sc_hd__o31ai_1
*I *4712:B1 I *D sky130_fd_sc_hd__o21ai_1
*I *4713:A1 I *D sky130_fd_sc_hd__o211a_1
*I *4684:A I *D sky130_fd_sc_hd__nand2_1
*I *4685:A1 I *D sky130_fd_sc_hd__o211a_1
*I *4656:A1 I *D sky130_fd_sc_hd__o211a_1
*I *4655:A I *D sky130_fd_sc_hd__nand2_1
*I *4621:A1 I *D sky130_fd_sc_hd__o211a_1
*I *4620:B1 I *D sky130_fd_sc_hd__o21ai_1
*I *4995:X O *D sky130_fd_sc_hd__buf_2
*CAP
1 *4725:A1 0
2 *4724:B1 0
3 *4712:B1 0
4 *4713:A1 0.000209172
5 *4684:A 9.37445e-05
6 *4685:A1 0
7 *4656:A1 3.00379e-05
8 *4655:A 0
9 *4621:A1 0
10 *4620:B1 0.000191543
11 *4995:X 0.000123237
12 *1011:133 0.000299662
13 *1011:116 0.000484444
14 *1011:62 0.000184421
15 *1011:54 0.000829247
16 *1011:44 0.000779778
17 *1011:42 0.000744493
18 *1011:40 0.000881212
19 *1011:38 0.000314389
20 *1011:36 0.00031289
21 *1011:34 0.00129681
22 *1011:21 0.00139265
23 *1011:8 0.000410621
24 *4713:A2 *4713:A1 4.37033e-05
25 *4723:A1 *1011:133 5.50106e-05
26 *4723:B1 *1011:133 0.000175216
27 *4724:A3 *1011:133 0
28 *4898:CLK *4656:A1 0
29 *4898:CLK *1011:54 0
30 *4901:CLK *1011:133 0
31 *181:60 *1011:133 0
32 *573:8 *4620:B1 0
33 *574:25 *4620:B1 0.000177899
34 *574:25 *1011:8 0.000185428
35 *576:14 *1011:21 0
36 *638:8 *1011:44 0
37 *638:8 *1011:54 0
38 *657:25 *1011:34 0.000243247
39 *658:12 *1011:34 5.3304e-05
40 *658:27 *1011:34 0.000270682
41 *658:27 *1011:38 0
42 *658:27 *1011:40 0
43 *663:21 *1011:38 0
44 *663:21 *1011:116 0
45 *665:10 *1011:40 3.98859e-05
46 *665:10 *1011:42 2.76611e-06
47 *671:14 *4620:B1 0
48 *675:8 *1011:133 0.000163352
49 *676:8 *1011:116 1.14452e-05
50 *778:25 *1011:133 7.76364e-06
51 *778:27 *1011:38 0
52 *778:27 *1011:40 0
53 *778:27 *1011:116 0
54 *778:27 *1011:133 9.48381e-06
55 *778:29 *1011:40 0
56 *778:29 *1011:42 0
57 *778:31 *1011:42 0
58 *778:31 *1011:44 0
59 *778:31 *1011:54 0
60 *778:33 *1011:54 0
61 *778:161 *1011:133 9.69792e-05
62 *778:193 *4620:B1 6.16439e-05
63 *778:193 *1011:21 0.000138727
64 *778:193 *1011:34 0.000194318
65 *800:14 *4656:A1 2.28308e-05
66 *800:14 *1011:54 6.93242e-05
67 *800:14 *1011:62 1.76557e-05
68 *800:27 *4656:A1 3.91386e-05
69 *800:27 *1011:62 0.000182832
70 *802:24 *1011:40 0
71 *836:76 *4620:B1 0
72 *836:76 *1011:34 0
73 *849:43 *4713:A1 0.00010209
74 *849:84 *1011:54 0
75 *849:84 *1011:62 1.86869e-05
*RES
1 *4995:X *1011:8 40.0507 
2 *1011:8 *4620:B1 42.6814 
3 *1011:8 *1011:21 1.90571 
4 *1011:21 *4621:A1 38 
5 *1011:21 *1011:34 38.7179 
6 *1011:34 *1011:36 15 
7 *1011:36 *1011:38 2.25786 
8 *1011:38 *1011:40 2.96214 
9 *1011:40 *1011:42 8.94857 
10 *1011:42 *1011:44 2.61 
11 *1011:44 *1011:54 25.585 
12 *1011:54 *1011:62 33.3764 
13 *1011:62 *4655:A 23 
14 *1011:54 *4656:A1 23.8493 
15 *1011:44 *4685:A1 38 
16 *1011:42 *4684:A 39.5743 
17 *1011:40 *4713:A1 42.6193 
18 *1011:38 *4712:B1 38 
19 *1011:36 *1011:116 18.3143 
20 *1011:116 *4724:B1 23 
21 *1011:116 *1011:133 37.0843 
22 *1011:133 *4725:A1 23 
*END

*D_NET *1012 0.00907697
*CONN
*I *4732:B1_N I *D sky130_fd_sc_hd__a21bo_1
*I *4733:A1 I *D sky130_fd_sc_hd__o211a_1
*I *4588:A1 I *D sky130_fd_sc_hd__o211a_1
*I *4587:A I *D sky130_fd_sc_hd__nand2_1
*I *4545:A1 I *D sky130_fd_sc_hd__o211a_1
*I *4996:X O *D sky130_fd_sc_hd__dlymetal6s2s_1
*CAP
1 *4732:B1_N 6.19812e-05
2 *4733:A1 0.000143518
3 *4588:A1 0
4 *4587:A 0
5 *4545:A1 7.58662e-05
6 *4996:X 0
7 *1012:51 0.000205499
8 *1012:49 0.00139272
9 *1012:36 0.000200803
10 *1012:23 0.000698317
11 *1012:15 0.00204585
12 *1012:4 0.000231477
13 *4203:A *1012:49 0.000252007
14 *4203:B *1012:49 3.79407e-05
15 *4587:B *1012:23 5.67058e-05
16 *4732:A1 *4732:B1_N 5.50049e-05
17 *4895:D *1012:49 0.000447931
18 *138:8 *1012:15 0
19 *145:10 *4733:A1 4.9662e-05
20 *201:8 *4732:B1_N 5.50049e-05
21 *201:8 *1012:49 0.00160446
22 *542:10 *1012:23 0
23 *542:10 *1012:36 0
24 *544:10 *1012:23 1.76557e-05
25 *544:10 *1012:36 0
26 *662:20 *4733:A1 0
27 *772:114 *1012:23 7.88926e-05
28 *772:114 *1012:36 1.40958e-05
29 *804:22 *4733:A1 9.41704e-05
30 *828:12 *1012:23 8.26569e-05
31 *828:30 *1012:49 5.12328e-05
32 *828:38 *1012:15 5.33213e-05
33 *828:38 *1012:23 2.99716e-05
34 *836:65 *4545:A1 0.000446275
35 *836:76 *1012:36 0
36 *838:118 *1012:49 0.000118086
37 *847:82 *4732:B1_N 5.94125e-05
38 *847:82 *4733:A1 0.000164282
39 *966:92 *4545:A1 0.000252161
*RES
1 *4996:X *1012:4 23 
2 *1012:4 *4545:A1 27.9093 
3 *1012:4 *1012:15 17.61 
4 *1012:15 *1012:23 25.6679 
5 *1012:23 *4587:A 23 
6 *1012:23 *1012:36 33.2314 
7 *1012:36 *4588:A1 23 
8 *1012:15 *1012:49 42.695 
9 *1012:49 *1012:51 15 
10 *1012:51 *4733:A1 41.3557 
11 *1012:51 *4732:B1_N 39.4707 
*END
