*SPEF "ieee 1481-1999"
*DESIGN "top"
*DATE "01:35:36 Friday May 22, 2026"
*VENDOR "The OpenROAD Project"
*PROGRAM "OpenROAD"
*VERSION "edf00dff99f6c40d67a30c0e22a8191c5d2ed9d6"
*DESIGN_FLOW "NAME_SCOPE LOCAL" "PIN_CAP NONE"
*DIVIDER /
*DELIMITER :
*BUS_DELIMITER []
*T_UNIT 1 NS
*C_UNIT 1 PF
*R_UNIT 1 OHM
*L_UNIT 1 HENRY

*NAME_MAP
*3 addr[0]
*4 addr[1]
*5 addr[2]
*6 addr[3]
*7 addr[4]
*8 addr[5]
*9 addr[6]
*10 addr[7]
*11 clk
*12 rdata[0]
*13 rdata[10]
*14 rdata[11]
*15 rdata[12]
*16 rdata[13]
*17 rdata[14]
*18 rdata[15]
*19 rdata[16]
*20 rdata[17]
*21 rdata[18]
*22 rdata[19]
*23 rdata[1]
*24 rdata[20]
*25 rdata[21]
*26 rdata[22]
*27 rdata[23]
*28 rdata[24]
*29 rdata[25]
*30 rdata[26]
*31 rdata[27]
*32 rdata[28]
*33 rdata[29]
*34 rdata[2]
*35 rdata[30]
*36 rdata[31]
*37 rdata[3]
*38 rdata[4]
*39 rdata[5]
*40 rdata[6]
*41 rdata[7]
*42 rdata[8]
*43 rdata[9]
*44 net117
*45 rst
*46 valid
*47 wdata[0]
*48 wdata[10]
*49 wdata[11]
*50 wdata[12]
*51 wdata[13]
*52 wdata[14]
*53 wdata[15]
*54 wdata[16]
*55 wdata[17]
*56 wdata[18]
*57 wdata[19]
*58 wdata[1]
*59 wdata[20]
*60 wdata[21]
*61 wdata[22]
*62 wdata[23]
*63 wdata[24]
*64 wdata[25]
*65 wdata[26]
*66 wdata[27]
*67 wdata[28]
*68 wdata[29]
*69 wdata[2]
*70 wdata[30]
*71 wdata[31]
*72 wdata[3]
*73 wdata[4]
*74 wdata[5]
*75 wdata[6]
*76 wdata[7]
*77 wdata[8]
*78 wdata[9]
*79 write
*80 _0000_
*81 _0001_
*82 _0002_
*83 _0003_
*84 _0004_
*85 _0005_
*86 _0006_
*87 _0007_
*88 _0008_
*89 _0009_
*90 _0010_
*91 _0011_
*92 _0012_
*93 _0013_
*94 _0014_
*95 _0015_
*96 _0016_
*97 _0017_
*98 _0018_
*99 _0019_
*100 _0020_
*101 _0021_
*102 _0022_
*103 _0023_
*104 _0024_
*105 _0025_
*106 _0026_
*107 _0027_
*108 _0028_
*109 _0029_
*110 _0030_
*111 _0031_
*112 _0032_
*113 _0033_
*114 _0034_
*115 _0035_
*116 _0036_
*117 _0037_
*118 _0038_
*119 _0039_
*120 _0040_
*121 _0041_
*122 _0042_
*123 _0043_
*124 _0044_
*125 _0045_
*126 _0046_
*127 _0047_
*128 _0048_
*129 _0049_
*130 _0050_
*131 _0051_
*132 _0052_
*133 _0053_
*134 _0054_
*135 _0055_
*136 _0056_
*137 _0057_
*138 _0058_
*139 _0059_
*140 _0060_
*141 _0061_
*142 _0062_
*143 _0063_
*144 _0064_
*145 _0065_
*146 _0066_
*147 _0067_
*148 _0068_
*149 _0069_
*150 _0070_
*151 _0071_
*152 _0072_
*153 _0073_
*154 _0074_
*155 _0075_
*156 _0076_
*157 _0077_
*158 _0078_
*159 _0079_
*160 _0080_
*161 _0081_
*162 _0082_
*163 _0083_
*164 _0084_
*165 _0085_
*166 _0086_
*167 _0087_
*168 _0088_
*169 _0089_
*170 _0090_
*171 _0091_
*172 _0092_
*173 _0093_
*174 _0094_
*175 _0095_
*176 _0096_
*177 _0097_
*178 _0098_
*179 _0099_
*180 _0100_
*181 _0101_
*182 _0102_
*183 _0103_
*184 _0104_
*185 _0105_
*186 _0106_
*187 _0107_
*188 _0108_
*189 _0109_
*190 _0110_
*191 _0111_
*192 _0112_
*193 _0113_
*194 _0114_
*195 _0115_
*196 _0116_
*197 _0117_
*198 _0118_
*199 _0119_
*200 _0120_
*201 _0121_
*202 _0122_
*203 _0123_
*204 _0124_
*205 _0125_
*206 _0126_
*207 _0127_
*208 _0128_
*209 _0129_
*210 _0130_
*211 _0131_
*212 _0132_
*213 _0133_
*214 _0134_
*215 _0135_
*216 _0136_
*217 _0137_
*218 _0138_
*219 _0139_
*220 _0140_
*221 _0141_
*222 _0142_
*223 _0143_
*224 _0144_
*225 _0145_
*226 _0146_
*227 _0147_
*228 _0148_
*229 _0149_
*230 _0150_
*231 _0151_
*232 _0152_
*233 _0153_
*234 _0154_
*235 _0155_
*236 _0156_
*237 _0157_
*238 _0158_
*239 _0159_
*240 _0160_
*241 _0161_
*242 _0162_
*243 _0163_
*244 _0164_
*245 _0165_
*246 _0166_
*247 _0167_
*248 _0168_
*249 _0169_
*250 _0170_
*251 _0171_
*252 _0172_
*253 _0173_
*254 _0174_
*255 _0175_
*256 _0176_
*257 _0177_
*258 _0178_
*259 _0179_
*260 _0180_
*261 _0181_
*262 _0182_
*263 _0183_
*264 _0184_
*265 _0185_
*266 _0186_
*267 _0187_
*268 _0188_
*269 _0189_
*270 _0190_
*271 _0191_
*272 _0192_
*273 _0193_
*274 _0194_
*275 _0195_
*276 _0196_
*277 _0197_
*278 _0198_
*279 _0199_
*280 _0200_
*281 _0201_
*282 _0202_
*283 _0203_
*284 _0204_
*285 _0205_
*286 _0206_
*287 _0207_
*288 _0208_
*289 _0209_
*290 _0210_
*291 _0211_
*292 _0212_
*293 _0213_
*294 _0214_
*295 _0215_
*296 _0216_
*297 _0217_
*298 _0218_
*299 _0219_
*300 _0220_
*301 _0221_
*302 _0222_
*303 _0223_
*304 _0224_
*305 _0225_
*306 _0226_
*307 _0227_
*308 _0228_
*309 _0229_
*310 _0230_
*311 _0231_
*312 _0232_
*313 _0233_
*314 _0234_
*315 _0235_
*316 _0236_
*317 _0237_
*318 _0238_
*319 _0239_
*320 _0240_
*321 _0241_
*322 _0242_
*323 _0243_
*324 _0244_
*325 _0245_
*326 _0246_
*327 _0247_
*328 _0248_
*329 _0249_
*330 _0250_
*331 _0251_
*332 _0252_
*333 _0253_
*334 _0254_
*335 _0255_
*336 _0256_
*337 _0257_
*338 _0258_
*339 _0259_
*340 _0260_
*341 _0261_
*342 _0262_
*343 _0263_
*344 _0264_
*345 _0265_
*346 _0266_
*347 _0267_
*348 _0268_
*349 _0269_
*350 _0270_
*351 _0271_
*352 _0272_
*353 _0273_
*354 _0274_
*355 _0275_
*356 _0276_
*357 _0277_
*358 _0278_
*359 _0279_
*360 _0280_
*361 _0281_
*362 _0282_
*363 _0283_
*364 _0284_
*365 _0285_
*366 _0286_
*367 _0287_
*368 _0288_
*369 _0289_
*370 _0290_
*371 _0291_
*372 _0292_
*373 _0293_
*374 _0294_
*375 _0295_
*376 _0296_
*377 _0297_
*378 _0298_
*379 _0299_
*380 _0300_
*381 _0301_
*382 _0302_
*383 _0303_
*384 _0304_
*385 _0305_
*386 _0306_
*387 _0307_
*388 _0308_
*389 _0309_
*390 _0310_
*391 _0311_
*392 _0312_
*393 _0313_
*394 _0314_
*395 _0315_
*396 _0316_
*397 _0317_
*398 _0318_
*399 _0319_
*400 _0320_
*401 _0321_
*402 _0322_
*403 _0323_
*404 _0324_
*405 _0325_
*406 _0326_
*407 _0327_
*408 _0328_
*409 _0329_
*410 _0330_
*411 _0331_
*412 _0332_
*413 _0333_
*414 _0334_
*415 _0335_
*416 _0336_
*417 _0337_
*418 _0338_
*419 _0339_
*420 _0340_
*421 _0341_
*422 _0342_
*423 _0343_
*424 _0344_
*425 _0345_
*426 _0346_
*427 _0347_
*428 _0348_
*429 _0349_
*430 _0350_
*431 _0351_
*432 _0352_
*433 _0353_
*434 _0354_
*435 _0355_
*436 _0356_
*437 _0357_
*438 _0358_
*439 _0359_
*440 _0360_
*441 _0361_
*442 _0362_
*443 _0363_
*444 _0364_
*445 _0365_
*446 _0366_
*447 _0367_
*448 _0368_
*449 _0369_
*450 _0370_
*451 _0371_
*452 _0372_
*453 _0373_
*454 _0374_
*455 _0375_
*456 _0376_
*457 _0377_
*458 _0378_
*459 _0379_
*460 _0380_
*461 _0381_
*462 _0382_
*463 _0383_
*464 _0384_
*465 _0385_
*466 _0386_
*467 _0387_
*468 _0388_
*469 _0389_
*470 _0390_
*471 _0391_
*472 _0392_
*473 _0393_
*474 _0394_
*475 _0395_
*476 _0396_
*477 _0397_
*478 _0398_
*479 _0399_
*480 _0400_
*481 _0401_
*482 _0402_
*483 _0403_
*484 _0404_
*485 _0405_
*486 _0406_
*487 _0407_
*488 _0408_
*489 _0409_
*490 _0410_
*491 _0411_
*492 _0412_
*493 _0413_
*494 _0414_
*495 _0415_
*496 _0416_
*497 _0417_
*498 _0418_
*499 _0419_
*500 _0420_
*501 _0421_
*502 _0422_
*503 _0423_
*504 _0424_
*505 _0425_
*506 _0426_
*507 _0427_
*508 _0428_
*509 _0429_
*510 _0430_
*511 _0431_
*512 _0432_
*513 _0433_
*514 _0434_
*515 _0435_
*516 _0436_
*517 _0437_
*518 _0438_
*519 _0439_
*520 _0440_
*521 _0441_
*522 _0442_
*523 _0443_
*524 _0444_
*525 _0445_
*526 _0446_
*527 _0447_
*528 _0448_
*529 _0449_
*530 _0450_
*531 _0451_
*532 _0452_
*533 _0453_
*534 _0454_
*535 _0455_
*536 _0456_
*537 _0457_
*538 _0458_
*539 _0459_
*540 _0460_
*541 _0461_
*542 _0462_
*543 _0463_
*544 _0464_
*545 _0465_
*546 _0466_
*547 _0467_
*548 _0468_
*549 _0469_
*550 _0470_
*551 _0471_
*552 _0472_
*553 _0473_
*554 _0474_
*555 _0475_
*556 _0476_
*557 _0477_
*558 _0478_
*559 _0479_
*560 _0480_
*561 _0481_
*562 _0482_
*563 _0483_
*564 _0484_
*565 _0485_
*566 _0486_
*567 _0487_
*568 _0488_
*569 _0489_
*570 _0490_
*571 _0491_
*572 _0492_
*573 _0493_
*574 _0494_
*575 _0495_
*576 _0496_
*577 _0497_
*578 _0498_
*579 _0499_
*580 _0500_
*581 _0501_
*582 _0502_
*583 _0503_
*584 _0504_
*585 _0505_
*586 _0506_
*587 _0507_
*588 _0508_
*589 _0509_
*590 _0510_
*591 _0511_
*592 _0512_
*593 _0513_
*594 _0514_
*595 _0515_
*596 _0516_
*597 _0517_
*598 _0518_
*599 _0519_
*600 _0520_
*601 _0521_
*602 _0522_
*603 _0523_
*604 _0524_
*605 _0525_
*606 _0526_
*607 _0527_
*608 _0528_
*609 _0529_
*610 _0530_
*611 _0531_
*612 _0532_
*613 _0533_
*614 _0534_
*615 _0535_
*616 _0536_
*617 _0537_
*618 _0538_
*619 _0539_
*620 _0540_
*621 _0541_
*622 _0542_
*623 _0543_
*624 _0544_
*625 _0545_
*626 _0546_
*627 _0547_
*628 _0548_
*629 _0549_
*630 _0550_
*631 _0551_
*632 _0552_
*633 _0553_
*634 _0554_
*635 _0555_
*636 _0556_
*637 _0557_
*638 _0558_
*639 _0559_
*640 _0560_
*641 _0561_
*642 _0562_
*643 _0563_
*644 _0564_
*645 _0565_
*646 _0566_
*647 _0567_
*648 _0568_
*649 _0569_
*650 _0570_
*651 _0571_
*652 _0572_
*653 _0573_
*654 _0574_
*655 _0575_
*656 _0576_
*657 _0577_
*658 _0578_
*659 _0579_
*660 _0580_
*661 _0581_
*662 _0582_
*663 _0583_
*664 _0584_
*665 _0585_
*666 _0586_
*667 _0587_
*668 _0588_
*669 _0589_
*670 _0590_
*671 _0591_
*672 _0592_
*673 _0593_
*674 _0594_
*675 _0595_
*676 _0596_
*677 _0597_
*678 _0598_
*679 _0599_
*680 _0600_
*681 _0601_
*682 _0602_
*683 _0603_
*684 _0604_
*685 _0605_
*686 _0606_
*687 _0607_
*688 _0608_
*689 _0609_
*690 _0610_
*691 _0611_
*692 _0612_
*693 _0613_
*694 _0614_
*695 _0615_
*696 _0616_
*697 _0617_
*698 _0618_
*699 _0619_
*700 _0620_
*701 _0621_
*702 _0622_
*703 _0623_
*704 _0624_
*705 _0625_
*706 _0626_
*707 _0627_
*708 _0628_
*709 _0629_
*710 _0630_
*711 _0631_
*712 _0632_
*713 _0633_
*714 _0634_
*715 _0635_
*716 _0636_
*717 _0637_
*718 _0638_
*719 _0639_
*720 _0640_
*721 _0641_
*722 _0642_
*723 _0643_
*724 _0644_
*725 _0645_
*726 _0646_
*727 _0647_
*728 _0648_
*729 _0649_
*730 _0650_
*731 _0651_
*732 _0652_
*733 _0653_
*734 _0654_
*735 _0655_
*736 _0656_
*737 _0657_
*738 _0658_
*739 _0659_
*740 _0660_
*741 _0661_
*742 _0662_
*743 _0663_
*744 _0664_
*745 _0665_
*746 _0666_
*747 _0667_
*748 _0668_
*749 _0669_
*750 _0670_
*751 _0671_
*752 _0672_
*753 _0673_
*754 _0674_
*755 _0675_
*756 _0676_
*757 _0677_
*758 _0678_
*759 _0679_
*760 _0680_
*761 _0681_
*762 _0682_
*763 _0683_
*764 _0684_
*765 _0685_
*766 _0686_
*767 _0687_
*768 _0688_
*769 _0689_
*770 _0690_
*771 _0691_
*772 clknet_0_clk
*773 clknet_3_0__leaf_clk
*774 clknet_3_1__leaf_clk
*775 clknet_3_2__leaf_clk
*776 clknet_3_3__leaf_clk
*777 clknet_3_4__leaf_clk
*778 clknet_3_5__leaf_clk
*779 clknet_3_6__leaf_clk
*780 clknet_3_7__leaf_clk
*781 core_a\[0\]
*782 core_a\[1\]
*783 core_a\[2\]
*784 core_a\[3\]
*785 core_a\[4\]
*786 core_a\[5\]
*787 core_a\[6\]
*788 core_a\[7\]
*789 core_b\[0\]
*790 core_b\[1\]
*791 core_b\[2\]
*792 core_b\[3\]
*793 core_b\[4\]
*794 core_b\[5\]
*795 core_b\[6\]
*796 core_b\[7\]
*797 core_out\[0\]
*798 core_out\[10\]
*799 core_out\[11\]
*800 core_out\[12\]
*801 core_out\[13\]
*802 core_out\[14\]
*803 core_out\[15\]
*804 core_out\[16\]
*805 core_out\[17\]
*806 core_out\[18\]
*807 core_out\[19\]
*808 core_out\[1\]
*809 core_out\[20\]
*810 core_out\[21\]
*811 core_out\[22\]
*812 core_out\[23\]
*813 core_out\[24\]
*814 core_out\[25\]
*815 core_out\[26\]
*816 core_out\[27\]
*817 core_out\[28\]
*818 core_out\[29\]
*819 core_out\[2\]
*820 core_out\[30\]
*821 core_out\[31\]
*822 core_out\[3\]
*823 core_out\[4\]
*824 core_out\[5\]
*825 core_out\[6\]
*826 core_out\[7\]
*827 core_out\[8\]
*828 core_out\[9\]
*829 core_valid
*830 net1
*831 net10
*832 net100
*833 net101
*834 net102
*835 net103
*836 net104
*837 net105
*838 net106
*839 net107
*840 net108
*841 net109
*842 net11
*843 net110
*844 net111
*845 net112
*846 net113
*847 net114
*848 net115
*849 net116
*850 net118
*851 net119
*852 net12
*853 net120
*854 net121
*855 net122
*856 net123
*857 net124
*858 net125
*859 net126
*860 net127
*861 net128
*862 net129
*863 net13
*864 net130
*865 net131
*866 net132
*867 net134
*868 net135
*869 net136
*870 net137
*871 net138
*872 net139
*873 net14
*874 net140
*875 net141
*876 net142
*877 net143
*878 net144
*879 net145
*880 net146
*881 net147
*882 net148
*883 net149
*884 net15
*885 net150
*886 net151
*887 net152
*888 net153
*889 net154
*890 net155
*891 net156
*892 net157
*893 net158
*894 net159
*895 net16
*896 net160
*897 net161
*898 net162
*899 net163
*900 net164
*901 net165
*902 net166
*903 net167
*904 net168
*905 net169
*906 net17
*907 net170
*908 net171
*909 net172
*910 net173
*911 net174
*912 net175
*913 net176
*914 net177
*915 net178
*916 net179
*917 net18
*918 net180
*919 net181
*920 net182
*921 net183
*922 net184
*923 net185
*924 net19
*925 net2
*926 net20
*927 net21
*928 net22
*929 net23
*930 net24
*931 net25
*932 net26
*933 net27
*934 net28
*935 net29
*936 net3
*937 net30
*938 net31
*939 net32
*940 net33
*941 net34
*942 net35
*943 net36
*944 net37
*945 net38
*946 net39
*947 net4
*948 net40
*949 net41
*950 net42
*951 net43
*952 net44
*953 net45
*954 net46
*955 net47
*956 net48
*957 net49
*958 net5
*959 net50
*960 net51
*961 net52
*962 net53
*963 net54
*964 net55
*965 net56
*966 net57
*967 net58
*968 net59
*969 net6
*970 net60
*971 net61
*972 net62
*973 net63
*974 net64
*975 net65
*976 net66
*977 net67
*978 net68
*979 net69
*980 net7
*981 net70
*982 net71
*983 net72
*984 net73
*985 net74
*986 net75
*987 net76
*988 net77
*989 net78
*990 net79
*991 net8
*992 net80
*993 net81
*994 net82
*995 net83
*996 net84
*997 net85
*998 net86
*999 net87
*1000 net88
*1001 net89
*1002 net9
*1003 net90
*1004 net91
*1005 net92
*1006 net93
*1007 net94
*1008 net95
*1009 net96
*1010 net97
*1011 net98
*1012 net99
*1013 ANTENNA_1
*1014 FILLER_0_104
*1015 FILLER_0_113
*1016 FILLER_0_125
*1017 FILLER_0_137
*1018 FILLER_0_141
*1019 FILLER_0_15
*1020 FILLER_0_153
*1021 FILLER_0_165
*1022 FILLER_0_169
*1023 FILLER_0_181
*1024 FILLER_0_193
*1025 FILLER_0_197
*1026 FILLER_0_209
*1027 FILLER_0_221
*1028 FILLER_0_225
*1029 FILLER_0_237
*1030 FILLER_0_249
*1031 FILLER_0_253
*1032 FILLER_0_265
*1033 FILLER_0_27
*1034 FILLER_0_277
*1035 FILLER_0_281
*1036 FILLER_0_29
*1037 FILLER_0_293
*1038 FILLER_0_3
*1039 FILLER_0_305
*1040 FILLER_0_309
*1041 FILLER_0_321
*1042 FILLER_0_333
*1043 FILLER_0_337
*1044 FILLER_0_349
*1045 FILLER_0_361
*1046 FILLER_0_365
*1047 FILLER_0_377
*1048 FILLER_0_389
*1049 FILLER_0_393
*1050 FILLER_0_405
*1051 FILLER_0_41
*1052 FILLER_0_53
*1053 FILLER_0_57
*1054 FILLER_0_69
*1055 FILLER_0_81
*1056 FILLER_0_85
*1057 FILLER_0_90
*1058 FILLER_0_98
*1059 FILLER_10_109
*1060 FILLER_10_121
*1061 FILLER_10_133
*1062 FILLER_10_139
*1063 FILLER_10_141
*1064 FILLER_10_15
*1065 FILLER_10_153
*1066 FILLER_10_164
*1067 FILLER_10_176
*1068 FILLER_10_188
*1069 FILLER_10_197
*1070 FILLER_10_209
*1071 FILLER_10_221
*1072 FILLER_10_233
*1073 FILLER_10_245
*1074 FILLER_10_251
*1075 FILLER_10_253
*1076 FILLER_10_265
*1077 FILLER_10_27
*1078 FILLER_10_277
*1079 FILLER_10_289
*1080 FILLER_10_29
*1081 FILLER_10_3
*1082 FILLER_10_301
*1083 FILLER_10_307
*1084 FILLER_10_309
*1085 FILLER_10_321
*1086 FILLER_10_33
*1087 FILLER_10_333
*1088 FILLER_10_345
*1089 FILLER_10_357
*1090 FILLER_10_363
*1091 FILLER_10_365
*1092 FILLER_10_377
*1093 FILLER_10_389
*1094 FILLER_10_401
*1095 FILLER_10_43
*1096 FILLER_10_55
*1097 FILLER_10_67
*1098 FILLER_10_79
*1099 FILLER_10_83
*1100 FILLER_10_85
*1101 FILLER_10_97
*1102 FILLER_11_106
*1103 FILLER_11_113
*1104 FILLER_11_119
*1105 FILLER_11_126
*1106 FILLER_11_138
*1107 FILLER_11_149
*1108 FILLER_11_163
*1109 FILLER_11_169
*1110 FILLER_11_18
*1111 FILLER_11_185
*1112 FILLER_11_197
*1113 FILLER_11_214
*1114 FILLER_11_222
*1115 FILLER_11_225
*1116 FILLER_11_237
*1117 FILLER_11_24
*1118 FILLER_11_241
*1119 FILLER_11_251
*1120 FILLER_11_263
*1121 FILLER_11_275
*1122 FILLER_11_279
*1123 FILLER_11_281
*1124 FILLER_11_293
*1125 FILLER_11_305
*1126 FILLER_11_317
*1127 FILLER_11_329
*1128 FILLER_11_335
*1129 FILLER_11_337
*1130 FILLER_11_349
*1131 FILLER_11_361
*1132 FILLER_11_373
*1133 FILLER_11_385
*1134 FILLER_11_391
*1135 FILLER_11_393
*1136 FILLER_11_405
*1137 FILLER_11_47
*1138 FILLER_11_55
*1139 FILLER_11_57
*1140 FILLER_11_6
*1141 FILLER_11_69
*1142 FILLER_11_75
*1143 FILLER_11_91
*1144 FILLER_12_111
*1145 FILLER_12_133
*1146 FILLER_12_141
*1147 FILLER_12_149
*1148 FILLER_12_15
*1149 FILLER_12_161
*1150 FILLER_12_173
*1151 FILLER_12_177
*1152 FILLER_12_192
*1153 FILLER_12_197
*1154 FILLER_12_212
*1155 FILLER_12_229
*1156 FILLER_12_240
*1157 FILLER_12_248
*1158 FILLER_12_253
*1159 FILLER_12_27
*1160 FILLER_12_273
*1161 FILLER_12_285
*1162 FILLER_12_29
*1163 FILLER_12_297
*1164 FILLER_12_3
*1165 FILLER_12_305
*1166 FILLER_12_309
*1167 FILLER_12_321
*1168 FILLER_12_333
*1169 FILLER_12_345
*1170 FILLER_12_357
*1171 FILLER_12_363
*1172 FILLER_12_365
*1173 FILLER_12_377
*1174 FILLER_12_389
*1175 FILLER_12_401
*1176 FILLER_12_42
*1177 FILLER_12_54
*1178 FILLER_12_66
*1179 FILLER_12_85
*1180 FILLER_12_89
*1181 FILLER_13_103
*1182 FILLER_13_111
*1183 FILLER_13_113
*1184 FILLER_13_121
*1185 FILLER_13_128
*1186 FILLER_13_140
*1187 FILLER_13_15
*1188 FILLER_13_152
*1189 FILLER_13_162
*1190 FILLER_13_169
*1191 FILLER_13_181
*1192 FILLER_13_193
*1193 FILLER_13_205
*1194 FILLER_13_217
*1195 FILLER_13_223
*1196 FILLER_13_232
*1197 FILLER_13_243
*1198 FILLER_13_255
*1199 FILLER_13_267
*1200 FILLER_13_27
*1201 FILLER_13_279
*1202 FILLER_13_281
*1203 FILLER_13_293
*1204 FILLER_13_3
*1205 FILLER_13_305
*1206 FILLER_13_317
*1207 FILLER_13_329
*1208 FILLER_13_335
*1209 FILLER_13_337
*1210 FILLER_13_349
*1211 FILLER_13_361
*1212 FILLER_13_373
*1213 FILLER_13_385
*1214 FILLER_13_39
*1215 FILLER_13_391
*1216 FILLER_13_393
*1217 FILLER_13_405
*1218 FILLER_13_51
*1219 FILLER_13_55
*1220 FILLER_13_66
*1221 FILLER_13_78
*1222 FILLER_13_90
*1223 FILLER_13_96
*1224 FILLER_14_109
*1225 FILLER_14_121
*1226 FILLER_14_133
*1227 FILLER_14_139
*1228 FILLER_14_141
*1229 FILLER_14_15
*1230 FILLER_14_153
*1231 FILLER_14_164
*1232 FILLER_14_169
*1233 FILLER_14_181
*1234 FILLER_14_193
*1235 FILLER_14_197
*1236 FILLER_14_209
*1237 FILLER_14_221
*1238 FILLER_14_233
*1239 FILLER_14_245
*1240 FILLER_14_251
*1241 FILLER_14_253
*1242 FILLER_14_265
*1243 FILLER_14_27
*1244 FILLER_14_277
*1245 FILLER_14_289
*1246 FILLER_14_29
*1247 FILLER_14_3
*1248 FILLER_14_301
*1249 FILLER_14_307
*1250 FILLER_14_309
*1251 FILLER_14_321
*1252 FILLER_14_333
*1253 FILLER_14_345
*1254 FILLER_14_357
*1255 FILLER_14_363
*1256 FILLER_14_365
*1257 FILLER_14_377
*1258 FILLER_14_389
*1259 FILLER_14_401
*1260 FILLER_14_41
*1261 FILLER_14_47
*1262 FILLER_14_69
*1263 FILLER_14_81
*1264 FILLER_14_85
*1265 FILLER_14_97
*1266 FILLER_15_108
*1267 FILLER_15_113
*1268 FILLER_15_125
*1269 FILLER_15_131
*1270 FILLER_15_142
*1271 FILLER_15_154
*1272 FILLER_15_166
*1273 FILLER_15_18
*1274 FILLER_15_184
*1275 FILLER_15_196
*1276 FILLER_15_215
*1277 FILLER_15_223
*1278 FILLER_15_225
*1279 FILLER_15_237
*1280 FILLER_15_254
*1281 FILLER_15_266
*1282 FILLER_15_278
*1283 FILLER_15_281
*1284 FILLER_15_293
*1285 FILLER_15_305
*1286 FILLER_15_317
*1287 FILLER_15_329
*1288 FILLER_15_335
*1289 FILLER_15_337
*1290 FILLER_15_349
*1291 FILLER_15_361
*1292 FILLER_15_373
*1293 FILLER_15_385
*1294 FILLER_15_391
*1295 FILLER_15_393
*1296 FILLER_15_405
*1297 FILLER_15_49
*1298 FILLER_15_55
*1299 FILLER_15_57
*1300 FILLER_15_6
*1301 FILLER_15_63
*1302 FILLER_15_71
*1303 FILLER_15_95
*1304 FILLER_16_102
*1305 FILLER_16_128
*1306 FILLER_16_141
*1307 FILLER_16_15
*1308 FILLER_16_153
*1309 FILLER_16_163
*1310 FILLER_16_175
*1311 FILLER_16_179
*1312 FILLER_16_183
*1313 FILLER_16_191
*1314 FILLER_16_195
*1315 FILLER_16_197
*1316 FILLER_16_209
*1317 FILLER_16_221
*1318 FILLER_16_232
*1319 FILLER_16_236
*1320 FILLER_16_242
*1321 FILLER_16_246
*1322 FILLER_16_251
*1323 FILLER_16_267
*1324 FILLER_16_27
*1325 FILLER_16_288
*1326 FILLER_16_29
*1327 FILLER_16_3
*1328 FILLER_16_300
*1329 FILLER_16_309
*1330 FILLER_16_321
*1331 FILLER_16_333
*1332 FILLER_16_345
*1333 FILLER_16_357
*1334 FILLER_16_363
*1335 FILLER_16_365
*1336 FILLER_16_377
*1337 FILLER_16_389
*1338 FILLER_16_401
*1339 FILLER_16_41
*1340 FILLER_16_53
*1341 FILLER_16_65
*1342 FILLER_16_77
*1343 FILLER_16_94
*1344 FILLER_17_100
*1345 FILLER_17_113
*1346 FILLER_17_125
*1347 FILLER_17_147
*1348 FILLER_17_163
*1349 FILLER_17_167
*1350 FILLER_17_169
*1351 FILLER_17_18
*1352 FILLER_17_181
*1353 FILLER_17_193
*1354 FILLER_17_201
*1355 FILLER_17_212
*1356 FILLER_17_225
*1357 FILLER_17_231
*1358 FILLER_17_239
*1359 FILLER_17_251
*1360 FILLER_17_263
*1361 FILLER_17_275
*1362 FILLER_17_279
*1363 FILLER_17_281
*1364 FILLER_17_293
*1365 FILLER_17_30
*1366 FILLER_17_305
*1367 FILLER_17_317
*1368 FILLER_17_329
*1369 FILLER_17_335
*1370 FILLER_17_337
*1371 FILLER_17_349
*1372 FILLER_17_361
*1373 FILLER_17_373
*1374 FILLER_17_385
*1375 FILLER_17_391
*1376 FILLER_17_393
*1377 FILLER_17_405
*1378 FILLER_17_42
*1379 FILLER_17_6
*1380 FILLER_17_66
*1381 FILLER_17_72
*1382 FILLER_17_82
*1383 FILLER_17_88
*1384 FILLER_18_110
*1385 FILLER_18_122
*1386 FILLER_18_134
*1387 FILLER_18_15
*1388 FILLER_18_154
*1389 FILLER_18_166
*1390 FILLER_18_178
*1391 FILLER_18_190
*1392 FILLER_18_197
*1393 FILLER_18_203
*1394 FILLER_18_211
*1395 FILLER_18_223
*1396 FILLER_18_235
*1397 FILLER_18_247
*1398 FILLER_18_251
*1399 FILLER_18_253
*1400 FILLER_18_26
*1401 FILLER_18_265
*1402 FILLER_18_277
*1403 FILLER_18_289
*1404 FILLER_18_3
*1405 FILLER_18_301
*1406 FILLER_18_307
*1407 FILLER_18_309
*1408 FILLER_18_321
*1409 FILLER_18_333
*1410 FILLER_18_345
*1411 FILLER_18_357
*1412 FILLER_18_363
*1413 FILLER_18_365
*1414 FILLER_18_377
*1415 FILLER_18_389
*1416 FILLER_18_401
*1417 FILLER_18_45
*1418 FILLER_18_66
*1419 FILLER_18_73
*1420 FILLER_18_77
*1421 FILLER_18_82
*1422 FILLER_18_89
*1423 FILLER_18_98
*1424 FILLER_19_110
*1425 FILLER_19_113
*1426 FILLER_19_125
*1427 FILLER_19_137
*1428 FILLER_19_159
*1429 FILLER_19_167
*1430 FILLER_19_169
*1431 FILLER_19_18
*1432 FILLER_19_182
*1433 FILLER_19_194
*1434 FILLER_19_206
*1435 FILLER_19_218
*1436 FILLER_19_225
*1437 FILLER_19_237
*1438 FILLER_19_245
*1439 FILLER_19_251
*1440 FILLER_19_263
*1441 FILLER_19_275
*1442 FILLER_19_279
*1443 FILLER_19_287
*1444 FILLER_19_299
*1445 FILLER_19_311
*1446 FILLER_19_32
*1447 FILLER_19_323
*1448 FILLER_19_335
*1449 FILLER_19_337
*1450 FILLER_19_349
*1451 FILLER_19_361
*1452 FILLER_19_373
*1453 FILLER_19_385
*1454 FILLER_19_391
*1455 FILLER_19_393
*1456 FILLER_19_405
*1457 FILLER_19_45
*1458 FILLER_19_53
*1459 FILLER_19_57
*1460 FILLER_19_6
*1461 FILLER_19_65
*1462 FILLER_19_83
*1463 FILLER_1_105
*1464 FILLER_1_111
*1465 FILLER_1_113
*1466 FILLER_1_125
*1467 FILLER_1_137
*1468 FILLER_1_149
*1469 FILLER_1_15
*1470 FILLER_1_161
*1471 FILLER_1_167
*1472 FILLER_1_169
*1473 FILLER_1_181
*1474 FILLER_1_193
*1475 FILLER_1_205
*1476 FILLER_1_217
*1477 FILLER_1_223
*1478 FILLER_1_225
*1479 FILLER_1_237
*1480 FILLER_1_249
*1481 FILLER_1_261
*1482 FILLER_1_27
*1483 FILLER_1_273
*1484 FILLER_1_279
*1485 FILLER_1_281
*1486 FILLER_1_293
*1487 FILLER_1_3
*1488 FILLER_1_305
*1489 FILLER_1_317
*1490 FILLER_1_329
*1491 FILLER_1_335
*1492 FILLER_1_337
*1493 FILLER_1_349
*1494 FILLER_1_361
*1495 FILLER_1_373
*1496 FILLER_1_385
*1497 FILLER_1_39
*1498 FILLER_1_391
*1499 FILLER_1_393
*1500 FILLER_1_405
*1501 FILLER_1_51
*1502 FILLER_1_55
*1503 FILLER_1_57
*1504 FILLER_1_69
*1505 FILLER_1_81
*1506 FILLER_1_93
*1507 FILLER_20_132
*1508 FILLER_20_141
*1509 FILLER_20_15
*1510 FILLER_20_153
*1511 FILLER_20_165
*1512 FILLER_20_173
*1513 FILLER_20_189
*1514 FILLER_20_195
*1515 FILLER_20_197
*1516 FILLER_20_204
*1517 FILLER_20_216
*1518 FILLER_20_234
*1519 FILLER_20_242
*1520 FILLER_20_250
*1521 FILLER_20_253
*1522 FILLER_20_267
*1523 FILLER_20_27
*1524 FILLER_20_271
*1525 FILLER_20_279
*1526 FILLER_20_287
*1527 FILLER_20_29
*1528 FILLER_20_299
*1529 FILLER_20_3
*1530 FILLER_20_307
*1531 FILLER_20_309
*1532 FILLER_20_321
*1533 FILLER_20_333
*1534 FILLER_20_345
*1535 FILLER_20_357
*1536 FILLER_20_36
*1537 FILLER_20_363
*1538 FILLER_20_365
*1539 FILLER_20_377
*1540 FILLER_20_389
*1541 FILLER_20_401
*1542 FILLER_20_48
*1543 FILLER_20_60
*1544 FILLER_20_72
*1545 FILLER_21_102
*1546 FILLER_21_111
*1547 FILLER_21_113
*1548 FILLER_21_125
*1549 FILLER_21_136
*1550 FILLER_21_14
*1551 FILLER_21_148
*1552 FILLER_21_156
*1553 FILLER_21_163
*1554 FILLER_21_167
*1555 FILLER_21_169
*1556 FILLER_21_181
*1557 FILLER_21_193
*1558 FILLER_21_197
*1559 FILLER_21_217
*1560 FILLER_21_223
*1561 FILLER_21_232
*1562 FILLER_21_244
*1563 FILLER_21_256
*1564 FILLER_21_26
*1565 FILLER_21_268
*1566 FILLER_21_281
*1567 FILLER_21_293
*1568 FILLER_21_3
*1569 FILLER_21_305
*1570 FILLER_21_317
*1571 FILLER_21_329
*1572 FILLER_21_335
*1573 FILLER_21_337
*1574 FILLER_21_34
*1575 FILLER_21_349
*1576 FILLER_21_361
*1577 FILLER_21_373
*1578 FILLER_21_385
*1579 FILLER_21_391
*1580 FILLER_21_393
*1581 FILLER_21_405
*1582 FILLER_21_45
*1583 FILLER_21_53
*1584 FILLER_21_57
*1585 FILLER_21_67
*1586 FILLER_21_79
*1587 FILLER_21_91
*1588 FILLER_22_100
*1589 FILLER_22_112
*1590 FILLER_22_124
*1591 FILLER_22_139
*1592 FILLER_22_147
*1593 FILLER_22_155
*1594 FILLER_22_176
*1595 FILLER_22_188
*1596 FILLER_22_197
*1597 FILLER_22_213
*1598 FILLER_22_232
*1599 FILLER_22_244
*1600 FILLER_22_253
*1601 FILLER_22_26
*1602 FILLER_22_265
*1603 FILLER_22_277
*1604 FILLER_22_29
*1605 FILLER_22_292
*1606 FILLER_22_304
*1607 FILLER_22_309
*1608 FILLER_22_321
*1609 FILLER_22_333
*1610 FILLER_22_345
*1611 FILLER_22_357
*1612 FILLER_22_363
*1613 FILLER_22_365
*1614 FILLER_22_377
*1615 FILLER_22_389
*1616 FILLER_22_401
*1617 FILLER_22_76
*1618 FILLER_23_103
*1619 FILLER_23_125
*1620 FILLER_23_133
*1621 FILLER_23_15
*1622 FILLER_23_152
*1623 FILLER_23_164
*1624 FILLER_23_169
*1625 FILLER_23_185
*1626 FILLER_23_197
*1627 FILLER_23_209
*1628 FILLER_23_221
*1629 FILLER_23_225
*1630 FILLER_23_237
*1631 FILLER_23_262
*1632 FILLER_23_269
*1633 FILLER_23_27
*1634 FILLER_23_277
*1635 FILLER_23_281
*1636 FILLER_23_291
*1637 FILLER_23_295
*1638 FILLER_23_3
*1639 FILLER_23_318
*1640 FILLER_23_325
*1641 FILLER_23_333
*1642 FILLER_23_337
*1643 FILLER_23_349
*1644 FILLER_23_361
*1645 FILLER_23_373
*1646 FILLER_23_385
*1647 FILLER_23_391
*1648 FILLER_23_393
*1649 FILLER_23_405
*1650 FILLER_23_45
*1651 FILLER_23_53
*1652 FILLER_23_57
*1653 FILLER_23_67
*1654 FILLER_23_71
*1655 FILLER_23_99
*1656 FILLER_24_107
*1657 FILLER_24_11
*1658 FILLER_24_121
*1659 FILLER_24_133
*1660 FILLER_24_139
*1661 FILLER_24_149
*1662 FILLER_24_15
*1663 FILLER_24_161
*1664 FILLER_24_173
*1665 FILLER_24_189
*1666 FILLER_24_195
*1667 FILLER_24_197
*1668 FILLER_24_218
*1669 FILLER_24_230
*1670 FILLER_24_242
*1671 FILLER_24_25
*1672 FILLER_24_250
*1673 FILLER_24_253
*1674 FILLER_24_265
*1675 FILLER_24_269
*1676 FILLER_24_288
*1677 FILLER_24_29
*1678 FILLER_24_309
*1679 FILLER_24_360
*1680 FILLER_24_365
*1681 FILLER_24_377
*1682 FILLER_24_389
*1683 FILLER_24_401
*1684 FILLER_24_41
*1685 FILLER_24_63
*1686 FILLER_24_71
*1687 FILLER_24_83
*1688 FILLER_24_89
*1689 FILLER_24_95
*1690 FILLER_25_100
*1691 FILLER_25_113
*1692 FILLER_25_125
*1693 FILLER_25_133
*1694 FILLER_25_14
*1695 FILLER_25_154
*1696 FILLER_25_158
*1697 FILLER_25_167
*1698 FILLER_25_177
*1699 FILLER_25_192
*1700 FILLER_25_204
*1701 FILLER_25_217
*1702 FILLER_25_223
*1703 FILLER_25_251
*1704 FILLER_25_263
*1705 FILLER_25_275
*1706 FILLER_25_279
*1707 FILLER_25_281
*1708 FILLER_25_302
*1709 FILLER_25_314
*1710 FILLER_25_326
*1711 FILLER_25_334
*1712 FILLER_25_337
*1713 FILLER_25_349
*1714 FILLER_25_361
*1715 FILLER_25_373
*1716 FILLER_25_393
*1717 FILLER_25_401
*1718 FILLER_25_45
*1719 FILLER_25_53
*1720 FILLER_25_57
*1721 FILLER_25_71
*1722 FILLER_25_79
*1723 FILLER_25_90
*1724 FILLER_26_105
*1725 FILLER_26_118
*1726 FILLER_26_130
*1727 FILLER_26_138
*1728 FILLER_26_141
*1729 FILLER_26_153
*1730 FILLER_26_165
*1731 FILLER_26_169
*1732 FILLER_26_175
*1733 FILLER_26_187
*1734 FILLER_26_19
*1735 FILLER_26_195
*1736 FILLER_26_197
*1737 FILLER_26_209
*1738 FILLER_26_221
*1739 FILLER_26_233
*1740 FILLER_26_237
*1741 FILLER_26_245
*1742 FILLER_26_251
*1743 FILLER_26_253
*1744 FILLER_26_265
*1745 FILLER_26_27
*1746 FILLER_26_277
*1747 FILLER_26_289
*1748 FILLER_26_301
*1749 FILLER_26_307
*1750 FILLER_26_315
*1751 FILLER_26_327
*1752 FILLER_26_339
*1753 FILLER_26_351
*1754 FILLER_26_363
*1755 FILLER_26_370
*1756 FILLER_26_380
*1757 FILLER_26_50
*1758 FILLER_26_7
*1759 FILLER_26_73
*1760 FILLER_26_81
*1761 FILLER_26_85
*1762 FILLER_26_93
*1763 FILLER_27_104
*1764 FILLER_27_123
*1765 FILLER_27_135
*1766 FILLER_27_152
*1767 FILLER_27_164
*1768 FILLER_27_169
*1769 FILLER_27_177
*1770 FILLER_27_187
*1771 FILLER_27_199
*1772 FILLER_27_207
*1773 FILLER_27_217
*1774 FILLER_27_223
*1775 FILLER_27_225
*1776 FILLER_27_237
*1777 FILLER_27_249
*1778 FILLER_27_261
*1779 FILLER_27_273
*1780 FILLER_27_279
*1781 FILLER_27_281
*1782 FILLER_27_29
*1783 FILLER_27_293
*1784 FILLER_27_301
*1785 FILLER_27_318
*1786 FILLER_27_327
*1787 FILLER_27_335
*1788 FILLER_27_337
*1789 FILLER_27_364
*1790 FILLER_27_37
*1791 FILLER_27_375
*1792 FILLER_27_388
*1793 FILLER_27_402
*1794 FILLER_27_44
*1795 FILLER_27_48
*1796 FILLER_27_7
*1797 FILLER_27_77
*1798 FILLER_27_85
*1799 FILLER_28_109
*1800 FILLER_28_117
*1801 FILLER_28_126
*1802 FILLER_28_138
*1803 FILLER_28_141
*1804 FILLER_28_153
*1805 FILLER_28_161
*1806 FILLER_28_167
*1807 FILLER_28_179
*1808 FILLER_28_187
*1809 FILLER_28_195
*1810 FILLER_28_197
*1811 FILLER_28_209
*1812 FILLER_28_227
*1813 FILLER_28_236
*1814 FILLER_28_248
*1815 FILLER_28_25
*1816 FILLER_28_253
*1817 FILLER_28_265
*1818 FILLER_28_269
*1819 FILLER_28_282
*1820 FILLER_28_29
*1821 FILLER_28_294
*1822 FILLER_28_3
*1823 FILLER_28_306
*1824 FILLER_28_309
*1825 FILLER_28_317
*1826 FILLER_28_338
*1827 FILLER_28_342
*1828 FILLER_28_354
*1829 FILLER_28_362
*1830 FILLER_28_365
*1831 FILLER_28_377
*1832 FILLER_28_389
*1833 FILLER_28_397
*1834 FILLER_28_41
*1835 FILLER_28_53
*1836 FILLER_28_61
*1837 FILLER_28_69
*1838 FILLER_28_81
*1839 FILLER_28_85
*1840 FILLER_28_97
*1841 FILLER_29_102
*1842 FILLER_29_110
*1843 FILLER_29_113
*1844 FILLER_29_117
*1845 FILLER_29_129
*1846 FILLER_29_141
*1847 FILLER_29_15
*1848 FILLER_29_153
*1849 FILLER_29_180
*1850 FILLER_29_188
*1851 FILLER_29_201
*1852 FILLER_29_205
*1853 FILLER_29_215
*1854 FILLER_29_223
*1855 FILLER_29_225
*1856 FILLER_29_238
*1857 FILLER_29_24
*1858 FILLER_29_255
*1859 FILLER_29_273
*1860 FILLER_29_279
*1861 FILLER_29_281
*1862 FILLER_29_285
*1863 FILLER_29_293
*1864 FILLER_29_3
*1865 FILLER_29_300
*1866 FILLER_29_312
*1867 FILLER_29_323
*1868 FILLER_29_335
*1869 FILLER_29_337
*1870 FILLER_29_349
*1871 FILLER_29_380
*1872 FILLER_29_393
*1873 FILLER_29_46
*1874 FILLER_29_50
*1875 FILLER_29_54
*1876 FILLER_29_57
*1877 FILLER_29_77
*1878 FILLER_29_89
*1879 FILLER_2_109
*1880 FILLER_2_121
*1881 FILLER_2_133
*1882 FILLER_2_139
*1883 FILLER_2_141
*1884 FILLER_2_15
*1885 FILLER_2_153
*1886 FILLER_2_165
*1887 FILLER_2_177
*1888 FILLER_2_189
*1889 FILLER_2_195
*1890 FILLER_2_197
*1891 FILLER_2_209
*1892 FILLER_2_221
*1893 FILLER_2_233
*1894 FILLER_2_245
*1895 FILLER_2_251
*1896 FILLER_2_253
*1897 FILLER_2_265
*1898 FILLER_2_27
*1899 FILLER_2_277
*1900 FILLER_2_289
*1901 FILLER_2_29
*1902 FILLER_2_3
*1903 FILLER_2_301
*1904 FILLER_2_307
*1905 FILLER_2_309
*1906 FILLER_2_321
*1907 FILLER_2_333
*1908 FILLER_2_345
*1909 FILLER_2_357
*1910 FILLER_2_363
*1911 FILLER_2_365
*1912 FILLER_2_377
*1913 FILLER_2_389
*1914 FILLER_2_401
*1915 FILLER_2_41
*1916 FILLER_2_53
*1917 FILLER_2_65
*1918 FILLER_2_77
*1919 FILLER_2_83
*1920 FILLER_2_85
*1921 FILLER_2_97
*1922 FILLER_30_106
*1923 FILLER_30_112
*1924 FILLER_30_118
*1925 FILLER_30_126
*1926 FILLER_30_139
*1927 FILLER_30_149
*1928 FILLER_30_155
*1929 FILLER_30_163
*1930 FILLER_30_174
*1931 FILLER_30_186
*1932 FILLER_30_19
*1933 FILLER_30_194
*1934 FILLER_30_197
*1935 FILLER_30_209
*1936 FILLER_30_221
*1937 FILLER_30_233
*1938 FILLER_30_245
*1939 FILLER_30_251
*1940 FILLER_30_253
*1941 FILLER_30_258
*1942 FILLER_30_27
*1943 FILLER_30_270
*1944 FILLER_30_282
*1945 FILLER_30_29
*1946 FILLER_30_294
*1947 FILLER_30_306
*1948 FILLER_30_309
*1949 FILLER_30_317
*1950 FILLER_30_332
*1951 FILLER_30_344
*1952 FILLER_30_350
*1953 FILLER_30_362
*1954 FILLER_30_365
*1955 FILLER_30_369
*1956 FILLER_30_37
*1957 FILLER_30_378
*1958 FILLER_30_386
*1959 FILLER_30_404
*1960 FILLER_30_55
*1961 FILLER_30_63
*1962 FILLER_30_7
*1963 FILLER_30_75
*1964 FILLER_30_83
*1965 FILLER_30_85
*1966 FILLER_30_93
*1967 FILLER_31_126
*1968 FILLER_31_138
*1969 FILLER_31_150
*1970 FILLER_31_162
*1971 FILLER_31_169
*1972 FILLER_31_181
*1973 FILLER_31_193
*1974 FILLER_31_205
*1975 FILLER_31_214
*1976 FILLER_31_222
*1977 FILLER_31_225
*1978 FILLER_31_238
*1979 FILLER_31_250
*1980 FILLER_31_262
*1981 FILLER_31_274
*1982 FILLER_31_281
*1983 FILLER_31_289
*1984 FILLER_31_298
*1985 FILLER_31_317
*1986 FILLER_31_329
*1987 FILLER_31_335
*1988 FILLER_31_337
*1989 FILLER_31_34
*1990 FILLER_31_345
*1991 FILLER_31_355
*1992 FILLER_31_367
*1993 FILLER_31_378
*1994 FILLER_31_391
*1995 FILLER_31_393
*1996 FILLER_31_404
*1997 FILLER_31_46
*1998 FILLER_31_54
*1999 FILLER_31_57
*2000 FILLER_31_69
*2001 FILLER_31_77
*2002 FILLER_31_97
*2003 FILLER_32_105
*2004 FILLER_32_11
*2005 FILLER_32_112
*2006 FILLER_32_124
*2007 FILLER_32_136
*2008 FILLER_32_141
*2009 FILLER_32_155
*2010 FILLER_32_167
*2011 FILLER_32_185
*2012 FILLER_32_193
*2013 FILLER_32_197
*2014 FILLER_32_205
*2015 FILLER_32_21
*2016 FILLER_32_213
*2017 FILLER_32_223
*2018 FILLER_32_231
*2019 FILLER_32_242
*2020 FILLER_32_250
*2021 FILLER_32_253
*2022 FILLER_32_266
*2023 FILLER_32_27
*2024 FILLER_32_274
*2025 FILLER_32_280
*2026 FILLER_32_29
*2027 FILLER_32_3
*2028 FILLER_32_304
*2029 FILLER_32_317
*2030 FILLER_32_321
*2031 FILLER_32_328
*2032 FILLER_32_345
*2033 FILLER_32_373
*2034 FILLER_32_385
*2035 FILLER_32_389
*2036 FILLER_32_406
*2037 FILLER_32_41
*2038 FILLER_32_53
*2039 FILLER_32_62
*2040 FILLER_32_74
*2041 FILLER_32_82
*2042 FILLER_32_85
*2043 FILLER_32_97
*2044 FILLER_33_104
*2045 FILLER_33_113
*2046 FILLER_33_117
*2047 FILLER_33_128
*2048 FILLER_33_145
*2049 FILLER_33_15
*2050 FILLER_33_153
*2051 FILLER_33_157
*2052 FILLER_33_169
*2053 FILLER_33_181
*2054 FILLER_33_185
*2055 FILLER_33_196
*2056 FILLER_33_208
*2057 FILLER_33_221
*2058 FILLER_33_225
*2059 FILLER_33_237
*2060 FILLER_33_247
*2061 FILLER_33_253
*2062 FILLER_33_267
*2063 FILLER_33_277
*2064 FILLER_33_281
*2065 FILLER_33_293
*2066 FILLER_33_3
*2067 FILLER_33_305
*2068 FILLER_33_317
*2069 FILLER_33_32
*2070 FILLER_33_334
*2071 FILLER_33_337
*2072 FILLER_33_349
*2073 FILLER_33_361
*2074 FILLER_33_378
*2075 FILLER_33_391
*2076 FILLER_33_393
*2077 FILLER_33_405
*2078 FILLER_33_45
*2079 FILLER_33_73
*2080 FILLER_33_92
*2081 FILLER_34_104
*2082 FILLER_34_116
*2083 FILLER_34_128
*2084 FILLER_34_141
*2085 FILLER_34_153
*2086 FILLER_34_165
*2087 FILLER_34_173
*2088 FILLER_34_184
*2089 FILLER_34_197
*2090 FILLER_34_209
*2091 FILLER_34_221
*2092 FILLER_34_233
*2093 FILLER_34_250
*2094 FILLER_34_253
*2095 FILLER_34_265
*2096 FILLER_34_27
*2097 FILLER_34_277
*2098 FILLER_34_289
*2099 FILLER_34_3
*2100 FILLER_34_301
*2101 FILLER_34_307
*2102 FILLER_34_309
*2103 FILLER_34_317
*2104 FILLER_34_322
*2105 FILLER_34_338
*2106 FILLER_34_351
*2107 FILLER_34_363
*2108 FILLER_34_365
*2109 FILLER_34_377
*2110 FILLER_34_385
*2111 FILLER_34_403
*2112 FILLER_34_41
*2113 FILLER_34_53
*2114 FILLER_34_65
*2115 FILLER_34_77
*2116 FILLER_34_83
*2117 FILLER_34_92
*2118 FILLER_35_111
*2119 FILLER_35_113
*2120 FILLER_35_123
*2121 FILLER_35_135
*2122 FILLER_35_147
*2123 FILLER_35_15
*2124 FILLER_35_159
*2125 FILLER_35_167
*2126 FILLER_35_169
*2127 FILLER_35_181
*2128 FILLER_35_193
*2129 FILLER_35_205
*2130 FILLER_35_211
*2131 FILLER_35_225
*2132 FILLER_35_237
*2133 FILLER_35_249
*2134 FILLER_35_261
*2135 FILLER_35_27
*2136 FILLER_35_273
*2137 FILLER_35_279
*2138 FILLER_35_281
*2139 FILLER_35_3
*2140 FILLER_35_344
*2141 FILLER_35_354
*2142 FILLER_35_372
*2143 FILLER_35_378
*2144 FILLER_35_389
*2145 FILLER_35_39
*2146 FILLER_35_393
*2147 FILLER_35_402
*2148 FILLER_35_406
*2149 FILLER_35_51
*2150 FILLER_35_55
*2151 FILLER_35_57
*2152 FILLER_35_69
*2153 FILLER_35_80
*2154 FILLER_35_92
*2155 FILLER_36_108
*2156 FILLER_36_116
*2157 FILLER_36_120
*2158 FILLER_36_131
*2159 FILLER_36_139
*2160 FILLER_36_141
*2161 FILLER_36_149
*2162 FILLER_36_154
*2163 FILLER_36_166
*2164 FILLER_36_174
*2165 FILLER_36_187
*2166 FILLER_36_19
*2167 FILLER_36_195
*2168 FILLER_36_197
*2169 FILLER_36_240
*2170 FILLER_36_253
*2171 FILLER_36_265
*2172 FILLER_36_27
*2173 FILLER_36_280
*2174 FILLER_36_287
*2175 FILLER_36_29
*2176 FILLER_36_299
*2177 FILLER_36_307
*2178 FILLER_36_309
*2179 FILLER_36_321
*2180 FILLER_36_333
*2181 FILLER_36_345
*2182 FILLER_36_357
*2183 FILLER_36_363
*2184 FILLER_36_373
*2185 FILLER_36_385
*2186 FILLER_36_397
*2187 FILLER_36_41
*2188 FILLER_36_54
*2189 FILLER_36_66
*2190 FILLER_36_85
*2191 FILLER_36_96
*2192 FILLER_37_116
*2193 FILLER_37_128
*2194 FILLER_37_136
*2195 FILLER_37_159
*2196 FILLER_37_177
*2197 FILLER_37_18
*2198 FILLER_37_189
*2199 FILLER_37_197
*2200 FILLER_37_207
*2201 FILLER_37_219
*2202 FILLER_37_225
*2203 FILLER_37_250
*2204 FILLER_37_262
*2205 FILLER_37_270
*2206 FILLER_37_278
*2207 FILLER_37_281
*2208 FILLER_37_293
*2209 FILLER_37_3
*2210 FILLER_37_305
*2211 FILLER_37_317
*2212 FILLER_37_329
*2213 FILLER_37_33
*2214 FILLER_37_335
*2215 FILLER_37_357
*2216 FILLER_37_369
*2217 FILLER_37_381
*2218 FILLER_37_389
*2219 FILLER_37_405
*2220 FILLER_37_41
*2221 FILLER_37_50
*2222 FILLER_37_57
*2223 FILLER_37_63
*2224 FILLER_37_75
*2225 FILLER_37_79
*2226 FILLER_37_83
*2227 FILLER_37_9
*2228 FILLER_38_109
*2229 FILLER_38_121
*2230 FILLER_38_133
*2231 FILLER_38_139
*2232 FILLER_38_141
*2233 FILLER_38_153
*2234 FILLER_38_16
*2235 FILLER_38_165
*2236 FILLER_38_177
*2237 FILLER_38_189
*2238 FILLER_38_195
*2239 FILLER_38_197
*2240 FILLER_38_211
*2241 FILLER_38_219
*2242 FILLER_38_231
*2243 FILLER_38_243
*2244 FILLER_38_251
*2245 FILLER_38_253
*2246 FILLER_38_261
*2247 FILLER_38_269
*2248 FILLER_38_281
*2249 FILLER_38_29
*2250 FILLER_38_293
*2251 FILLER_38_3
*2252 FILLER_38_305
*2253 FILLER_38_309
*2254 FILLER_38_332
*2255 FILLER_38_336
*2256 FILLER_38_361
*2257 FILLER_38_365
*2258 FILLER_38_371
*2259 FILLER_38_379
*2260 FILLER_38_41
*2261 FILLER_38_50
*2262 FILLER_38_67
*2263 FILLER_38_7
*2264 FILLER_38_79
*2265 FILLER_38_83
*2266 FILLER_38_85
*2267 FILLER_38_97
*2268 FILLER_39_118
*2269 FILLER_39_136
*2270 FILLER_39_144
*2271 FILLER_39_153
*2272 FILLER_39_165
*2273 FILLER_39_169
*2274 FILLER_39_192
*2275 FILLER_39_204
*2276 FILLER_39_21
*2277 FILLER_39_216
*2278 FILLER_39_225
*2279 FILLER_39_237
*2280 FILLER_39_241
*2281 FILLER_39_247
*2282 FILLER_39_259
*2283 FILLER_39_265
*2284 FILLER_39_273
*2285 FILLER_39_279
*2286 FILLER_39_302
*2287 FILLER_39_33
*2288 FILLER_39_335
*2289 FILLER_39_345
*2290 FILLER_39_357
*2291 FILLER_39_386
*2292 FILLER_39_393
*2293 FILLER_39_405
*2294 FILLER_39_45
*2295 FILLER_39_53
*2296 FILLER_39_57
*2297 FILLER_39_69
*2298 FILLER_39_7
*2299 FILLER_39_75
*2300 FILLER_39_91
*2301 FILLER_39_99
*2302 FILLER_3_105
*2303 FILLER_3_111
*2304 FILLER_3_113
*2305 FILLER_3_125
*2306 FILLER_3_137
*2307 FILLER_3_149
*2308 FILLER_3_15
*2309 FILLER_3_161
*2310 FILLER_3_167
*2311 FILLER_3_169
*2312 FILLER_3_181
*2313 FILLER_3_193
*2314 FILLER_3_205
*2315 FILLER_3_217
*2316 FILLER_3_223
*2317 FILLER_3_225
*2318 FILLER_3_237
*2319 FILLER_3_249
*2320 FILLER_3_261
*2321 FILLER_3_27
*2322 FILLER_3_273
*2323 FILLER_3_279
*2324 FILLER_3_281
*2325 FILLER_3_293
*2326 FILLER_3_3
*2327 FILLER_3_305
*2328 FILLER_3_317
*2329 FILLER_3_329
*2330 FILLER_3_335
*2331 FILLER_3_337
*2332 FILLER_3_349
*2333 FILLER_3_361
*2334 FILLER_3_373
*2335 FILLER_3_385
*2336 FILLER_3_39
*2337 FILLER_3_391
*2338 FILLER_3_393
*2339 FILLER_3_405
*2340 FILLER_3_51
*2341 FILLER_3_55
*2342 FILLER_3_57
*2343 FILLER_3_69
*2344 FILLER_3_81
*2345 FILLER_3_93
*2346 FILLER_40_101
*2347 FILLER_40_113
*2348 FILLER_40_125
*2349 FILLER_40_137
*2350 FILLER_40_141
*2351 FILLER_40_161
*2352 FILLER_40_173
*2353 FILLER_40_185
*2354 FILLER_40_193
*2355 FILLER_40_197
*2356 FILLER_40_205
*2357 FILLER_40_218
*2358 FILLER_40_226
*2359 FILLER_40_234
*2360 FILLER_40_24
*2361 FILLER_40_250
*2362 FILLER_40_253
*2363 FILLER_40_287
*2364 FILLER_40_29
*2365 FILLER_40_299
*2366 FILLER_40_3
*2367 FILLER_40_307
*2368 FILLER_40_309
*2369 FILLER_40_324
*2370 FILLER_40_328
*2371 FILLER_40_340
*2372 FILLER_40_352
*2373 FILLER_40_365
*2374 FILLER_40_373
*2375 FILLER_40_38
*2376 FILLER_40_384
*2377 FILLER_40_404
*2378 FILLER_40_50
*2379 FILLER_40_62
*2380 FILLER_40_74
*2381 FILLER_40_89
*2382 FILLER_41_105
*2383 FILLER_41_11
*2384 FILLER_41_119
*2385 FILLER_41_131
*2386 FILLER_41_143
*2387 FILLER_41_151
*2388 FILLER_41_163
*2389 FILLER_41_167
*2390 FILLER_41_169
*2391 FILLER_41_177
*2392 FILLER_41_189
*2393 FILLER_41_20
*2394 FILLER_41_201
*2395 FILLER_41_213
*2396 FILLER_41_221
*2397 FILLER_41_225
*2398 FILLER_41_237
*2399 FILLER_41_241
*2400 FILLER_41_247
*2401 FILLER_41_259
*2402 FILLER_41_271
*2403 FILLER_41_279
*2404 FILLER_41_28
*2405 FILLER_41_289
*2406 FILLER_41_293
*2407 FILLER_41_3
*2408 FILLER_41_304
*2409 FILLER_41_316
*2410 FILLER_41_330
*2411 FILLER_41_337
*2412 FILLER_41_360
*2413 FILLER_41_372
*2414 FILLER_41_380
*2415 FILLER_41_393
*2416 FILLER_41_46
*2417 FILLER_41_54
*2418 FILLER_41_69
*2419 FILLER_41_81
*2420 FILLER_41_93
*2421 FILLER_42_102
*2422 FILLER_42_114
*2423 FILLER_42_122
*2424 FILLER_42_138
*2425 FILLER_42_141
*2426 FILLER_42_153
*2427 FILLER_42_165
*2428 FILLER_42_173
*2429 FILLER_42_18
*2430 FILLER_42_183
*2431 FILLER_42_195
*2432 FILLER_42_197
*2433 FILLER_42_209
*2434 FILLER_42_221
*2435 FILLER_42_233
*2436 FILLER_42_241
*2437 FILLER_42_249
*2438 FILLER_42_253
*2439 FILLER_42_26
*2440 FILLER_42_265
*2441 FILLER_42_277
*2442 FILLER_42_285
*2443 FILLER_42_29
*2444 FILLER_42_3
*2445 FILLER_42_317
*2446 FILLER_42_390
*2447 FILLER_42_402
*2448 FILLER_42_41
*2449 FILLER_42_53
*2450 FILLER_42_57
*2451 FILLER_42_65
*2452 FILLER_42_69
*2453 FILLER_42_77
*2454 FILLER_42_83
*2455 FILLER_42_9
*2456 FILLER_42_90
*2457 FILLER_43_105
*2458 FILLER_43_113
*2459 FILLER_43_124
*2460 FILLER_43_133
*2461 FILLER_43_145
*2462 FILLER_43_162
*2463 FILLER_43_169
*2464 FILLER_43_185
*2465 FILLER_43_197
*2466 FILLER_43_201
*2467 FILLER_43_21
*2468 FILLER_43_210
*2469 FILLER_43_222
*2470 FILLER_43_225
*2471 FILLER_43_237
*2472 FILLER_43_249
*2473 FILLER_43_261
*2474 FILLER_43_273
*2475 FILLER_43_279
*2476 FILLER_43_289
*2477 FILLER_43_29
*2478 FILLER_43_3
*2479 FILLER_43_301
*2480 FILLER_43_313
*2481 FILLER_43_325
*2482 FILLER_43_337
*2483 FILLER_43_361
*2484 FILLER_43_373
*2485 FILLER_43_385
*2486 FILLER_43_391
*2487 FILLER_43_393
*2488 FILLER_43_405
*2489 FILLER_43_49
*2490 FILLER_43_55
*2491 FILLER_43_57
*2492 FILLER_43_69
*2493 FILLER_43_97
*2494 FILLER_44_119
*2495 FILLER_44_131
*2496 FILLER_44_139
*2497 FILLER_44_141
*2498 FILLER_44_159
*2499 FILLER_44_17
*2500 FILLER_44_171
*2501 FILLER_44_184
*2502 FILLER_44_197
*2503 FILLER_44_217
*2504 FILLER_44_239
*2505 FILLER_44_25
*2506 FILLER_44_250
*2507 FILLER_44_262
*2508 FILLER_44_284
*2509 FILLER_44_29
*2510 FILLER_44_296
*2511 FILLER_44_309
*2512 FILLER_44_321
*2513 FILLER_44_333
*2514 FILLER_44_341
*2515 FILLER_44_352
*2516 FILLER_44_370
*2517 FILLER_44_45
*2518 FILLER_44_57
*2519 FILLER_44_61
*2520 FILLER_44_7
*2521 FILLER_44_73
*2522 FILLER_44_83
*2523 FILLER_44_93
*2524 FILLER_45_111
*2525 FILLER_45_119
*2526 FILLER_45_131
*2527 FILLER_45_143
*2528 FILLER_45_148
*2529 FILLER_45_152
*2530 FILLER_45_164
*2531 FILLER_45_169
*2532 FILLER_45_177
*2533 FILLER_45_18
*2534 FILLER_45_191
*2535 FILLER_45_203
*2536 FILLER_45_215
*2537 FILLER_45_223
*2538 FILLER_45_233
*2539 FILLER_45_245
*2540 FILLER_45_26
*2541 FILLER_45_262
*2542 FILLER_45_274
*2543 FILLER_45_281
*2544 FILLER_45_293
*2545 FILLER_45_305
*2546 FILLER_45_316
*2547 FILLER_45_328
*2548 FILLER_45_337
*2549 FILLER_45_362
*2550 FILLER_45_374
*2551 FILLER_45_386
*2552 FILLER_45_393
*2553 FILLER_45_401
*2554 FILLER_45_44
*2555 FILLER_45_52
*2556 FILLER_45_6
*2557 FILLER_45_70
*2558 FILLER_45_78
*2559 FILLER_45_83
*2560 FILLER_46_112
*2561 FILLER_46_124
*2562 FILLER_46_136
*2563 FILLER_46_141
*2564 FILLER_46_145
*2565 FILLER_46_149
*2566 FILLER_46_16
*2567 FILLER_46_161
*2568 FILLER_46_173
*2569 FILLER_46_186
*2570 FILLER_46_194
*2571 FILLER_46_197
*2572 FILLER_46_209
*2573 FILLER_46_217
*2574 FILLER_46_229
*2575 FILLER_46_241
*2576 FILLER_46_249
*2577 FILLER_46_253
*2578 FILLER_46_259
*2579 FILLER_46_271
*2580 FILLER_46_283
*2581 FILLER_46_29
*2582 FILLER_46_302
*2583 FILLER_46_316
*2584 FILLER_46_329
*2585 FILLER_46_360
*2586 FILLER_46_365
*2587 FILLER_46_370
*2588 FILLER_46_396
*2589 FILLER_46_402
*2590 FILLER_46_48
*2591 FILLER_46_54
*2592 FILLER_46_62
*2593 FILLER_46_7
*2594 FILLER_46_74
*2595 FILLER_46_85
*2596 FILLER_46_97
*2597 FILLER_47_108
*2598 FILLER_47_113
*2599 FILLER_47_125
*2600 FILLER_47_143
*2601 FILLER_47_155
*2602 FILLER_47_167
*2603 FILLER_47_169
*2604 FILLER_47_181
*2605 FILLER_47_193
*2606 FILLER_47_221
*2607 FILLER_47_225
*2608 FILLER_47_237
*2609 FILLER_47_249
*2610 FILLER_47_25
*2611 FILLER_47_261
*2612 FILLER_47_278
*2613 FILLER_47_289
*2614 FILLER_47_301
*2615 FILLER_47_309
*2616 FILLER_47_313
*2617 FILLER_47_325
*2618 FILLER_47_333
*2619 FILLER_47_337
*2620 FILLER_47_349
*2621 FILLER_47_361
*2622 FILLER_47_37
*2623 FILLER_47_373
*2624 FILLER_47_385
*2625 FILLER_47_391
*2626 FILLER_47_405
*2627 FILLER_47_49
*2628 FILLER_47_55
*2629 FILLER_47_57
*2630 FILLER_47_69
*2631 FILLER_47_81
*2632 FILLER_47_89
*2633 FILLER_47_96
*2634 FILLER_48_101
*2635 FILLER_48_113
*2636 FILLER_48_119
*2637 FILLER_48_131
*2638 FILLER_48_138
*2639 FILLER_48_141
*2640 FILLER_48_153
*2641 FILLER_48_18
*2642 FILLER_48_181
*2643 FILLER_48_193
*2644 FILLER_48_197
*2645 FILLER_48_201
*2646 FILLER_48_218
*2647 FILLER_48_240
*2648 FILLER_48_251
*2649 FILLER_48_253
*2650 FILLER_48_26
*2651 FILLER_48_265
*2652 FILLER_48_277
*2653 FILLER_48_289
*2654 FILLER_48_29
*2655 FILLER_48_301
*2656 FILLER_48_307
*2657 FILLER_48_309
*2658 FILLER_48_318
*2659 FILLER_48_330
*2660 FILLER_48_342
*2661 FILLER_48_354
*2662 FILLER_48_360
*2663 FILLER_48_365
*2664 FILLER_48_37
*2665 FILLER_48_371
*2666 FILLER_48_377
*2667 FILLER_48_381
*2668 FILLER_48_49
*2669 FILLER_48_6
*2670 FILLER_48_61
*2671 FILLER_48_73
*2672 FILLER_48_85
*2673 FILLER_49_108
*2674 FILLER_49_120
*2675 FILLER_49_132
*2676 FILLER_49_144
*2677 FILLER_49_152
*2678 FILLER_49_164
*2679 FILLER_49_169
*2680 FILLER_49_18
*2681 FILLER_49_181
*2682 FILLER_49_193
*2683 FILLER_49_201
*2684 FILLER_49_216
*2685 FILLER_49_225
*2686 FILLER_49_236
*2687 FILLER_49_24
*2688 FILLER_49_245
*2689 FILLER_49_258
*2690 FILLER_49_270
*2691 FILLER_49_293
*2692 FILLER_49_304
*2693 FILLER_49_312
*2694 FILLER_49_32
*2695 FILLER_49_337
*2696 FILLER_49_382
*2697 FILLER_49_390
*2698 FILLER_49_393
*2699 FILLER_49_401
*2700 FILLER_49_55
*2701 FILLER_49_6
*2702 FILLER_49_72
*2703 FILLER_49_84
*2704 FILLER_49_96
*2705 FILLER_4_109
*2706 FILLER_4_121
*2707 FILLER_4_133
*2708 FILLER_4_139
*2709 FILLER_4_141
*2710 FILLER_4_15
*2711 FILLER_4_153
*2712 FILLER_4_165
*2713 FILLER_4_177
*2714 FILLER_4_189
*2715 FILLER_4_195
*2716 FILLER_4_197
*2717 FILLER_4_209
*2718 FILLER_4_221
*2719 FILLER_4_233
*2720 FILLER_4_245
*2721 FILLER_4_251
*2722 FILLER_4_253
*2723 FILLER_4_265
*2724 FILLER_4_27
*2725 FILLER_4_277
*2726 FILLER_4_289
*2727 FILLER_4_29
*2728 FILLER_4_3
*2729 FILLER_4_301
*2730 FILLER_4_307
*2731 FILLER_4_309
*2732 FILLER_4_321
*2733 FILLER_4_333
*2734 FILLER_4_345
*2735 FILLER_4_357
*2736 FILLER_4_363
*2737 FILLER_4_365
*2738 FILLER_4_377
*2739 FILLER_4_389
*2740 FILLER_4_401
*2741 FILLER_4_41
*2742 FILLER_4_53
*2743 FILLER_4_65
*2744 FILLER_4_77
*2745 FILLER_4_83
*2746 FILLER_4_85
*2747 FILLER_4_97
*2748 FILLER_50_109
*2749 FILLER_50_126
*2750 FILLER_50_138
*2751 FILLER_50_141
*2752 FILLER_50_149
*2753 FILLER_50_162
*2754 FILLER_50_174
*2755 FILLER_50_182
*2756 FILLER_50_190
*2757 FILLER_50_197
*2758 FILLER_50_209
*2759 FILLER_50_221
*2760 FILLER_50_233
*2761 FILLER_50_24
*2762 FILLER_50_245
*2763 FILLER_50_251
*2764 FILLER_50_253
*2765 FILLER_50_264
*2766 FILLER_50_276
*2767 FILLER_50_29
*2768 FILLER_50_292
*2769 FILLER_50_304
*2770 FILLER_50_309
*2771 FILLER_50_321
*2772 FILLER_50_331
*2773 FILLER_50_351
*2774 FILLER_50_363
*2775 FILLER_50_365
*2776 FILLER_50_371
*2777 FILLER_50_380
*2778 FILLER_50_388
*2779 FILLER_50_49
*2780 FILLER_50_55
*2781 FILLER_50_6
*2782 FILLER_50_69
*2783 FILLER_50_81
*2784 FILLER_50_85
*2785 FILLER_50_89
*2786 FILLER_50_97
*2787 FILLER_51_101
*2788 FILLER_51_109
*2789 FILLER_51_113
*2790 FILLER_51_119
*2791 FILLER_51_14
*2792 FILLER_51_144
*2793 FILLER_51_177
*2794 FILLER_51_198
*2795 FILLER_51_207
*2796 FILLER_51_219
*2797 FILLER_51_223
*2798 FILLER_51_225
*2799 FILLER_51_237
*2800 FILLER_51_260
*2801 FILLER_51_272
*2802 FILLER_51_277
*2803 FILLER_51_281
*2804 FILLER_51_289
*2805 FILLER_51_298
*2806 FILLER_51_306
*2807 FILLER_51_316
*2808 FILLER_51_328
*2809 FILLER_51_33
*2810 FILLER_51_337
*2811 FILLER_51_349
*2812 FILLER_51_361
*2813 FILLER_51_373
*2814 FILLER_51_385
*2815 FILLER_51_391
*2816 FILLER_51_402
*2817 FILLER_51_41
*2818 FILLER_51_51
*2819 FILLER_51_55
*2820 FILLER_51_57
*2821 FILLER_51_6
*2822 FILLER_51_65
*2823 FILLER_51_77
*2824 FILLER_51_89
*2825 FILLER_52_101
*2826 FILLER_52_111
*2827 FILLER_52_123
*2828 FILLER_52_135
*2829 FILLER_52_139
*2830 FILLER_52_141
*2831 FILLER_52_153
*2832 FILLER_52_165
*2833 FILLER_52_177
*2834 FILLER_52_185
*2835 FILLER_52_19
*2836 FILLER_52_205
*2837 FILLER_52_226
*2838 FILLER_52_231
*2839 FILLER_52_246
*2840 FILLER_52_253
*2841 FILLER_52_259
*2842 FILLER_52_263
*2843 FILLER_52_27
*2844 FILLER_52_287
*2845 FILLER_52_29
*2846 FILLER_52_309
*2847 FILLER_52_321
*2848 FILLER_52_328
*2849 FILLER_52_338
*2850 FILLER_52_350
*2851 FILLER_52_362
*2852 FILLER_52_365
*2853 FILLER_52_37
*2854 FILLER_52_373
*2855 FILLER_52_380
*2856 FILLER_52_392
*2857 FILLER_52_398
*2858 FILLER_52_59
*2859 FILLER_52_7
*2860 FILLER_52_85
*2861 FILLER_53_109
*2862 FILLER_53_113
*2863 FILLER_53_12
*2864 FILLER_53_125
*2865 FILLER_53_137
*2866 FILLER_53_149
*2867 FILLER_53_161
*2868 FILLER_53_167
*2869 FILLER_53_169
*2870 FILLER_53_181
*2871 FILLER_53_193
*2872 FILLER_53_205
*2873 FILLER_53_217
*2874 FILLER_53_223
*2875 FILLER_53_228
*2876 FILLER_53_24
*2877 FILLER_53_240
*2878 FILLER_53_246
*2879 FILLER_53_272
*2880 FILLER_53_281
*2881 FILLER_53_3
*2882 FILLER_53_306
*2883 FILLER_53_318
*2884 FILLER_53_337
*2885 FILLER_53_349
*2886 FILLER_53_36
*2887 FILLER_53_374
*2888 FILLER_53_386
*2889 FILLER_53_393
*2890 FILLER_53_57
*2891 FILLER_53_69
*2892 FILLER_53_81
*2893 FILLER_54_109
*2894 FILLER_54_121
*2895 FILLER_54_133
*2896 FILLER_54_139
*2897 FILLER_54_141
*2898 FILLER_54_154
*2899 FILLER_54_162
*2900 FILLER_54_167
*2901 FILLER_54_179
*2902 FILLER_54_18
*2903 FILLER_54_183
*2904 FILLER_54_195
*2905 FILLER_54_202
*2906 FILLER_54_214
*2907 FILLER_54_224
*2908 FILLER_54_236
*2909 FILLER_54_248
*2910 FILLER_54_253
*2911 FILLER_54_26
*2912 FILLER_54_265
*2913 FILLER_54_277
*2914 FILLER_54_289
*2915 FILLER_54_29
*2916 FILLER_54_301
*2917 FILLER_54_307
*2918 FILLER_54_309
*2919 FILLER_54_321
*2920 FILLER_54_333
*2921 FILLER_54_345
*2922 FILLER_54_357
*2923 FILLER_54_363
*2924 FILLER_54_365
*2925 FILLER_54_376
*2926 FILLER_54_405
*2927 FILLER_54_41
*2928 FILLER_54_53
*2929 FILLER_54_6
*2930 FILLER_54_65
*2931 FILLER_54_77
*2932 FILLER_54_83
*2933 FILLER_54_85
*2934 FILLER_54_97
*2935 FILLER_55_105
*2936 FILLER_55_111
*2937 FILLER_55_113
*2938 FILLER_55_125
*2939 FILLER_55_137
*2940 FILLER_55_160
*2941 FILLER_55_18
*2942 FILLER_55_184
*2943 FILLER_55_195
*2944 FILLER_55_200
*2945 FILLER_55_206
*2946 FILLER_55_220
*2947 FILLER_55_225
*2948 FILLER_55_237
*2949 FILLER_55_245
*2950 FILLER_55_249
*2951 FILLER_55_261
*2952 FILLER_55_271
*2953 FILLER_55_279
*2954 FILLER_55_281
*2955 FILLER_55_289
*2956 FILLER_55_299
*2957 FILLER_55_30
*2958 FILLER_55_311
*2959 FILLER_55_328
*2960 FILLER_55_337
*2961 FILLER_55_349
*2962 FILLER_55_361
*2963 FILLER_55_373
*2964 FILLER_55_385
*2965 FILLER_55_391
*2966 FILLER_55_393
*2967 FILLER_55_405
*2968 FILLER_55_42
*2969 FILLER_55_54
*2970 FILLER_55_57
*2971 FILLER_55_6
*2972 FILLER_55_69
*2973 FILLER_55_81
*2974 FILLER_55_93
*2975 FILLER_56_109
*2976 FILLER_56_121
*2977 FILLER_56_133
*2978 FILLER_56_139
*2979 FILLER_56_141
*2980 FILLER_56_153
*2981 FILLER_56_165
*2982 FILLER_56_177
*2983 FILLER_56_18
*2984 FILLER_56_185
*2985 FILLER_56_194
*2986 FILLER_56_197
*2987 FILLER_56_209
*2988 FILLER_56_217
*2989 FILLER_56_227
*2990 FILLER_56_239
*2991 FILLER_56_243
*2992 FILLER_56_253
*2993 FILLER_56_26
*2994 FILLER_56_265
*2995 FILLER_56_277
*2996 FILLER_56_289
*2997 FILLER_56_29
*2998 FILLER_56_301
*2999 FILLER_56_307
*3000 FILLER_56_309
*3001 FILLER_56_313
*3002 FILLER_56_327
*3003 FILLER_56_333
*3004 FILLER_56_361
*3005 FILLER_56_365
*3006 FILLER_56_377
*3007 FILLER_56_389
*3008 FILLER_56_401
*3009 FILLER_56_41
*3010 FILLER_56_53
*3011 FILLER_56_6
*3012 FILLER_56_65
*3013 FILLER_56_77
*3014 FILLER_56_83
*3015 FILLER_56_85
*3016 FILLER_56_97
*3017 FILLER_57_105
*3018 FILLER_57_111
*3019 FILLER_57_113
*3020 FILLER_57_125
*3021 FILLER_57_137
*3022 FILLER_57_149
*3023 FILLER_57_161
*3024 FILLER_57_167
*3025 FILLER_57_169
*3026 FILLER_57_18
*3027 FILLER_57_181
*3028 FILLER_57_193
*3029 FILLER_57_199
*3030 FILLER_57_208
*3031 FILLER_57_220
*3032 FILLER_57_225
*3033 FILLER_57_235
*3034 FILLER_57_241
*3035 FILLER_57_266
*3036 FILLER_57_275
*3037 FILLER_57_279
*3038 FILLER_57_281
*3039 FILLER_57_293
*3040 FILLER_57_30
*3041 FILLER_57_304
*3042 FILLER_57_313
*3043 FILLER_57_325
*3044 FILLER_57_333
*3045 FILLER_57_337
*3046 FILLER_57_349
*3047 FILLER_57_361
*3048 FILLER_57_373
*3049 FILLER_57_385
*3050 FILLER_57_391
*3051 FILLER_57_393
*3052 FILLER_57_405
*3053 FILLER_57_42
*3054 FILLER_57_54
*3055 FILLER_57_57
*3056 FILLER_57_6
*3057 FILLER_57_69
*3058 FILLER_57_81
*3059 FILLER_57_93
*3060 FILLER_58_108
*3061 FILLER_58_120
*3062 FILLER_58_132
*3063 FILLER_58_141
*3064 FILLER_58_15
*3065 FILLER_58_166
*3066 FILLER_58_185
*3067 FILLER_58_193
*3068 FILLER_58_221
*3069 FILLER_58_233
*3070 FILLER_58_245
*3071 FILLER_58_251
*3072 FILLER_58_253
*3073 FILLER_58_27
*3074 FILLER_58_281
*3075 FILLER_58_29
*3076 FILLER_58_3
*3077 FILLER_58_304
*3078 FILLER_58_309
*3079 FILLER_58_321
*3080 FILLER_58_333
*3081 FILLER_58_345
*3082 FILLER_58_357
*3083 FILLER_58_363
*3084 FILLER_58_365
*3085 FILLER_58_377
*3086 FILLER_58_389
*3087 FILLER_58_401
*3088 FILLER_58_41
*3089 FILLER_58_53
*3090 FILLER_58_65
*3091 FILLER_58_77
*3092 FILLER_58_83
*3093 FILLER_58_85
*3094 FILLER_58_97
*3095 FILLER_59_121
*3096 FILLER_59_133
*3097 FILLER_59_145
*3098 FILLER_59_15
*3099 FILLER_59_167
*3100 FILLER_59_169
*3101 FILLER_59_192
*3102 FILLER_59_204
*3103 FILLER_59_208
*3104 FILLER_59_214
*3105 FILLER_59_222
*3106 FILLER_59_234
*3107 FILLER_59_242
*3108 FILLER_59_250
*3109 FILLER_59_263
*3110 FILLER_59_27
*3111 FILLER_59_272
*3112 FILLER_59_281
*3113 FILLER_59_289
*3114 FILLER_59_298
*3115 FILLER_59_3
*3116 FILLER_59_310
*3117 FILLER_59_322
*3118 FILLER_59_334
*3119 FILLER_59_337
*3120 FILLER_59_349
*3121 FILLER_59_361
*3122 FILLER_59_373
*3123 FILLER_59_385
*3124 FILLER_59_39
*3125 FILLER_59_391
*3126 FILLER_59_393
*3127 FILLER_59_405
*3128 FILLER_59_51
*3129 FILLER_59_55
*3130 FILLER_59_57
*3131 FILLER_59_69
*3132 FILLER_59_81
*3133 FILLER_59_93
*3134 FILLER_5_105
*3135 FILLER_5_111
*3136 FILLER_5_113
*3137 FILLER_5_125
*3138 FILLER_5_137
*3139 FILLER_5_149
*3140 FILLER_5_15
*3141 FILLER_5_161
*3142 FILLER_5_167
*3143 FILLER_5_169
*3144 FILLER_5_181
*3145 FILLER_5_193
*3146 FILLER_5_205
*3147 FILLER_5_217
*3148 FILLER_5_223
*3149 FILLER_5_225
*3150 FILLER_5_237
*3151 FILLER_5_249
*3152 FILLER_5_261
*3153 FILLER_5_27
*3154 FILLER_5_273
*3155 FILLER_5_279
*3156 FILLER_5_281
*3157 FILLER_5_293
*3158 FILLER_5_3
*3159 FILLER_5_305
*3160 FILLER_5_317
*3161 FILLER_5_329
*3162 FILLER_5_335
*3163 FILLER_5_337
*3164 FILLER_5_349
*3165 FILLER_5_361
*3166 FILLER_5_373
*3167 FILLER_5_385
*3168 FILLER_5_39
*3169 FILLER_5_391
*3170 FILLER_5_393
*3171 FILLER_5_405
*3172 FILLER_5_51
*3173 FILLER_5_55
*3174 FILLER_5_57
*3175 FILLER_5_69
*3176 FILLER_5_81
*3177 FILLER_5_93
*3178 FILLER_60_101
*3179 FILLER_60_108
*3180 FILLER_60_120
*3181 FILLER_60_132
*3182 FILLER_60_141
*3183 FILLER_60_15
*3184 FILLER_60_153
*3185 FILLER_60_165
*3186 FILLER_60_185
*3187 FILLER_60_193
*3188 FILLER_60_197
*3189 FILLER_60_209
*3190 FILLER_60_217
*3191 FILLER_60_24
*3192 FILLER_60_244
*3193 FILLER_60_253
*3194 FILLER_60_265
*3195 FILLER_60_277
*3196 FILLER_60_289
*3197 FILLER_60_29
*3198 FILLER_60_297
*3199 FILLER_60_3
*3200 FILLER_60_305
*3201 FILLER_60_309
*3202 FILLER_60_321
*3203 FILLER_60_333
*3204 FILLER_60_345
*3205 FILLER_60_357
*3206 FILLER_60_363
*3207 FILLER_60_365
*3208 FILLER_60_377
*3209 FILLER_60_389
*3210 FILLER_60_401
*3211 FILLER_60_41
*3212 FILLER_60_53
*3213 FILLER_60_65
*3214 FILLER_60_77
*3215 FILLER_60_83
*3216 FILLER_60_85
*3217 FILLER_60_97
*3218 FILLER_61_105
*3219 FILLER_61_111
*3220 FILLER_61_113
*3221 FILLER_61_125
*3222 FILLER_61_137
*3223 FILLER_61_149
*3224 FILLER_61_15
*3225 FILLER_61_161
*3226 FILLER_61_167
*3227 FILLER_61_169
*3228 FILLER_61_177
*3229 FILLER_61_188
*3230 FILLER_61_200
*3231 FILLER_61_225
*3232 FILLER_61_237
*3233 FILLER_61_243
*3234 FILLER_61_261
*3235 FILLER_61_265
*3236 FILLER_61_27
*3237 FILLER_61_275
*3238 FILLER_61_279
*3239 FILLER_61_281
*3240 FILLER_61_293
*3241 FILLER_61_3
*3242 FILLER_61_315
*3243 FILLER_61_327
*3244 FILLER_61_335
*3245 FILLER_61_337
*3246 FILLER_61_349
*3247 FILLER_61_361
*3248 FILLER_61_373
*3249 FILLER_61_385
*3250 FILLER_61_39
*3251 FILLER_61_391
*3252 FILLER_61_393
*3253 FILLER_61_405
*3254 FILLER_61_51
*3255 FILLER_61_55
*3256 FILLER_61_57
*3257 FILLER_61_69
*3258 FILLER_61_81
*3259 FILLER_61_93
*3260 FILLER_62_109
*3261 FILLER_62_121
*3262 FILLER_62_133
*3263 FILLER_62_139
*3264 FILLER_62_141
*3265 FILLER_62_15
*3266 FILLER_62_153
*3267 FILLER_62_165
*3268 FILLER_62_173
*3269 FILLER_62_213
*3270 FILLER_62_226
*3271 FILLER_62_234
*3272 FILLER_62_262
*3273 FILLER_62_268
*3274 FILLER_62_27
*3275 FILLER_62_29
*3276 FILLER_62_293
*3277 FILLER_62_3
*3278 FILLER_62_325
*3279 FILLER_62_337
*3280 FILLER_62_349
*3281 FILLER_62_361
*3282 FILLER_62_365
*3283 FILLER_62_377
*3284 FILLER_62_389
*3285 FILLER_62_401
*3286 FILLER_62_41
*3287 FILLER_62_53
*3288 FILLER_62_65
*3289 FILLER_62_77
*3290 FILLER_62_83
*3291 FILLER_62_85
*3292 FILLER_62_97
*3293 FILLER_63_105
*3294 FILLER_63_111
*3295 FILLER_63_113
*3296 FILLER_63_125
*3297 FILLER_63_137
*3298 FILLER_63_149
*3299 FILLER_63_15
*3300 FILLER_63_161
*3301 FILLER_63_167
*3302 FILLER_63_169
*3303 FILLER_63_189
*3304 FILLER_63_201
*3305 FILLER_63_218
*3306 FILLER_63_249
*3307 FILLER_63_253
*3308 FILLER_63_27
*3309 FILLER_63_278
*3310 FILLER_63_281
*3311 FILLER_63_293
*3312 FILLER_63_3
*3313 FILLER_63_305
*3314 FILLER_63_317
*3315 FILLER_63_329
*3316 FILLER_63_335
*3317 FILLER_63_337
*3318 FILLER_63_349
*3319 FILLER_63_361
*3320 FILLER_63_373
*3321 FILLER_63_385
*3322 FILLER_63_39
*3323 FILLER_63_391
*3324 FILLER_63_393
*3325 FILLER_63_405
*3326 FILLER_63_51
*3327 FILLER_63_55
*3328 FILLER_63_57
*3329 FILLER_63_69
*3330 FILLER_63_81
*3331 FILLER_63_93
*3332 FILLER_64_105
*3333 FILLER_64_113
*3334 FILLER_64_125
*3335 FILLER_64_137
*3336 FILLER_64_141
*3337 FILLER_64_15
*3338 FILLER_64_153
*3339 FILLER_64_161
*3340 FILLER_64_167
*3341 FILLER_64_169
*3342 FILLER_64_181
*3343 FILLER_64_189
*3344 FILLER_64_195
*3345 FILLER_64_197
*3346 FILLER_64_209
*3347 FILLER_64_217
*3348 FILLER_64_223
*3349 FILLER_64_225
*3350 FILLER_64_231
*3351 FILLER_64_238
*3352 FILLER_64_250
*3353 FILLER_64_253
*3354 FILLER_64_268
*3355 FILLER_64_27
*3356 FILLER_64_281
*3357 FILLER_64_29
*3358 FILLER_64_293
*3359 FILLER_64_3
*3360 FILLER_64_303
*3361 FILLER_64_307
*3362 FILLER_64_309
*3363 FILLER_64_315
*3364 FILLER_64_327
*3365 FILLER_64_335
*3366 FILLER_64_337
*3367 FILLER_64_349
*3368 FILLER_64_361
*3369 FILLER_64_365
*3370 FILLER_64_377
*3371 FILLER_64_389
*3372 FILLER_64_393
*3373 FILLER_64_405
*3374 FILLER_64_41
*3375 FILLER_64_53
*3376 FILLER_64_57
*3377 FILLER_64_69
*3378 FILLER_64_81
*3379 FILLER_64_85
*3380 FILLER_64_97
*3381 FILLER_6_109
*3382 FILLER_6_121
*3383 FILLER_6_133
*3384 FILLER_6_139
*3385 FILLER_6_141
*3386 FILLER_6_15
*3387 FILLER_6_153
*3388 FILLER_6_165
*3389 FILLER_6_177
*3390 FILLER_6_181
*3391 FILLER_6_189
*3392 FILLER_6_195
*3393 FILLER_6_213
*3394 FILLER_6_219
*3395 FILLER_6_245
*3396 FILLER_6_251
*3397 FILLER_6_253
*3398 FILLER_6_265
*3399 FILLER_6_27
*3400 FILLER_6_277
*3401 FILLER_6_289
*3402 FILLER_6_29
*3403 FILLER_6_3
*3404 FILLER_6_301
*3405 FILLER_6_307
*3406 FILLER_6_309
*3407 FILLER_6_321
*3408 FILLER_6_333
*3409 FILLER_6_345
*3410 FILLER_6_357
*3411 FILLER_6_363
*3412 FILLER_6_365
*3413 FILLER_6_377
*3414 FILLER_6_389
*3415 FILLER_6_401
*3416 FILLER_6_41
*3417 FILLER_6_53
*3418 FILLER_6_65
*3419 FILLER_6_77
*3420 FILLER_6_83
*3421 FILLER_6_85
*3422 FILLER_6_97
*3423 FILLER_7_103
*3424 FILLER_7_111
*3425 FILLER_7_113
*3426 FILLER_7_125
*3427 FILLER_7_137
*3428 FILLER_7_145
*3429 FILLER_7_149
*3430 FILLER_7_15
*3431 FILLER_7_157
*3432 FILLER_7_185
*3433 FILLER_7_193
*3434 FILLER_7_203
*3435 FILLER_7_215
*3436 FILLER_7_223
*3437 FILLER_7_225
*3438 FILLER_7_237
*3439 FILLER_7_247
*3440 FILLER_7_259
*3441 FILLER_7_27
*3442 FILLER_7_271
*3443 FILLER_7_279
*3444 FILLER_7_281
*3445 FILLER_7_293
*3446 FILLER_7_3
*3447 FILLER_7_305
*3448 FILLER_7_317
*3449 FILLER_7_329
*3450 FILLER_7_335
*3451 FILLER_7_337
*3452 FILLER_7_349
*3453 FILLER_7_361
*3454 FILLER_7_373
*3455 FILLER_7_385
*3456 FILLER_7_39
*3457 FILLER_7_391
*3458 FILLER_7_393
*3459 FILLER_7_405
*3460 FILLER_7_51
*3461 FILLER_7_55
*3462 FILLER_7_57
*3463 FILLER_7_69
*3464 FILLER_7_86
*3465 FILLER_8_113
*3466 FILLER_8_125
*3467 FILLER_8_131
*3468 FILLER_8_15
*3469 FILLER_8_158
*3470 FILLER_8_170
*3471 FILLER_8_186
*3472 FILLER_8_194
*3473 FILLER_8_197
*3474 FILLER_8_212
*3475 FILLER_8_216
*3476 FILLER_8_221
*3477 FILLER_8_233
*3478 FILLER_8_245
*3479 FILLER_8_251
*3480 FILLER_8_253
*3481 FILLER_8_265
*3482 FILLER_8_27
*3483 FILLER_8_277
*3484 FILLER_8_289
*3485 FILLER_8_29
*3486 FILLER_8_3
*3487 FILLER_8_301
*3488 FILLER_8_307
*3489 FILLER_8_309
*3490 FILLER_8_321
*3491 FILLER_8_333
*3492 FILLER_8_345
*3493 FILLER_8_357
*3494 FILLER_8_363
*3495 FILLER_8_365
*3496 FILLER_8_377
*3497 FILLER_8_389
*3498 FILLER_8_401
*3499 FILLER_8_41
*3500 FILLER_8_53
*3501 FILLER_8_65
*3502 FILLER_8_85
*3503 FILLER_9_103
*3504 FILLER_9_111
*3505 FILLER_9_113
*3506 FILLER_9_125
*3507 FILLER_9_137
*3508 FILLER_9_149
*3509 FILLER_9_15
*3510 FILLER_9_160
*3511 FILLER_9_169
*3512 FILLER_9_181
*3513 FILLER_9_193
*3514 FILLER_9_203
*3515 FILLER_9_211
*3516 FILLER_9_217
*3517 FILLER_9_223
*3518 FILLER_9_232
*3519 FILLER_9_245
*3520 FILLER_9_257
*3521 FILLER_9_269
*3522 FILLER_9_27
*3523 FILLER_9_277
*3524 FILLER_9_281
*3525 FILLER_9_293
*3526 FILLER_9_3
*3527 FILLER_9_305
*3528 FILLER_9_317
*3529 FILLER_9_329
*3530 FILLER_9_335
*3531 FILLER_9_337
*3532 FILLER_9_349
*3533 FILLER_9_361
*3534 FILLER_9_373
*3535 FILLER_9_385
*3536 FILLER_9_39
*3537 FILLER_9_391
*3538 FILLER_9_393
*3539 FILLER_9_405
*3540 FILLER_9_51
*3541 FILLER_9_55
*3542 FILLER_9_57
*3543 FILLER_9_69
*3544 FILLER_9_86
*3545 FILLER_9_98
*3546 PHY_EDGE_ROW_0_Left_65
*3547 PHY_EDGE_ROW_0_Right_0
*3548 PHY_EDGE_ROW_10_Left_75
*3549 PHY_EDGE_ROW_10_Right_10
*3550 PHY_EDGE_ROW_11_Left_76
*3551 PHY_EDGE_ROW_11_Right_11
*3552 PHY_EDGE_ROW_12_Left_77
*3553 PHY_EDGE_ROW_12_Right_12
*3554 PHY_EDGE_ROW_13_Left_78
*3555 PHY_EDGE_ROW_13_Right_13
*3556 PHY_EDGE_ROW_14_Left_79
*3557 PHY_EDGE_ROW_14_Right_14
*3558 PHY_EDGE_ROW_15_Left_80
*3559 PHY_EDGE_ROW_15_Right_15
*3560 PHY_EDGE_ROW_16_Left_81
*3561 PHY_EDGE_ROW_16_Right_16
*3562 PHY_EDGE_ROW_17_Left_82
*3563 PHY_EDGE_ROW_17_Right_17
*3564 PHY_EDGE_ROW_18_Left_83
*3565 PHY_EDGE_ROW_18_Right_18
*3566 PHY_EDGE_ROW_19_Left_84
*3567 PHY_EDGE_ROW_19_Right_19
*3568 PHY_EDGE_ROW_1_Left_66
*3569 PHY_EDGE_ROW_1_Right_1
*3570 PHY_EDGE_ROW_20_Left_85
*3571 PHY_EDGE_ROW_20_Right_20
*3572 PHY_EDGE_ROW_21_Left_86
*3573 PHY_EDGE_ROW_21_Right_21
*3574 PHY_EDGE_ROW_22_Left_87
*3575 PHY_EDGE_ROW_22_Right_22
*3576 PHY_EDGE_ROW_23_Left_88
*3577 PHY_EDGE_ROW_23_Right_23
*3578 PHY_EDGE_ROW_24_Left_89
*3579 PHY_EDGE_ROW_24_Right_24
*3580 PHY_EDGE_ROW_25_Left_90
*3581 PHY_EDGE_ROW_25_Right_25
*3582 PHY_EDGE_ROW_26_Left_91
*3583 PHY_EDGE_ROW_26_Right_26
*3584 PHY_EDGE_ROW_27_Left_92
*3585 PHY_EDGE_ROW_27_Right_27
*3586 PHY_EDGE_ROW_28_Left_93
*3587 PHY_EDGE_ROW_28_Right_28
*3588 PHY_EDGE_ROW_29_Left_94
*3589 PHY_EDGE_ROW_29_Right_29
*3590 PHY_EDGE_ROW_2_Left_67
*3591 PHY_EDGE_ROW_2_Right_2
*3592 PHY_EDGE_ROW_30_Left_95
*3593 PHY_EDGE_ROW_30_Right_30
*3594 PHY_EDGE_ROW_31_Left_96
*3595 PHY_EDGE_ROW_31_Right_31
*3596 PHY_EDGE_ROW_32_Left_97
*3597 PHY_EDGE_ROW_32_Right_32
*3598 PHY_EDGE_ROW_33_Left_98
*3599 PHY_EDGE_ROW_33_Right_33
*3600 PHY_EDGE_ROW_34_Left_99
*3601 PHY_EDGE_ROW_34_Right_34
*3602 PHY_EDGE_ROW_35_Left_100
*3603 PHY_EDGE_ROW_35_Right_35
*3604 PHY_EDGE_ROW_36_Left_101
*3605 PHY_EDGE_ROW_36_Right_36
*3606 PHY_EDGE_ROW_37_Left_102
*3607 PHY_EDGE_ROW_37_Right_37
*3608 PHY_EDGE_ROW_38_Left_103
*3609 PHY_EDGE_ROW_38_Right_38
*3610 PHY_EDGE_ROW_39_Left_104
*3611 PHY_EDGE_ROW_39_Right_39
*3612 PHY_EDGE_ROW_3_Left_68
*3613 PHY_EDGE_ROW_3_Right_3
*3614 PHY_EDGE_ROW_40_Left_105
*3615 PHY_EDGE_ROW_40_Right_40
*3616 PHY_EDGE_ROW_41_Left_106
*3617 PHY_EDGE_ROW_41_Right_41
*3618 PHY_EDGE_ROW_42_Left_107
*3619 PHY_EDGE_ROW_42_Right_42
*3620 PHY_EDGE_ROW_43_Left_108
*3621 PHY_EDGE_ROW_43_Right_43
*3622 PHY_EDGE_ROW_44_Left_109
*3623 PHY_EDGE_ROW_44_Right_44
*3624 PHY_EDGE_ROW_45_Left_110
*3625 PHY_EDGE_ROW_45_Right_45
*3626 PHY_EDGE_ROW_46_Left_111
*3627 PHY_EDGE_ROW_46_Right_46
*3628 PHY_EDGE_ROW_47_Left_112
*3629 PHY_EDGE_ROW_47_Right_47
*3630 PHY_EDGE_ROW_48_Left_113
*3631 PHY_EDGE_ROW_48_Right_48
*3632 PHY_EDGE_ROW_49_Left_114
*3633 PHY_EDGE_ROW_49_Right_49
*3634 PHY_EDGE_ROW_4_Left_69
*3635 PHY_EDGE_ROW_4_Right_4
*3636 PHY_EDGE_ROW_50_Left_115
*3637 PHY_EDGE_ROW_50_Right_50
*3638 PHY_EDGE_ROW_51_Left_116
*3639 PHY_EDGE_ROW_51_Right_51
*3640 PHY_EDGE_ROW_52_Left_117
*3641 PHY_EDGE_ROW_52_Right_52
*3642 PHY_EDGE_ROW_53_Left_118
*3643 PHY_EDGE_ROW_53_Right_53
*3644 PHY_EDGE_ROW_54_Left_119
*3645 PHY_EDGE_ROW_54_Right_54
*3646 PHY_EDGE_ROW_55_Left_120
*3647 PHY_EDGE_ROW_55_Right_55
*3648 PHY_EDGE_ROW_56_Left_121
*3649 PHY_EDGE_ROW_56_Right_56
*3650 PHY_EDGE_ROW_57_Left_122
*3651 PHY_EDGE_ROW_57_Right_57
*3652 PHY_EDGE_ROW_58_Left_123
*3653 PHY_EDGE_ROW_58_Right_58
*3654 PHY_EDGE_ROW_59_Left_124
*3655 PHY_EDGE_ROW_59_Right_59
*3656 PHY_EDGE_ROW_5_Left_70
*3657 PHY_EDGE_ROW_5_Right_5
*3658 PHY_EDGE_ROW_60_Left_125
*3659 PHY_EDGE_ROW_60_Right_60
*3660 PHY_EDGE_ROW_61_Left_126
*3661 PHY_EDGE_ROW_61_Right_61
*3662 PHY_EDGE_ROW_62_Left_127
*3663 PHY_EDGE_ROW_62_Right_62
*3664 PHY_EDGE_ROW_63_Left_128
*3665 PHY_EDGE_ROW_63_Right_63
*3666 PHY_EDGE_ROW_64_Left_129
*3667 PHY_EDGE_ROW_64_Right_64
*3668 PHY_EDGE_ROW_6_Left_71
*3669 PHY_EDGE_ROW_6_Right_6
*3670 PHY_EDGE_ROW_7_Left_72
*3671 PHY_EDGE_ROW_7_Right_7
*3672 PHY_EDGE_ROW_8_Left_73
*3673 PHY_EDGE_ROW_8_Right_8
*3674 PHY_EDGE_ROW_9_Left_74
*3675 PHY_EDGE_ROW_9_Right_9
*3676 TAP_TAPCELL_ROW_0_130
*3677 TAP_TAPCELL_ROW_0_131
*3678 TAP_TAPCELL_ROW_0_132
*3679 TAP_TAPCELL_ROW_0_133
*3680 TAP_TAPCELL_ROW_0_134
*3681 TAP_TAPCELL_ROW_0_135
*3682 TAP_TAPCELL_ROW_0_136
*3683 TAP_TAPCELL_ROW_0_137
*3684 TAP_TAPCELL_ROW_0_138
*3685 TAP_TAPCELL_ROW_0_139
*3686 TAP_TAPCELL_ROW_0_140
*3687 TAP_TAPCELL_ROW_0_141
*3688 TAP_TAPCELL_ROW_0_142
*3689 TAP_TAPCELL_ROW_0_143
*3690 TAP_TAPCELL_ROW_10_207
*3691 TAP_TAPCELL_ROW_10_208
*3692 TAP_TAPCELL_ROW_10_209
*3693 TAP_TAPCELL_ROW_10_210
*3694 TAP_TAPCELL_ROW_10_211
*3695 TAP_TAPCELL_ROW_10_212
*3696 TAP_TAPCELL_ROW_10_213
*3697 TAP_TAPCELL_ROW_11_214
*3698 TAP_TAPCELL_ROW_11_215
*3699 TAP_TAPCELL_ROW_11_216
*3700 TAP_TAPCELL_ROW_11_217
*3701 TAP_TAPCELL_ROW_11_218
*3702 TAP_TAPCELL_ROW_11_219
*3703 TAP_TAPCELL_ROW_11_220
*3704 TAP_TAPCELL_ROW_12_221
*3705 TAP_TAPCELL_ROW_12_222
*3706 TAP_TAPCELL_ROW_12_223
*3707 TAP_TAPCELL_ROW_12_224
*3708 TAP_TAPCELL_ROW_12_225
*3709 TAP_TAPCELL_ROW_12_226
*3710 TAP_TAPCELL_ROW_12_227
*3711 TAP_TAPCELL_ROW_13_228
*3712 TAP_TAPCELL_ROW_13_229
*3713 TAP_TAPCELL_ROW_13_230
*3714 TAP_TAPCELL_ROW_13_231
*3715 TAP_TAPCELL_ROW_13_232
*3716 TAP_TAPCELL_ROW_13_233
*3717 TAP_TAPCELL_ROW_13_234
*3718 TAP_TAPCELL_ROW_14_235
*3719 TAP_TAPCELL_ROW_14_236
*3720 TAP_TAPCELL_ROW_14_237
*3721 TAP_TAPCELL_ROW_14_238
*3722 TAP_TAPCELL_ROW_14_239
*3723 TAP_TAPCELL_ROW_14_240
*3724 TAP_TAPCELL_ROW_14_241
*3725 TAP_TAPCELL_ROW_15_242
*3726 TAP_TAPCELL_ROW_15_243
*3727 TAP_TAPCELL_ROW_15_244
*3728 TAP_TAPCELL_ROW_15_245
*3729 TAP_TAPCELL_ROW_15_246
*3730 TAP_TAPCELL_ROW_15_247
*3731 TAP_TAPCELL_ROW_15_248
*3732 TAP_TAPCELL_ROW_16_249
*3733 TAP_TAPCELL_ROW_16_250
*3734 TAP_TAPCELL_ROW_16_251
*3735 TAP_TAPCELL_ROW_16_252
*3736 TAP_TAPCELL_ROW_16_253
*3737 TAP_TAPCELL_ROW_16_254
*3738 TAP_TAPCELL_ROW_16_255
*3739 TAP_TAPCELL_ROW_17_256
*3740 TAP_TAPCELL_ROW_17_257
*3741 TAP_TAPCELL_ROW_17_258
*3742 TAP_TAPCELL_ROW_17_259
*3743 TAP_TAPCELL_ROW_17_260
*3744 TAP_TAPCELL_ROW_17_261
*3745 TAP_TAPCELL_ROW_17_262
*3746 TAP_TAPCELL_ROW_18_263
*3747 TAP_TAPCELL_ROW_18_264
*3748 TAP_TAPCELL_ROW_18_265
*3749 TAP_TAPCELL_ROW_18_266
*3750 TAP_TAPCELL_ROW_18_267
*3751 TAP_TAPCELL_ROW_18_268
*3752 TAP_TAPCELL_ROW_18_269
*3753 TAP_TAPCELL_ROW_19_270
*3754 TAP_TAPCELL_ROW_19_271
*3755 TAP_TAPCELL_ROW_19_272
*3756 TAP_TAPCELL_ROW_19_273
*3757 TAP_TAPCELL_ROW_19_274
*3758 TAP_TAPCELL_ROW_19_275
*3759 TAP_TAPCELL_ROW_19_276
*3760 TAP_TAPCELL_ROW_1_144
*3761 TAP_TAPCELL_ROW_1_145
*3762 TAP_TAPCELL_ROW_1_146
*3763 TAP_TAPCELL_ROW_1_147
*3764 TAP_TAPCELL_ROW_1_148
*3765 TAP_TAPCELL_ROW_1_149
*3766 TAP_TAPCELL_ROW_1_150
*3767 TAP_TAPCELL_ROW_20_277
*3768 TAP_TAPCELL_ROW_20_278
*3769 TAP_TAPCELL_ROW_20_279
*3770 TAP_TAPCELL_ROW_20_280
*3771 TAP_TAPCELL_ROW_20_281
*3772 TAP_TAPCELL_ROW_20_282
*3773 TAP_TAPCELL_ROW_20_283
*3774 TAP_TAPCELL_ROW_21_284
*3775 TAP_TAPCELL_ROW_21_285
*3776 TAP_TAPCELL_ROW_21_286
*3777 TAP_TAPCELL_ROW_21_287
*3778 TAP_TAPCELL_ROW_21_288
*3779 TAP_TAPCELL_ROW_21_289
*3780 TAP_TAPCELL_ROW_21_290
*3781 TAP_TAPCELL_ROW_22_291
*3782 TAP_TAPCELL_ROW_22_292
*3783 TAP_TAPCELL_ROW_22_293
*3784 TAP_TAPCELL_ROW_22_294
*3785 TAP_TAPCELL_ROW_22_295
*3786 TAP_TAPCELL_ROW_22_296
*3787 TAP_TAPCELL_ROW_22_297
*3788 TAP_TAPCELL_ROW_23_298
*3789 TAP_TAPCELL_ROW_23_299
*3790 TAP_TAPCELL_ROW_23_300
*3791 TAP_TAPCELL_ROW_23_301
*3792 TAP_TAPCELL_ROW_23_302
*3793 TAP_TAPCELL_ROW_23_303
*3794 TAP_TAPCELL_ROW_23_304
*3795 TAP_TAPCELL_ROW_24_305
*3796 TAP_TAPCELL_ROW_24_306
*3797 TAP_TAPCELL_ROW_24_307
*3798 TAP_TAPCELL_ROW_24_308
*3799 TAP_TAPCELL_ROW_24_309
*3800 TAP_TAPCELL_ROW_24_310
*3801 TAP_TAPCELL_ROW_24_311
*3802 TAP_TAPCELL_ROW_25_312
*3803 TAP_TAPCELL_ROW_25_313
*3804 TAP_TAPCELL_ROW_25_314
*3805 TAP_TAPCELL_ROW_25_315
*3806 TAP_TAPCELL_ROW_25_316
*3807 TAP_TAPCELL_ROW_25_317
*3808 TAP_TAPCELL_ROW_25_318
*3809 TAP_TAPCELL_ROW_26_319
*3810 TAP_TAPCELL_ROW_26_320
*3811 TAP_TAPCELL_ROW_26_321
*3812 TAP_TAPCELL_ROW_26_322
*3813 TAP_TAPCELL_ROW_26_323
*3814 TAP_TAPCELL_ROW_26_324
*3815 TAP_TAPCELL_ROW_26_325
*3816 TAP_TAPCELL_ROW_27_326
*3817 TAP_TAPCELL_ROW_27_327
*3818 TAP_TAPCELL_ROW_27_328
*3819 TAP_TAPCELL_ROW_27_329
*3820 TAP_TAPCELL_ROW_27_330
*3821 TAP_TAPCELL_ROW_27_331
*3822 TAP_TAPCELL_ROW_27_332
*3823 TAP_TAPCELL_ROW_28_333
*3824 TAP_TAPCELL_ROW_28_334
*3825 TAP_TAPCELL_ROW_28_335
*3826 TAP_TAPCELL_ROW_28_336
*3827 TAP_TAPCELL_ROW_28_337
*3828 TAP_TAPCELL_ROW_28_338
*3829 TAP_TAPCELL_ROW_28_339
*3830 TAP_TAPCELL_ROW_29_340
*3831 TAP_TAPCELL_ROW_29_341
*3832 TAP_TAPCELL_ROW_29_342
*3833 TAP_TAPCELL_ROW_29_343
*3834 TAP_TAPCELL_ROW_29_344
*3835 TAP_TAPCELL_ROW_29_345
*3836 TAP_TAPCELL_ROW_29_346
*3837 TAP_TAPCELL_ROW_2_151
*3838 TAP_TAPCELL_ROW_2_152
*3839 TAP_TAPCELL_ROW_2_153
*3840 TAP_TAPCELL_ROW_2_154
*3841 TAP_TAPCELL_ROW_2_155
*3842 TAP_TAPCELL_ROW_2_156
*3843 TAP_TAPCELL_ROW_2_157
*3844 TAP_TAPCELL_ROW_30_347
*3845 TAP_TAPCELL_ROW_30_348
*3846 TAP_TAPCELL_ROW_30_349
*3847 TAP_TAPCELL_ROW_30_350
*3848 TAP_TAPCELL_ROW_30_351
*3849 TAP_TAPCELL_ROW_30_352
*3850 TAP_TAPCELL_ROW_30_353
*3851 TAP_TAPCELL_ROW_31_354
*3852 TAP_TAPCELL_ROW_31_355
*3853 TAP_TAPCELL_ROW_31_356
*3854 TAP_TAPCELL_ROW_31_357
*3855 TAP_TAPCELL_ROW_31_358
*3856 TAP_TAPCELL_ROW_31_359
*3857 TAP_TAPCELL_ROW_31_360
*3858 TAP_TAPCELL_ROW_32_361
*3859 TAP_TAPCELL_ROW_32_362
*3860 TAP_TAPCELL_ROW_32_363
*3861 TAP_TAPCELL_ROW_32_364
*3862 TAP_TAPCELL_ROW_32_365
*3863 TAP_TAPCELL_ROW_32_366
*3864 TAP_TAPCELL_ROW_32_367
*3865 TAP_TAPCELL_ROW_33_368
*3866 TAP_TAPCELL_ROW_33_369
*3867 TAP_TAPCELL_ROW_33_370
*3868 TAP_TAPCELL_ROW_33_371
*3869 TAP_TAPCELL_ROW_33_372
*3870 TAP_TAPCELL_ROW_33_373
*3871 TAP_TAPCELL_ROW_33_374
*3872 TAP_TAPCELL_ROW_34_375
*3873 TAP_TAPCELL_ROW_34_376
*3874 TAP_TAPCELL_ROW_34_377
*3875 TAP_TAPCELL_ROW_34_378
*3876 TAP_TAPCELL_ROW_34_379
*3877 TAP_TAPCELL_ROW_34_380
*3878 TAP_TAPCELL_ROW_34_381
*3879 TAP_TAPCELL_ROW_35_382
*3880 TAP_TAPCELL_ROW_35_383
*3881 TAP_TAPCELL_ROW_35_384
*3882 TAP_TAPCELL_ROW_35_385
*3883 TAP_TAPCELL_ROW_35_386
*3884 TAP_TAPCELL_ROW_35_387
*3885 TAP_TAPCELL_ROW_35_388
*3886 TAP_TAPCELL_ROW_36_389
*3887 TAP_TAPCELL_ROW_36_390
*3888 TAP_TAPCELL_ROW_36_391
*3889 TAP_TAPCELL_ROW_36_392
*3890 TAP_TAPCELL_ROW_36_393
*3891 TAP_TAPCELL_ROW_36_394
*3892 TAP_TAPCELL_ROW_36_395
*3893 TAP_TAPCELL_ROW_37_396
*3894 TAP_TAPCELL_ROW_37_397
*3895 TAP_TAPCELL_ROW_37_398
*3896 TAP_TAPCELL_ROW_37_399
*3897 TAP_TAPCELL_ROW_37_400
*3898 TAP_TAPCELL_ROW_37_401
*3899 TAP_TAPCELL_ROW_37_402
*3900 TAP_TAPCELL_ROW_38_403
*3901 TAP_TAPCELL_ROW_38_404
*3902 TAP_TAPCELL_ROW_38_405
*3903 TAP_TAPCELL_ROW_38_406
*3904 TAP_TAPCELL_ROW_38_407
*3905 TAP_TAPCELL_ROW_38_408
*3906 TAP_TAPCELL_ROW_38_409
*3907 TAP_TAPCELL_ROW_39_410
*3908 TAP_TAPCELL_ROW_39_411
*3909 TAP_TAPCELL_ROW_39_412
*3910 TAP_TAPCELL_ROW_39_413
*3911 TAP_TAPCELL_ROW_39_414
*3912 TAP_TAPCELL_ROW_39_415
*3913 TAP_TAPCELL_ROW_39_416
*3914 TAP_TAPCELL_ROW_3_158
*3915 TAP_TAPCELL_ROW_3_159
*3916 TAP_TAPCELL_ROW_3_160
*3917 TAP_TAPCELL_ROW_3_161
*3918 TAP_TAPCELL_ROW_3_162
*3919 TAP_TAPCELL_ROW_3_163
*3920 TAP_TAPCELL_ROW_3_164
*3921 TAP_TAPCELL_ROW_40_417
*3922 TAP_TAPCELL_ROW_40_418
*3923 TAP_TAPCELL_ROW_40_419
*3924 TAP_TAPCELL_ROW_40_420
*3925 TAP_TAPCELL_ROW_40_421
*3926 TAP_TAPCELL_ROW_40_422
*3927 TAP_TAPCELL_ROW_40_423
*3928 TAP_TAPCELL_ROW_41_424
*3929 TAP_TAPCELL_ROW_41_425
*3930 TAP_TAPCELL_ROW_41_426
*3931 TAP_TAPCELL_ROW_41_427
*3932 TAP_TAPCELL_ROW_41_428
*3933 TAP_TAPCELL_ROW_41_429
*3934 TAP_TAPCELL_ROW_41_430
*3935 TAP_TAPCELL_ROW_42_431
*3936 TAP_TAPCELL_ROW_42_432
*3937 TAP_TAPCELL_ROW_42_433
*3938 TAP_TAPCELL_ROW_42_434
*3939 TAP_TAPCELL_ROW_42_435
*3940 TAP_TAPCELL_ROW_42_436
*3941 TAP_TAPCELL_ROW_42_437
*3942 TAP_TAPCELL_ROW_43_438
*3943 TAP_TAPCELL_ROW_43_439
*3944 TAP_TAPCELL_ROW_43_440
*3945 TAP_TAPCELL_ROW_43_441
*3946 TAP_TAPCELL_ROW_43_442
*3947 TAP_TAPCELL_ROW_43_443
*3948 TAP_TAPCELL_ROW_43_444
*3949 TAP_TAPCELL_ROW_44_445
*3950 TAP_TAPCELL_ROW_44_446
*3951 TAP_TAPCELL_ROW_44_447
*3952 TAP_TAPCELL_ROW_44_448
*3953 TAP_TAPCELL_ROW_44_449
*3954 TAP_TAPCELL_ROW_44_450
*3955 TAP_TAPCELL_ROW_44_451
*3956 TAP_TAPCELL_ROW_45_452
*3957 TAP_TAPCELL_ROW_45_453
*3958 TAP_TAPCELL_ROW_45_454
*3959 TAP_TAPCELL_ROW_45_455
*3960 TAP_TAPCELL_ROW_45_456
*3961 TAP_TAPCELL_ROW_45_457
*3962 TAP_TAPCELL_ROW_45_458
*3963 TAP_TAPCELL_ROW_46_459
*3964 TAP_TAPCELL_ROW_46_460
*3965 TAP_TAPCELL_ROW_46_461
*3966 TAP_TAPCELL_ROW_46_462
*3967 TAP_TAPCELL_ROW_46_463
*3968 TAP_TAPCELL_ROW_46_464
*3969 TAP_TAPCELL_ROW_46_465
*3970 TAP_TAPCELL_ROW_47_466
*3971 TAP_TAPCELL_ROW_47_467
*3972 TAP_TAPCELL_ROW_47_468
*3973 TAP_TAPCELL_ROW_47_469
*3974 TAP_TAPCELL_ROW_47_470
*3975 TAP_TAPCELL_ROW_47_471
*3976 TAP_TAPCELL_ROW_47_472
*3977 TAP_TAPCELL_ROW_48_473
*3978 TAP_TAPCELL_ROW_48_474
*3979 TAP_TAPCELL_ROW_48_475
*3980 TAP_TAPCELL_ROW_48_476
*3981 TAP_TAPCELL_ROW_48_477
*3982 TAP_TAPCELL_ROW_48_478
*3983 TAP_TAPCELL_ROW_48_479
*3984 TAP_TAPCELL_ROW_49_480
*3985 TAP_TAPCELL_ROW_49_481
*3986 TAP_TAPCELL_ROW_49_482
*3987 TAP_TAPCELL_ROW_49_483
*3988 TAP_TAPCELL_ROW_49_484
*3989 TAP_TAPCELL_ROW_49_485
*3990 TAP_TAPCELL_ROW_49_486
*3991 TAP_TAPCELL_ROW_4_165
*3992 TAP_TAPCELL_ROW_4_166
*3993 TAP_TAPCELL_ROW_4_167
*3994 TAP_TAPCELL_ROW_4_168
*3995 TAP_TAPCELL_ROW_4_169
*3996 TAP_TAPCELL_ROW_4_170
*3997 TAP_TAPCELL_ROW_4_171
*3998 TAP_TAPCELL_ROW_50_487
*3999 TAP_TAPCELL_ROW_50_488
*4000 TAP_TAPCELL_ROW_50_489
*4001 TAP_TAPCELL_ROW_50_490
*4002 TAP_TAPCELL_ROW_50_491
*4003 TAP_TAPCELL_ROW_50_492
*4004 TAP_TAPCELL_ROW_50_493
*4005 TAP_TAPCELL_ROW_51_494
*4006 TAP_TAPCELL_ROW_51_495
*4007 TAP_TAPCELL_ROW_51_496
*4008 TAP_TAPCELL_ROW_51_497
*4009 TAP_TAPCELL_ROW_51_498
*4010 TAP_TAPCELL_ROW_51_499
*4011 TAP_TAPCELL_ROW_51_500
*4012 TAP_TAPCELL_ROW_52_501
*4013 TAP_TAPCELL_ROW_52_502
*4014 TAP_TAPCELL_ROW_52_503
*4015 TAP_TAPCELL_ROW_52_504
*4016 TAP_TAPCELL_ROW_52_505
*4017 TAP_TAPCELL_ROW_52_506
*4018 TAP_TAPCELL_ROW_52_507
*4019 TAP_TAPCELL_ROW_53_508
*4020 TAP_TAPCELL_ROW_53_509
*4021 TAP_TAPCELL_ROW_53_510
*4022 TAP_TAPCELL_ROW_53_511
*4023 TAP_TAPCELL_ROW_53_512
*4024 TAP_TAPCELL_ROW_53_513
*4025 TAP_TAPCELL_ROW_53_514
*4026 TAP_TAPCELL_ROW_54_515
*4027 TAP_TAPCELL_ROW_54_516
*4028 TAP_TAPCELL_ROW_54_517
*4029 TAP_TAPCELL_ROW_54_518
*4030 TAP_TAPCELL_ROW_54_519
*4031 TAP_TAPCELL_ROW_54_520
*4032 TAP_TAPCELL_ROW_54_521
*4033 TAP_TAPCELL_ROW_55_522
*4034 TAP_TAPCELL_ROW_55_523
*4035 TAP_TAPCELL_ROW_55_524
*4036 TAP_TAPCELL_ROW_55_525
*4037 TAP_TAPCELL_ROW_55_526
*4038 TAP_TAPCELL_ROW_55_527
*4039 TAP_TAPCELL_ROW_55_528
*4040 TAP_TAPCELL_ROW_56_529
*4041 TAP_TAPCELL_ROW_56_530
*4042 TAP_TAPCELL_ROW_56_531
*4043 TAP_TAPCELL_ROW_56_532
*4044 TAP_TAPCELL_ROW_56_533
*4045 TAP_TAPCELL_ROW_56_534
*4046 TAP_TAPCELL_ROW_56_535
*4047 TAP_TAPCELL_ROW_57_536
*4048 TAP_TAPCELL_ROW_57_537
*4049 TAP_TAPCELL_ROW_57_538
*4050 TAP_TAPCELL_ROW_57_539
*4051 TAP_TAPCELL_ROW_57_540
*4052 TAP_TAPCELL_ROW_57_541
*4053 TAP_TAPCELL_ROW_57_542
*4054 TAP_TAPCELL_ROW_58_543
*4055 TAP_TAPCELL_ROW_58_544
*4056 TAP_TAPCELL_ROW_58_545
*4057 TAP_TAPCELL_ROW_58_546
*4058 TAP_TAPCELL_ROW_58_547
*4059 TAP_TAPCELL_ROW_58_548
*4060 TAP_TAPCELL_ROW_58_549
*4061 TAP_TAPCELL_ROW_59_550
*4062 TAP_TAPCELL_ROW_59_551
*4063 TAP_TAPCELL_ROW_59_552
*4064 TAP_TAPCELL_ROW_59_553
*4065 TAP_TAPCELL_ROW_59_554
*4066 TAP_TAPCELL_ROW_59_555
*4067 TAP_TAPCELL_ROW_59_556
*4068 TAP_TAPCELL_ROW_5_172
*4069 TAP_TAPCELL_ROW_5_173
*4070 TAP_TAPCELL_ROW_5_174
*4071 TAP_TAPCELL_ROW_5_175
*4072 TAP_TAPCELL_ROW_5_176
*4073 TAP_TAPCELL_ROW_5_177
*4074 TAP_TAPCELL_ROW_5_178
*4075 TAP_TAPCELL_ROW_60_557
*4076 TAP_TAPCELL_ROW_60_558
*4077 TAP_TAPCELL_ROW_60_559
*4078 TAP_TAPCELL_ROW_60_560
*4079 TAP_TAPCELL_ROW_60_561
*4080 TAP_TAPCELL_ROW_60_562
*4081 TAP_TAPCELL_ROW_60_563
*4082 TAP_TAPCELL_ROW_61_564
*4083 TAP_TAPCELL_ROW_61_565
*4084 TAP_TAPCELL_ROW_61_566
*4085 TAP_TAPCELL_ROW_61_567
*4086 TAP_TAPCELL_ROW_61_568
*4087 TAP_TAPCELL_ROW_61_569
*4088 TAP_TAPCELL_ROW_61_570
*4089 TAP_TAPCELL_ROW_62_571
*4090 TAP_TAPCELL_ROW_62_572
*4091 TAP_TAPCELL_ROW_62_573
*4092 TAP_TAPCELL_ROW_62_574
*4093 TAP_TAPCELL_ROW_62_575
*4094 TAP_TAPCELL_ROW_62_576
*4095 TAP_TAPCELL_ROW_62_577
*4096 TAP_TAPCELL_ROW_63_578
*4097 TAP_TAPCELL_ROW_63_579
*4098 TAP_TAPCELL_ROW_63_580
*4099 TAP_TAPCELL_ROW_63_581
*4100 TAP_TAPCELL_ROW_63_582
*4101 TAP_TAPCELL_ROW_63_583
*4102 TAP_TAPCELL_ROW_63_584
*4103 TAP_TAPCELL_ROW_64_585
*4104 TAP_TAPCELL_ROW_64_586
*4105 TAP_TAPCELL_ROW_64_587
*4106 TAP_TAPCELL_ROW_64_588
*4107 TAP_TAPCELL_ROW_64_589
*4108 TAP_TAPCELL_ROW_64_590
*4109 TAP_TAPCELL_ROW_64_591
*4110 TAP_TAPCELL_ROW_64_592
*4111 TAP_TAPCELL_ROW_64_593
*4112 TAP_TAPCELL_ROW_64_594
*4113 TAP_TAPCELL_ROW_64_595
*4114 TAP_TAPCELL_ROW_64_596
*4115 TAP_TAPCELL_ROW_64_597
*4116 TAP_TAPCELL_ROW_64_598
*4117 TAP_TAPCELL_ROW_6_179
*4118 TAP_TAPCELL_ROW_6_180
*4119 TAP_TAPCELL_ROW_6_181
*4120 TAP_TAPCELL_ROW_6_182
*4121 TAP_TAPCELL_ROW_6_183
*4122 TAP_TAPCELL_ROW_6_184
*4123 TAP_TAPCELL_ROW_6_185
*4124 TAP_TAPCELL_ROW_7_186
*4125 TAP_TAPCELL_ROW_7_187
*4126 TAP_TAPCELL_ROW_7_188
*4127 TAP_TAPCELL_ROW_7_189
*4128 TAP_TAPCELL_ROW_7_190
*4129 TAP_TAPCELL_ROW_7_191
*4130 TAP_TAPCELL_ROW_7_192
*4131 TAP_TAPCELL_ROW_8_193
*4132 TAP_TAPCELL_ROW_8_194
*4133 TAP_TAPCELL_ROW_8_195
*4134 TAP_TAPCELL_ROW_8_196
*4135 TAP_TAPCELL_ROW_8_197
*4136 TAP_TAPCELL_ROW_8_198
*4137 TAP_TAPCELL_ROW_8_199
*4138 TAP_TAPCELL_ROW_9_200
*4139 TAP_TAPCELL_ROW_9_201
*4140 TAP_TAPCELL_ROW_9_202
*4141 TAP_TAPCELL_ROW_9_203
*4142 TAP_TAPCELL_ROW_9_204
*4143 TAP_TAPCELL_ROW_9_205
*4144 TAP_TAPCELL_ROW_9_206
*4145 _0692_
*4146 _0693_
*4147 _0694_
*4148 _0695_
*4149 _0696_
*4150 _0697_
*4151 _0698_
*4152 _0699_
*4153 _0700_
*4154 _0701_
*4155 _0702_
*4156 _0703_
*4157 _0704_
*4158 _0705_
*4159 _0706_
*4160 _0707_
*4161 _0708_
*4162 _0709_
*4163 _0710_
*4164 _0711_
*4165 _0712_
*4166 _0713_
*4167 _0714_
*4168 _0715_
*4169 _0716_
*4170 _0717_
*4171 _0718_
*4172 _0719_
*4173 _0720_
*4174 _0721_
*4175 _0722_
*4176 _0723_
*4177 _0724_
*4178 _0725_
*4179 _0726_
*4180 _0727_
*4181 _0728_
*4182 _0729_
*4183 _0730_
*4184 _0731_
*4185 _0732_
*4186 _0733_
*4187 _0734_
*4188 _0735_
*4189 _0736_
*4190 _0737_
*4191 _0738_
*4192 _0739_
*4193 _0740_
*4194 _0741_
*4195 _0742_
*4196 _0743_
*4197 _0744_
*4198 _0745_
*4199 _0746_
*4200 _0747_
*4201 _0748_
*4202 _0749_
*4203 _0750_
*4204 _0751_
*4205 _0752_
*4206 _0753_
*4207 _0754_
*4208 _0755_
*4209 _0756_
*4210 _0757_
*4211 _0758_
*4212 _0759_
*4213 _0760_
*4214 _0761_
*4215 _0762_
*4216 _0763_
*4217 _0764_
*4218 _0765_
*4219 _0766_
*4220 _0767_
*4221 _0768_
*4222 _0769_
*4223 _0770_
*4224 _0771_
*4225 _0772_
*4226 _0773_
*4227 _0774_
*4228 _0775_
*4229 _0776_
*4230 _0777_
*4231 _0778_
*4232 _0779_
*4233 _0780_
*4234 _0781_
*4235 _0782_
*4236 _0783_
*4237 _0784_
*4238 _0785_
*4239 _0786_
*4240 _0787_
*4241 _0788_
*4242 _0789_
*4243 _0790_
*4244 _0791_
*4245 _0792_
*4246 _0793_
*4247 _0794_
*4248 _0795_
*4249 _0796_
*4250 _0797_
*4251 _0798_
*4252 _0799_
*4253 _0800_
*4254 _0801_
*4255 _0802_
*4256 _0803_
*4257 _0804_
*4258 _0805_
*4259 _0806_
*4260 _0807_
*4261 _0808_
*4262 _0809_
*4263 _0810_
*4264 _0811_
*4265 _0812_
*4266 _0813_
*4267 _0814_
*4268 _0815_
*4269 _0816_
*4270 _0817_
*4271 _0818_
*4272 _0819_
*4273 _0820_
*4274 _0821_
*4275 _0822_
*4276 _0823_
*4277 _0824_
*4278 _0825_
*4279 _0826_
*4280 _0827_
*4281 _0828_
*4282 _0829_
*4283 _0830_
*4284 _0831_
*4285 _0832_
*4286 _0833_
*4287 _0834_
*4288 _0835_
*4289 _0836_
*4290 _0837_
*4291 _0838_
*4292 _0839_
*4293 _0840_
*4294 _0841_
*4295 _0842_
*4296 _0843_
*4297 _0844_
*4298 _0845_
*4299 _0846_
*4300 _0847_
*4301 _0848_
*4302 _0849_
*4303 _0850_
*4304 _0851_
*4305 _0852_
*4306 _0853_
*4307 _0854_
*4308 _0855_
*4309 _0856_
*4310 _0857_
*4311 _0858_
*4312 _0859_
*4313 _0860_
*4314 _0861_
*4315 _0862_
*4316 _0863_
*4317 _0864_
*4318 _0865_
*4319 _0866_
*4320 _0867_
*4321 _0868_
*4322 _0869_
*4323 _0870_
*4324 _0871_
*4325 _0872_
*4326 _0873_
*4327 _0874_
*4328 _0875_
*4329 _0876_
*4330 _0877_
*4331 _0878_
*4332 _0879_
*4333 _0880_
*4334 _0881_
*4335 _0882_
*4336 _0883_
*4337 _0884_
*4338 _0885_
*4339 _0886_
*4340 _0887_
*4341 _0888_
*4342 _0889_
*4343 _0890_
*4344 _0891_
*4345 _0892_
*4346 _0893_
*4347 _0894_
*4348 _0895_
*4349 _0896_
*4350 _0897_
*4351 _0898_
*4352 _0899_
*4353 _0900_
*4354 _0901_
*4355 _0902_
*4356 _0903_
*4357 _0904_
*4358 _0905_
*4359 _0906_
*4360 _0907_
*4361 _0908_
*4362 _0909_
*4363 _0910_
*4364 _0911_
*4365 _0912_
*4366 _0913_
*4367 _0914_
*4368 _0915_
*4369 _0916_
*4370 _0917_
*4371 _0918_
*4372 _0919_
*4373 _0920_
*4374 _0921_
*4375 _0922_
*4376 _0923_
*4377 _0924_
*4378 _0925_
*4379 _0926_
*4380 _0927_
*4381 _0928_
*4382 _0929_
*4383 _0930_
*4384 _0931_
*4385 _0932_
*4386 _0933_
*4387 _0934_
*4388 _0935_
*4389 _0936_
*4390 _0937_
*4391 _0938_
*4392 _0939_
*4393 _0940_
*4394 _0941_
*4395 _0942_
*4396 _0943_
*4397 _0944_
*4398 _0945_
*4399 _0946_
*4400 _0947_
*4401 _0948_
*4402 _0949_
*4403 _0950_
*4404 _0951_
*4405 _0952_
*4406 _0953_
*4407 _0954_
*4408 _0955_
*4409 _0956_
*4410 _0957_
*4411 _0958_
*4412 _0959_
*4413 _0960_
*4414 _0961_
*4415 _0962_
*4416 _0963_
*4417 _0964_
*4418 _0965_
*4419 _0966_
*4420 _0967_
*4421 _0968_
*4422 _0969_
*4423 _0970_
*4424 _0971_
*4425 _0972_
*4426 _0973_
*4427 _0974_
*4428 _0975_
*4429 _0976_
*4430 _0977_
*4431 _0978_
*4432 _0979_
*4433 _0980_
*4434 _0981_
*4435 _0982_
*4436 _0983_
*4437 _0984_
*4438 _0985_
*4439 _0986_
*4440 _0987_
*4441 _0988_
*4442 _0989_
*4443 _0990_
*4444 _0991_
*4445 _0992_
*4446 _0993_
*4447 _0994_
*4448 _0995_
*4449 _0996_
*4450 _0997_
*4451 _0998_
*4452 _0999_
*4453 _1000_
*4454 _1001_
*4455 _1002_
*4456 _1003_
*4457 _1004_
*4458 _1005_
*4459 _1006_
*4460 _1007_
*4461 _1008_
*4462 _1009_
*4463 _1010_
*4464 _1011_
*4465 _1012_
*4466 _1013_
*4467 _1014_
*4468 _1015_
*4469 _1016_
*4470 _1017_
*4471 _1018_
*4472 _1019_
*4473 _1020_
*4474 _1021_
*4475 _1022_
*4476 _1023_
*4477 _1024_
*4478 _1025_
*4479 _1026_
*4480 _1027_
*4481 _1028_
*4482 _1029_
*4483 _1030_
*4484 _1031_
*4485 _1032_
*4486 _1033_
*4487 _1034_
*4488 _1035_
*4489 _1036_
*4490 _1037_
*4491 _1038_
*4492 _1039_
*4493 _1040_
*4494 _1041_
*4495 _1042_
*4496 _1043_
*4497 _1044_
*4498 _1045_
*4499 _1046_
*4500 _1047_
*4501 _1048_
*4502 _1049_
*4503 _1050_
*4504 _1051_
*4505 _1052_
*4506 _1053_
*4507 _1054_
*4508 _1055_
*4509 _1056_
*4510 _1057_
*4511 _1058_
*4512 _1059_
*4513 _1060_
*4514 _1061_
*4515 _1062_
*4516 _1063_
*4517 _1064_
*4518 _1065_
*4519 _1066_
*4520 _1067_
*4521 _1068_
*4522 _1069_
*4523 _1070_
*4524 _1071_
*4525 _1072_
*4526 _1073_
*4527 _1074_
*4528 _1075_
*4529 _1076_
*4530 _1077_
*4531 _1078_
*4532 _1079_
*4533 _1080_
*4534 _1081_
*4535 _1082_
*4536 _1083_
*4537 _1084_
*4538 _1085_
*4539 _1086_
*4540 _1087_
*4541 _1088_
*4542 _1089_
*4543 _1090_
*4544 _1091_
*4545 _1092_
*4546 _1093_
*4547 _1094_
*4548 _1095_
*4549 _1096_
*4550 _1097_
*4551 _1098_
*4552 _1099_
*4553 _1100_
*4554 _1101_
*4555 _1102_
*4556 _1103_
*4557 _1104_
*4558 _1105_
*4559 _1106_
*4560 _1107_
*4561 _1108_
*4562 _1109_
*4563 _1110_
*4564 _1111_
*4565 _1112_
*4566 _1113_
*4567 _1114_
*4568 _1115_
*4569 _1116_
*4570 _1117_
*4571 _1118_
*4572 _1119_
*4573 _1120_
*4574 _1121_
*4575 _1122_
*4576 _1123_
*4577 _1124_
*4578 _1125_
*4579 _1126_
*4580 _1127_
*4581 _1128_
*4582 _1129_
*4583 _1130_
*4584 _1131_
*4585 _1132_
*4586 _1133_
*4587 _1134_
*4588 _1135_
*4589 _1136_
*4590 _1137_
*4591 _1138_
*4592 _1139_
*4593 _1140_
*4594 _1141_
*4595 _1142_
*4596 _1143_
*4597 _1144_
*4598 _1145_
*4599 _1146_
*4600 _1147_
*4601 _1148_
*4602 _1149_
*4603 _1150_
*4604 _1151_
*4605 _1152_
*4606 _1153_
*4607 _1154_
*4608 _1155_
*4609 _1156_
*4610 _1157_
*4611 _1158_
*4612 _1159_
*4613 _1160_
*4614 _1161_
*4615 _1162_
*4616 _1163_
*4617 _1164_
*4618 _1165_
*4619 _1166_
*4620 _1167_
*4621 _1168_
*4622 _1169_
*4623 _1170_
*4624 _1171_
*4625 _1172_
*4626 _1173_
*4627 _1174_
*4628 _1175_
*4629 _1176_
*4630 _1177_
*4631 _1178_
*4632 _1179_
*4633 _1180_
*4634 _1181_
*4635 _1182_
*4636 _1183_
*4637 _1184_
*4638 _1185_
*4639 _1186_
*4640 _1187_
*4641 _1188_
*4642 _1189_
*4643 _1190_
*4644 _1191_
*4645 _1192_
*4646 _1193_
*4647 _1194_
*4648 _1195_
*4649 _1196_
*4650 _1197_
*4651 _1198_
*4652 _1199_
*4653 _1200_
*4654 _1201_
*4655 _1202_
*4656 _1203_
*4657 _1204_
*4658 _1205_
*4659 _1206_
*4660 _1207_
*4661 _1208_
*4662 _1209_
*4663 _1210_
*4664 _1211_
*4665 _1212_
*4666 _1213_
*4667 _1214_
*4668 _1215_
*4669 _1216_
*4670 _1217_
*4671 _1218_
*4672 _1219_
*4673 _1220_
*4674 _1221_
*4675 _1222_
*4676 _1223_
*4677 _1224_
*4678 _1225_
*4679 _1226_
*4680 _1227_
*4681 _1228_
*4682 _1229_
*4683 _1230_
*4684 _1231_
*4685 _1232_
*4686 _1233_
*4687 _1234_
*4688 _1235_
*4689 _1236_
*4690 _1237_
*4691 _1238_
*4692 _1239_
*4693 _1240_
*4694 _1241_
*4695 _1242_
*4696 _1243_
*4697 _1244_
*4698 _1245_
*4699 _1246_
*4700 _1247_
*4701 _1248_
*4702 _1249_
*4703 _1250_
*4704 _1251_
*4705 _1252_
*4706 _1253_
*4707 _1254_
*4708 _1255_
*4709 _1256_
*4710 _1257_
*4711 _1258_
*4712 _1259_
*4713 _1260_
*4714 _1261_
*4715 _1262_
*4716 _1263_
*4717 _1264_
*4718 _1265_
*4719 _1266_
*4720 _1267_
*4721 _1268_
*4722 _1269_
*4723 _1270_
*4724 _1271_
*4725 _1272_
*4726 _1273_
*4727 _1274_
*4728 _1275_
*4729 _1276_
*4730 _1277_
*4731 _1278_
*4732 _1279_
*4733 _1280_
*4734 _1281_
*4735 _1282_
*4736 _1283_
*4737 _1284_
*4738 _1285_
*4739 _1286_
*4740 _1287_
*4741 _1288_
*4742 _1289_
*4743 _1290_
*4744 _1291_
*4745 _1292_
*4746 _1293_
*4747 _1294_
*4748 _1295_
*4749 _1296_
*4750 _1297_
*4751 _1298_
*4752 _1299_
*4753 _1300_
*4754 _1301_
*4755 _1302_
*4756 _1303_
*4757 _1304_
*4758 _1305_
*4759 _1306_
*4760 _1307_
*4761 _1308_
*4762 _1309_
*4763 _1310_
*4764 _1311_
*4765 _1312_
*4766 _1313_
*4767 _1314_
*4768 _1315_
*4769 _1316_
*4770 _1317_
*4771 _1318_
*4772 _1319_
*4773 _1320_
*4774 _1321_
*4775 _1322_
*4776 _1323_
*4777 _1324_
*4778 _1325_
*4779 _1326_
*4780 _1327_
*4781 _1328_
*4782 _1329_
*4783 _1330_
*4784 _1331_
*4785 _1332_
*4786 _1333_
*4787 _1334_
*4788 _1335_
*4789 _1336_
*4790 _1337_
*4791 _1338_
*4792 _1339_
*4793 _1340_
*4794 _1341_
*4795 _1342_
*4796 _1343_
*4797 _1344_
*4798 _1345_
*4799 _1346_
*4800 _1347_
*4801 _1348_
*4802 _1349_
*4803 _1350_
*4804 _1351_
*4805 _1352_
*4806 _1353_
*4807 _1354_
*4808 _1355_
*4809 _1356_
*4810 _1357_
*4811 _1358_
*4812 _1359_
*4813 _1360_
*4814 _1361_
*4815 _1362_
*4816 _1363_
*4817 _1364_
*4818 _1365_
*4819 _1366_
*4820 _1367_
*4821 _1368_
*4822 _1369_
*4823 _1370_
*4824 _1371_
*4825 _1372_
*4826 _1373_
*4827 _1374_
*4828 _1375_
*4829 _1376_
*4830 _1377_
*4831 _1378_
*4832 _1379_
*4833 _1380_
*4834 _1381_
*4835 _1382_
*4836 _1383_
*4837 _1384_
*4838 _1385_
*4839 _1386_
*4840 _1387_
*4841 _1388_
*4842 _1389_
*4843 _1390_
*4844 _1391_
*4845 _1392_
*4846 _1393_
*4847 _1394_
*4848 _1395_
*4849 _1396_
*4850 _1397_
*4851 _1398_
*4852 _1399_
*4853 _1400_
*4854 _1401_
*4855 _1402_
*4856 _1403_
*4857 _1404_
*4858 _1405_
*4859 _1406_
*4860 _1407_
*4861 _1408_
*4862 _1409_
*4863 _1410_
*4864 _1411_
*4865 _1412_
*4866 _1413_
*4867 _1414_
*4868 _1415_
*4869 _1416_
*4870 _1417_
*4871 _1418_
*4872 _1419_
*4873 _1420_
*4874 _1421_
*4875 _1422_
*4876 _1423_
*4877 _1424_
*4878 _1425_
*4879 _1426_
*4880 _1427_
*4881 _1428_
*4882 _1429_
*4883 _1430_
*4884 _1431_
*4885 _1432_
*4886 _1433_
*4887 _1434_
*4888 _1435_
*4889 _1436_
*4890 _1437_
*4891 _1438_
*4892 _1439_
*4893 _1440_
*4894 _1441_
*4895 _1442_
*4896 _1443_
*4897 _1444_
*4898 _1445_
*4899 _1446_
*4900 _1447_
*4901 _1448_
*4902 _1449_
*4903 _1450_
*4904 _1451_
*4905 _1452_
*4906 _1453_
*4907 _1454_
*4908 _1455_
*4909 _1456_
*4910 _1457_
*4911 _1458_
*4912 _1459_
*4913 _1460_
*4914 _1461_
*4915 _1462_
*4916 _1463_
*4917 _1464_
*4918 clkbuf_0_clk
*4919 clkbuf_3_0__f_clk
*4920 clkbuf_3_1__f_clk
*4921 clkbuf_3_2__f_clk
*4922 clkbuf_3_3__f_clk
*4923 clkbuf_3_4__f_clk
*4924 clkbuf_3_5__f_clk
*4925 clkbuf_3_6__f_clk
*4926 clkbuf_3_7__f_clk
*4927 clkload0
*4928 clkload1
*4929 clkload2
*4930 clkload3
*4931 clkload4
*4932 clkload5
*4933 clone16
*4934 clone7
*4935 fanout100
*4936 fanout101
*4937 fanout102
*4938 fanout103
*4939 fanout104
*4940 fanout105
*4941 fanout106
*4942 fanout107
*4943 fanout108
*4944 fanout109
*4945 fanout110
*4946 fanout111
*4947 fanout112
*4948 fanout113
*4949 fanout114
*4950 fanout115
*4951 fanout116
*4952 fanout52
*4953 fanout53
*4954 fanout54
*4955 fanout55
*4956 fanout57
*4957 fanout58
*4958 fanout59
*4959 fanout60
*4960 fanout61
*4961 fanout62
*4962 fanout65
*4963 fanout66
*4964 fanout67
*4965 fanout68
*4966 fanout69
*4967 fanout70
*4968 fanout71
*4969 fanout72
*4970 fanout73
*4971 fanout74
*4972 fanout75
*4973 fanout76
*4974 fanout77
*4975 fanout78
*4976 fanout79
*4977 fanout80
*4978 fanout81
*4979 fanout82
*4980 fanout83
*4981 fanout84
*4982 fanout85
*4983 fanout86
*4984 fanout87
*4985 fanout88
*4986 fanout89
*4987 fanout90
*4988 fanout91
*4989 fanout92
*4990 fanout93
*4991 fanout94
*4992 fanout95
*4993 fanout96
*4994 fanout97
*4995 fanout98
*4996 fanout99
*4997 hold19
*4998 hold20
*4999 hold21
*5000 hold22
*5001 hold23
*5002 hold24
*5003 hold25
*5004 hold26
*5005 hold27
*5006 hold28
*5007 hold29
*5008 hold30
*5009 hold31
*5010 hold32
*5011 hold33
*5012 hold34
*5013 hold35
*5014 hold36
*5015 hold37
*5016 hold38
*5017 hold39
*5018 hold40
*5019 hold41
*5020 hold42
*5021 hold43
*5022 hold44
*5023 hold45
*5024 hold46
*5025 hold47
*5026 hold48
*5027 hold49
*5028 hold50
*5029 hold51
*5030 hold52
*5031 hold53
*5032 hold54
*5033 hold55
*5034 hold56
*5035 hold57
*5036 hold58
*5037 hold59
*5038 hold60
*5039 hold61
*5040 hold62
*5041 hold63
*5042 hold64
*5043 hold65
*5044 hold66
*5045 hold67
*5046 hold68
*5047 hold69
*5048 input1
*5049 input10
*5050 input11
*5051 input12
*5052 input13
*5053 input14
*5054 input15
*5055 input16
*5056 input17
*5057 input18
*5058 input19
*5059 input2
*5060 input3
*5061 input4
*5062 input5
*5063 input6
*5064 input7
*5065 input8
*5066 input9
*5067 max_cap63
*5068 max_cap64
*5069 output20
*5070 output21
*5071 output22
*5072 output23
*5073 output24
*5074 output25
*5075 output26
*5076 output27
*5077 output28
*5078 output29
*5079 output30
*5080 output31
*5081 output32
*5082 output33
*5083 output34
*5084 output35
*5085 output36
*5086 output37
*5087 output38
*5088 output39
*5089 output40
*5090 output41
*5091 output42
*5092 output43
*5093 output44
*5094 output45
*5095 output46
*5096 output47
*5097 output48
*5098 output49
*5099 output50
*5100 output51
*5101 rebuffer1
*5102 rebuffer10
*5103 rebuffer11
*5104 rebuffer12
*5105 rebuffer13
*5106 rebuffer14
*5107 rebuffer15
*5108 rebuffer18
*5109 rebuffer2
*5110 rebuffer3
*5111 rebuffer4
*5112 rebuffer5
*5113 rebuffer6
*5114 rebuffer8
*5115 rebuffer9
*5116 top_117

*PORTS
addr[0] I
addr[1] I
addr[2] I
addr[3] I
addr[4] I
addr[5] I
addr[6] I
addr[7] I
clk I
rdata[0] O
rdata[10] O
rdata[11] O
rdata[12] O
rdata[13] O
rdata[14] O
rdata[15] O
rdata[16] O
rdata[17] O
rdata[18] O
rdata[19] O
rdata[1] O
rdata[20] O
rdata[21] O
rdata[22] O
rdata[23] O
rdata[24] O
rdata[25] O
rdata[26] O
rdata[27] O
rdata[28] O
rdata[29] O
rdata[2] O
rdata[30] O
rdata[31] O
rdata[3] O
rdata[4] O
rdata[5] O
rdata[6] O
rdata[7] O
rdata[8] O
rdata[9] O
ready O
rst I
valid I
wdata[0] I
wdata[10] I
wdata[11] I
wdata[12] I
wdata[13] I
wdata[14] I
wdata[15] I
wdata[16] I
wdata[17] I
wdata[18] I
wdata[19] I
wdata[1] I
wdata[20] I
wdata[21] I
wdata[22] I
wdata[23] I
wdata[24] I
wdata[25] I
wdata[26] I
wdata[27] I
wdata[28] I
wdata[29] I
wdata[2] I
wdata[30] I
wdata[31] I
wdata[3] I
wdata[4] I
wdata[5] I
wdata[6] I
wdata[7] I
wdata[8] I
wdata[9] I
write I

*D_NET *3 0.000712719
*CONN
*P addr[0] I
*I *5048:A I *D sky130_fd_sc_hd__buf_1
*CAP
1 addr[0] 0.000300487
2 *5048:A 0.000300487
3 *5048:A *5059:A 3.14094e-05
4 *5048:A *5061:A 2.24901e-05
5 *5048:A *830:10 5.78448e-05
*RES
1 addr[0] *5048:A 6.63177 
*END

*D_NET *4 0.000707559
*CONN
*P addr[1] I
*I *5059:A I *D sky130_fd_sc_hd__clkbuf_1
*CAP
1 addr[1] 0.0003244
2 *5059:A 0.0003244
3 *5059:A rdata[5] 2.15176e-05
4 *5059:A *4154:A 5.83121e-06
5 *5059:A *830:10 0
6 *5048:A *5059:A 3.14094e-05
*RES
1 addr[1] *5059:A 8.3643 
*END

*D_NET *5 0.000625792
*CONN
*P addr[2] I
*I *5060:A I *D sky130_fd_sc_hd__clkbuf_1
*CAP
1 addr[2] 0.000279043
2 *5060:A 0.000279043
3 *5060:A rdata[3] 2.24901e-05
4 *5060:A rdata[5] 4.52158e-05
*RES
1 addr[2] *5060:A 7.5993 
*END

*D_NET *6 0.000586741
*CONN
*P addr[3] I
*I *5061:A I *D sky130_fd_sc_hd__clkbuf_1
*CAP
1 addr[3] 0.000267307
2 *5061:A 0.000267307
3 *5061:A *5063:A 2.96366e-05
4 *5048:A *5061:A 2.24901e-05
*RES
1 addr[3] *5061:A 7.3443 
*END

*D_NET *7 0.000533861
*CONN
*P addr[4] I
*I *5062:A I *D sky130_fd_sc_hd__clkbuf_1
*CAP
1 addr[4] 0.000252112
2 *5062:A 0.000252112
3 *5062:A *5065:A 2.96366e-05
*RES
1 addr[4] *5062:A 6.8343 
*END

*D_NET *8 0.000559702
*CONN
*P addr[5] I
*I *5063:A I *D sky130_fd_sc_hd__clkbuf_1
*CAP
1 addr[5] 0.000250214
2 *5063:A 0.000250214
3 *5063:A rdata[4] 2.96366e-05
4 *5061:A *5063:A 2.96366e-05
*RES
1 addr[5] *5063:A 7.0893 
*END

*D_NET *9 0.000607998
*CONN
*P addr[6] I
*I *5064:A I *D sky130_fd_sc_hd__clkbuf_1
*CAP
1 addr[6] 0.000240361
2 *5064:A 0.000240361
3 *5064:A rdata[4] 2.85068e-05
4 *5064:A ready 2.24901e-05
5 *5064:A *4150:B 2.39692e-05
6 *5064:A *4150:D 5.23093e-05
*RES
1 addr[6] *5064:A 6.37677 
*END

*D_NET *10 0.000529267
*CONN
*P addr[7] I
*I *5065:A I *D sky130_fd_sc_hd__clkbuf_1
*CAP
1 addr[7] 0.000234997
2 *5065:A 0.000234997
3 *5065:A ready 2.96366e-05
4 *5062:A *5065:A 2.96366e-05
*RES
1 addr[7] *5065:A 6.8343 
*END

*D_NET *11 0.0170558
*CONN
*P clk I
*I *4918:A I *D sky130_fd_sc_hd__clkbuf_16
*CAP
1 clk 0.00447389
2 *4918:A 0
3 *11:9 0.00315236
4 *11:7 0.00762626
5 *11:7 *641:10 0.00013827
6 *11:9 *4491:A 0
7 *11:9 *4493:B1 5.12859e-05
8 *11:9 *4493:C1 0
9 *11:9 *4530:B1 8.26536e-05
10 *11:9 *4530:C1 5.85071e-05
11 *11:9 *4532:A1 0
12 *11:9 *4533:C1 6.31804e-05
13 *11:9 *4535:A1 3.68596e-05
14 *11:9 *4535:A2 0
15 *11:9 *4567:A 0.000111324
16 *11:9 *4567:B 0.000181376
17 *11:9 *4568:A 0.000100308
18 *11:9 *4568:B 0
19 *11:9 *4606:A 0
20 *11:9 *4606:B 0
21 *11:9 *4628:B 0.000180675
22 *11:9 *4629:A 1.26626e-05
23 *11:9 *4669:B 0
24 *11:9 *447:10 0
25 *11:9 *450:25 3.686e-05
26 *11:9 *450:36 0.000208136
27 *11:9 *451:8 0
28 *11:9 *482:12 0
29 *11:9 *485:12 2.16389e-05
30 *11:9 *486:10 0.000249292
31 *11:9 *520:12 0
32 *11:9 *557:12 0.000116853
33 *11:9 *558:12 6.10014e-05
34 *11:9 *583:14 3.89528e-05
35 *11:9 *611:10 0
36 *11:9 *611:14 0
37 *11:9 *622:10 5.3442e-05
38 *11:9 *849:16 0
*RES
1 clk *11:7 11.5605 
2 *11:7 *11:9 59.1375 
3 *11:9 *4918:A 3.6 
*END

*D_NET *12 0.000660901
*CONN
*P rdata[0] O
*I *5069:X O *D sky130_fd_sc_hd__buf_2
*CAP
1 rdata[0] 0.000313936
2 *5069:X 0.000313936
3 rdata[0] *5049:A 3.30292e-05
*RES
1 *5069:X rdata[0] 7.1793 
*END

*D_NET *13 0.0014043
*CONN
*P rdata[10] O
*I *5070:X O *D sky130_fd_sc_hd__buf_2
*CAP
1 rdata[10] 0.000415103
2 *5070:X 0.000415103
3 rdata[10] rdata[11] 1.88904e-05
4 rdata[10] rdata[14] 7.63901e-05
5 rdata[10] *5017:A 4.4123e-05
6 rdata[10] *5070:A 0.000434694
*RES
1 *5070:X rdata[10] 10.3968 
*END

*D_NET *14 0.00114028
*CONN
*P rdata[11] O
*I *5071:X O *D sky130_fd_sc_hd__buf_2
*CAP
1 rdata[11] 0.000405892
2 *5071:X 0.000405892
3 rdata[11] rdata[13] 7.32103e-05
4 rdata[11] rdata[14] 7.32103e-05
5 rdata[11] *5070:A 2.42236e-05
6 rdata[11] *5073:A 0
7 rdata[11] *930:12 0.000138961
8 rdata[10] rdata[11] 1.88904e-05
*RES
1 *5071:X rdata[11] 9.6635 
*END

*D_NET *15 0.000915562
*CONN
*P rdata[12] O
*I *5072:X O *D sky130_fd_sc_hd__buf_2
*CAP
1 rdata[12] 0.000359829
2 *5072:X 0.000359829
3 rdata[12] rdata[13] 8.95652e-05
4 rdata[12] *930:12 0.000106338
*RES
1 *5072:X rdata[12] 7.96503 
*END

*D_NET *16 0.00118468
*CONN
*P rdata[13] O
*I *5073:X O *D sky130_fd_sc_hd__buf_2
*CAP
1 rdata[13] 0.000482029
2 *5073:X 0.000482029
3 rdata[13] rdata[14] 0
4 rdata[13] *4212:C1 0
5 rdata[13] *5073:A 5.78448e-05
6 rdata[11] rdata[13] 7.32103e-05
7 rdata[12] rdata[13] 8.95652e-05
*RES
1 *5073:X rdata[13] 6.44943 
*END

*D_NET *17 0.00102581
*CONN
*P rdata[14] O
*I *5074:X O *D sky130_fd_sc_hd__buf_2
*CAP
1 rdata[14] 0.000371382
2 *5074:X 0.000371382
3 rdata[14] *4212:C1 0
4 rdata[14] *5008:A 2.57244e-05
5 rdata[14] *5074:A 0.000107716
6 rdata[10] rdata[14] 7.63901e-05
7 rdata[11] rdata[14] 7.32103e-05
8 rdata[13] rdata[14] 0
*RES
1 *5074:X rdata[14] 7.6881 
*END

*D_NET *18 0.000468404
*CONN
*P rdata[15] O
*I *5075:X O *D sky130_fd_sc_hd__buf_2
*CAP
1 rdata[15] 0.000191838
2 *5075:X 0.000191838
3 rdata[15] rdata[16] 8.47282e-05
4 rdata[15] *5075:A 0
*RES
1 *5075:X rdata[15] 4.90503 
*END

*D_NET *19 0.00111662
*CONN
*P rdata[16] O
*I *5076:X O *D sky130_fd_sc_hd__buf_2
*CAP
1 rdata[16] 0.000515947
2 *5076:X 0.000515947
3 rdata[16] *4862:CLK 0
4 rdata[15] rdata[16] 8.47282e-05
*RES
1 *5076:X rdata[16] 5.54597 
*END

*D_NET *20 0.000462139
*CONN
*P rdata[17] O
*I *5077:X O *D sky130_fd_sc_hd__buf_2
*CAP
1 rdata[17] 0.000141203
2 *5077:X 0.000141203
3 rdata[17] rdata[19] 9.50048e-05
4 rdata[17] rdata[20] 8.47282e-05
*RES
1 *5077:X rdata[17] 4.90503 
*END

*D_NET *21 0.000490212
*CONN
*P rdata[18] O
*I *5078:X O *D sky130_fd_sc_hd__buf_2
*CAP
1 rdata[18] 0.000193328
2 *5078:X 0.000193328
3 rdata[18] rdata[19] 0
4 rdata[18] rdata[9] 8.47282e-05
5 rdata[18] *5078:A 1.88271e-05
*RES
1 *5078:X rdata[18] 5.16003 
*END

*D_NET *22 0.000540254
*CONN
*P rdata[19] O
*I *5079:X O *D sky130_fd_sc_hd__buf_2
*CAP
1 rdata[19] 0.000205989
2 *5079:X 0.000205989
3 rdata[19] *5079:A 3.32709e-05
4 rdata[17] rdata[19] 9.50048e-05
5 rdata[18] rdata[19] 0
*RES
1 *5079:X rdata[19] 5.41503 
*END

*D_NET *23 0.0006069
*CONN
*P rdata[1] O
*I *5080:X O *D sky130_fd_sc_hd__buf_2
*CAP
1 rdata[1] 0.00030345
2 *5080:X 0.00030345
3 rdata[1] *5080:A 0
*RES
1 *5080:X rdata[1] 6.0935 
*END

*D_NET *24 0.00112575
*CONN
*P rdata[20] O
*I *5081:X O *D sky130_fd_sc_hd__buf_2
*CAP
1 rdata[20] 0.00047301
2 *5081:X 0.00047301
3 rdata[20] rdata[24] 9.50048e-05
4 rdata[20] *837:93 0
5 rdata[17] rdata[20] 8.47282e-05
*RES
1 *5081:X rdata[20] 5.54597 
*END

*D_NET *25 0.000800707
*CONN
*P rdata[21] O
*I *5082:X O *D sky130_fd_sc_hd__buf_2
*CAP
1 rdata[21] 0.000317066
2 *5082:X 0.000317066
3 rdata[21] rdata[24] 9.25475e-05
4 rdata[21] *940:8 7.4027e-05
*RES
1 *5082:X rdata[21] 7.45503 
*END

*D_NET *26 0.000480217
*CONN
*P rdata[22] O
*I *5083:X O *D sky130_fd_sc_hd__buf_2
*CAP
1 rdata[22] 0.000218287
2 *5083:X 0.000218287
3 rdata[22] *941:12 4.36438e-05
*RES
1 *5083:X rdata[22] 5.16003 
*END

*D_NET *27 0.00106055
*CONN
*P rdata[23] O
*I *5084:X O *D sky130_fd_sc_hd__buf_2
*CAP
1 rdata[23] 0.000530273
2 *5084:X 0.000530273
*RES
1 *5084:X rdata[23] 12.48 
*END

*D_NET *28 0.000617774
*CONN
*P rdata[24] O
*I *5085:X O *D sky130_fd_sc_hd__buf_2
*CAP
1 rdata[24] 0.000215111
2 *5085:X 0.000215111
3 rdata[20] rdata[24] 9.50048e-05
4 rdata[21] rdata[24] 9.25475e-05
*RES
1 *5085:X rdata[24] 6.18003 
*END

*D_NET *29 0.00145938
*CONN
*P rdata[25] O
*I *5086:X O *D sky130_fd_sc_hd__buf_2
*CAP
1 rdata[25] 0.000649955
2 *5086:X 0.000649955
3 rdata[25] rdata[8] 4.89395e-05
4 rdata[25] *5086:A 2.5238e-05
5 rdata[25] *967:10 8.52972e-05
*RES
1 *5086:X rdata[25] 14.76 
*END

*D_NET *30 0.00106056
*CONN
*P rdata[26] O
*I *5087:X O *D sky130_fd_sc_hd__buf_2
*CAP
1 rdata[26] 0.000530279
2 *5087:X 0.000530279
*RES
1 *5087:X rdata[26] 12.48 
*END

*D_NET *31 0.00106055
*CONN
*P rdata[27] O
*I *5088:X O *D sky130_fd_sc_hd__buf_2
*CAP
1 rdata[27] 0.000530273
2 *5088:X 0.000530273
3 rdata[27] rdata[28] 0
*RES
1 *5088:X rdata[27] 12.48 
*END

*D_NET *32 0.0010609
*CONN
*P rdata[28] O
*I *5089:X O *D sky130_fd_sc_hd__buf_2
*CAP
1 rdata[28] 0.00051944
2 *5089:X 0.00051944
3 rdata[28] *5088:A 2.2016e-05
4 rdata[27] rdata[28] 0
*RES
1 *5089:X rdata[28] 12.48 
*END

*D_NET *33 0.00109569
*CONN
*P rdata[29] O
*I *5090:X O *D sky130_fd_sc_hd__buf_2
*CAP
1 rdata[29] 0.000508679
2 *5090:X 0.000508679
3 rdata[29] *5090:A 7.83354e-05
*RES
1 *5090:X rdata[29] 12.48 
*END

*D_NET *34 0.000660981
*CONN
*P rdata[2] O
*I *5091:X O *D sky130_fd_sc_hd__buf_2
*CAP
1 rdata[2] 0.000277319
2 *5091:X 0.000277319
3 rdata[2] *5091:A 0.000106344
4 rdata[2] *164:14 0
*RES
1 *5091:X rdata[2] 5.92503 
*END

*D_NET *35 0.00106055
*CONN
*P rdata[30] O
*I *5092:X O *D sky130_fd_sc_hd__buf_2
*CAP
1 rdata[30] 0.000530273
2 *5092:X 0.000530273
*RES
1 *5092:X rdata[30] 12.48 
*END

*D_NET *36 0.00106055
*CONN
*P rdata[31] O
*I *5093:X O *D sky130_fd_sc_hd__buf_2
*CAP
1 rdata[31] 0.000530273
2 *5093:X 0.000530273
3 rdata[31] rdata[6] 0
*RES
1 *5093:X rdata[31] 12.48 
*END

*D_NET *37 0.000590254
*CONN
*P rdata[3] O
*I *5094:X O *D sky130_fd_sc_hd__buf_2
*CAP
1 rdata[3] 0.000263614
2 *5094:X 0.000263614
3 rdata[3] *164:14 0
4 rdata[3] *953:12 4.05358e-05
5 *5060:A rdata[3] 2.24901e-05
*RES
1 *5094:X rdata[3] 5.92503 
*END

*D_NET *38 0.000600665
*CONN
*P rdata[4] O
*I *5095:X O *D sky130_fd_sc_hd__buf_2
*CAP
1 rdata[4] 0.000271261
2 *5095:X 0.000271261
3 *5063:A rdata[4] 2.96366e-05
4 *5064:A rdata[4] 2.85068e-05
*RES
1 *5095:X rdata[4] 7.1793 
*END

*D_NET *39 0.000735659
*CONN
*P rdata[5] O
*I *5096:X O *D sky130_fd_sc_hd__buf_2
*CAP
1 rdata[5] 0.000334463
2 *5096:X 0.000334463
3 *5059:A rdata[5] 2.15176e-05
4 *5060:A rdata[5] 4.52158e-05
*RES
1 *5096:X rdata[5] 7.6893 
*END

*D_NET *40 0.00123298
*CONN
*P rdata[6] O
*I *5097:X O *D sky130_fd_sc_hd__buf_2
*CAP
1 rdata[6] 0.000530923
2 *5097:X 0.000530923
3 rdata[6] *5093:A 0.000121036
4 rdata[6] *5097:A 5.0096e-05
5 rdata[31] rdata[6] 0
*RES
1 *5097:X rdata[6] 12.825 
*END

*D_NET *41 0.00116119
*CONN
*P rdata[7] O
*I *5098:X O *D sky130_fd_sc_hd__buf_2
*CAP
1 rdata[7] 0.000554583
2 *5098:X 0.000554583
3 rdata[7] *5098:A 5.20249e-05
*RES
1 *5098:X rdata[7] 12.825 
*END

*D_NET *42 0.00123969
*CONN
*P rdata[8] O
*I *5099:X O *D sky130_fd_sc_hd__buf_2
*CAP
1 rdata[8] 0.000533516
2 *5099:X 0.000533516
3 rdata[8] *4957:A 2.48962e-05
4 rdata[8] *5086:A 9.88165e-05
5 rdata[25] rdata[8] 4.89395e-05
*RES
1 *5099:X rdata[8] 13.275 
*END

*D_NET *43 0.000469647
*CONN
*P rdata[9] O
*I *5100:X O *D sky130_fd_sc_hd__buf_2
*CAP
1 rdata[9] 0.000188124
2 *5100:X 0.000188124
3 rdata[9] *935:10 8.66976e-06
4 rdata[18] rdata[9] 8.47282e-05
*RES
1 *5100:X rdata[9] 4.90503 
*END

*D_NET *44 0.000586741
*CONN
*P ready O
*I *5116:HI O *D sky130_fd_sc_hd__conb_1
*CAP
1 ready 0.000267307
2 *5116:HI 0.000267307
3 ready *4150:B 0
4 *5064:A ready 2.24901e-05
5 *5065:A ready 2.96366e-05
*RES
1 *5116:HI ready 7.3443 
*END

*D_NET *45 0.000966237
*CONN
*P rst I
*I *5066:A I *D sky130_fd_sc_hd__clkbuf_4
*CAP
1 rst 0.000483119
2 *5066:A 0.000483119
*RES
1 rst *5066:A 11.97 
*END

*D_NET *46 0.000603213
*CONN
*P valid I
*I *5049:A I *D sky130_fd_sc_hd__clkbuf_2
*CAP
1 valid 0.000270274
2 *5049:A 0.000270274
3 *5049:A *5058:A 2.96366e-05
4 rdata[0] *5049:A 3.30292e-05
*RES
1 valid *5049:A 7.1793 
*END

*D_NET *47 0.000604589
*CONN
*P wdata[0] I
*I *5050:A I *D sky130_fd_sc_hd__buf_1
*CAP
1 wdata[0] 0.000276796
2 *5050:A 0.000276796
3 *5050:A *5051:A 2.85068e-05
4 *5050:A *5058:A 2.24901e-05
*RES
1 wdata[0] *5050:A 6.37677 
*END

*D_NET *58 0.00057285
*CONN
*P wdata[1] I
*I *5051:A I *D sky130_fd_sc_hd__buf_1
*CAP
1 wdata[1] 0.000272172
2 *5051:A 0.000272172
3 *5050:A *5051:A 2.85068e-05
*RES
1 wdata[1] *5051:A 7.0893 
*END

*D_NET *69 0.000616382
*CONN
*P wdata[2] I
*I *5052:A I *D sky130_fd_sc_hd__clkbuf_1
*CAP
1 wdata[2] 0.000293938
2 *5052:A 0.000293938
3 *5052:A *5055:A 2.85068e-05
*RES
1 wdata[2] *5052:A 6.63177 
*END

*D_NET *72 0.000503722
*CONN
*P wdata[3] I
*I *5053:A I *D sky130_fd_sc_hd__clkbuf_1
*CAP
1 wdata[3] 0.000251861
2 *5053:A 0.000251861
*RES
1 wdata[3] *5053:A 5.61177 
*END

*D_NET *73 0.000610242
*CONN
*P wdata[4] I
*I *5054:A I *D sky130_fd_sc_hd__clkbuf_1
*CAP
1 wdata[4] 0.000305121
2 *5054:A 0.000305121
3 *5054:A *5055:A 0
*RES
1 wdata[4] *5054:A 7.5993 
*END

*D_NET *74 0.000533779
*CONN
*P wdata[5] I
*I *5055:A I *D sky130_fd_sc_hd__buf_1
*CAP
1 wdata[5] 0.000252636
2 *5055:A 0.000252636
3 *5052:A *5055:A 2.85068e-05
4 *5054:A *5055:A 0
*RES
1 wdata[5] *5055:A 6.8343 
*END

*D_NET *75 0.00087992
*CONN
*P wdata[6] I
*I *5056:A I *D sky130_fd_sc_hd__clkbuf_1
*CAP
1 wdata[6] 0.000430768
2 *5056:A 0.000430768
3 *5056:A *906:10 1.83847e-05
*RES
1 wdata[6] *5056:A 11.04 
*END

*D_NET *76 0.00087992
*CONN
*P wdata[7] I
*I *5057:A I *D sky130_fd_sc_hd__clkbuf_1
*CAP
1 wdata[7] 0.000430768
2 *5057:A 0.000430768
3 *5057:A *917:10 1.83847e-05
*RES
1 wdata[7] *5057:A 11.04 
*END

*D_NET *79 0.000614833
*CONN
*P write I
*I *5058:A I *D sky130_fd_sc_hd__buf_1
*CAP
1 write 0.000281353
2 *5058:A 0.000281353
3 *5058:A *831:14 0
4 *5049:A *5058:A 2.96366e-05
5 *5050:A *5058:A 2.24901e-05
*RES
1 write *5058:A 7.5993 
*END

*D_NET *80 0.000239433
*CONN
*I *4837:D I *D sky130_fd_sc_hd__dfxtp_1
*I *4152:Y O *D sky130_fd_sc_hd__nor3_1
*CAP
1 *4837:D 8.39307e-05
2 *4152:Y 8.39307e-05
3 *4837:D *4147:A 5.72004e-05
4 *4837:D *4837:CLK 1.43717e-05
5 *4837:D *166:12 0
*RES
1 *4152:Y *4837:D 8.97375 
*END

*D_NET *81 0.000258635
*CONN
*I *4838:D I *D sky130_fd_sc_hd__dfxtp_1
*I *4157:X O *D sky130_fd_sc_hd__and2_1
*CAP
1 *4838:D 8.66753e-05
2 *4157:X 8.66753e-05
3 *4838:D *4157:B 8.52845e-05
*RES
1 *4157:X *4838:D 4.56875 
*END

*D_NET *82 0.000205675
*CONN
*I *4839:D I *D sky130_fd_sc_hd__dfxtp_1
*I *4159:X O *D sky130_fd_sc_hd__and2_1
*CAP
1 *4839:D 7.49201e-05
2 *4159:X 7.49201e-05
3 *4839:D *4269:A 7.00889e-06
4 *4839:D *781:39 4.88258e-05
*RES
1 *4159:X *4839:D 4.56875 
*END

*D_NET *83 0.000180908
*CONN
*I *4840:D I *D sky130_fd_sc_hd__dfxtp_1
*I *4161:X O *D sky130_fd_sc_hd__and2_1
*CAP
1 *4840:D 8.32683e-05
2 *4161:X 8.32683e-05
3 *4840:D *4161:A 0
4 *4840:D *4840:CLK 1.43717e-05
*RES
1 *4161:X *4840:D 8.46375 
*END

*D_NET *84 0.000294101
*CONN
*I *4841:D I *D sky130_fd_sc_hd__dfxtp_1
*I *4163:X O *D sky130_fd_sc_hd__and2_1
*CAP
1 *4841:D 7.24733e-05
2 *4163:X 7.24733e-05
3 *4841:D *884:16 0.000149154
*RES
1 *4163:X *4841:D 4.56875 
*END

*D_NET *85 0.000180981
*CONN
*I *4842:D I *D sky130_fd_sc_hd__dfxtp_1
*I *4165:X O *D sky130_fd_sc_hd__and2_1
*CAP
1 *4842:D 7.10139e-05
2 *4165:X 7.10139e-05
3 *4842:D *4983:A 0
4 *4842:D *774:68 3.89528e-05
*RES
1 *4165:X *4842:D 8.46375 
*END

*D_NET *86 0.00033459
*CONN
*I *4843:D I *D sky130_fd_sc_hd__dfxtp_1
*I *4167:X O *D sky130_fd_sc_hd__and2_1
*CAP
1 *4843:D 9.93723e-05
2 *4167:X 9.93723e-05
3 *4843:D *4167:B 8.75538e-05
4 *4843:D *4843:CLK 4.82919e-05
*RES
1 *4167:X *4843:D 4.92875 
*END

*D_NET *87 0.000327822
*CONN
*I *4844:D I *D sky130_fd_sc_hd__dfxtp_1
*I *4169:X O *D sky130_fd_sc_hd__and2_1
*CAP
1 *4844:D 3.32275e-05
2 *4169:X 3.32275e-05
3 *4844:D *984:27 0.000146835
4 *4844:D *992:25 0.000114532
*RES
1 *4169:X *4844:D 4.56875 
*END

*D_NET *88 0.000188867
*CONN
*I *4845:D I *D sky130_fd_sc_hd__dfxtp_2
*I *4171:X O *D sky130_fd_sc_hd__and2_1
*CAP
1 *4845:D 6.92478e-05
2 *4171:X 6.92478e-05
3 *4845:D *774:104 3.59997e-05
4 *4845:D *840:57 0
5 *4845:D *984:27 1.43717e-05
*RES
1 *4171:X *4845:D 8.46375 
*END

*D_NET *89 0.000191923
*CONN
*I *4846:D I *D sky130_fd_sc_hd__dfxtp_1
*I *4179:X O *D sky130_fd_sc_hd__o211a_1
*CAP
1 *4846:D 6.27272e-05
2 *4179:X 6.27272e-05
3 *4846:D *4161:A 0
4 *4846:D *4179:A2 5.20968e-05
5 *4846:D *773:53 1.43717e-05
*RES
1 *4179:X *4846:D 8.46375 
*END

*D_NET *90 0.000264114
*CONN
*I *4847:D I *D sky130_fd_sc_hd__dfxtp_1
*I *4182:X O *D sky130_fd_sc_hd__o211a_1
*CAP
1 *4847:D 5.77574e-05
2 *4182:X 5.77574e-05
3 *4847:D *839:40 0.0001486
*RES
1 *4182:X *4847:D 4.56875 
*END

*D_NET *91 0.000539558
*CONN
*I *4848:D I *D sky130_fd_sc_hd__dfxtp_1
*I *4185:X O *D sky130_fd_sc_hd__o211a_1
*CAP
1 *4848:D 0.000198146
2 *4185:X 0.000198146
3 *4848:D *164:14 0.000143266
4 *4848:D *839:40 0
*RES
1 *4185:X *4848:D 10.6987 
*END

*D_NET *92 0.000666455
*CONN
*I *4849:D I *D sky130_fd_sc_hd__dfxtp_1
*I *4188:X O *D sky130_fd_sc_hd__o211a_1
*CAP
1 *4849:D 0.000244275
2 *4188:X 0.000244275
3 *4849:D *4188:A1 7.70938e-05
4 *4849:D *4188:B1 1.99679e-05
5 *4849:D *164:14 8.08439e-05
*RES
1 *4188:X *4849:D 11.4937 
*END

*D_NET *93 0.000343661
*CONN
*I *4850:D I *D sky130_fd_sc_hd__dfxtp_1
*I *4191:X O *D sky130_fd_sc_hd__o211a_1
*CAP
1 *4850:D 4.95304e-05
2 *4191:X 4.95304e-05
3 *4850:D *4191:A1 9.30717e-05
4 *4850:D *775:89 0.000101422
5 *4850:D *843:10 5.01066e-05
*RES
1 *4191:X *4850:D 8.80875 
*END

*D_NET *94 0.000228455
*CONN
*I *4851:D I *D sky130_fd_sc_hd__dfxtp_1
*I *4194:X O *D sky130_fd_sc_hd__o211a_1
*CAP
1 *4851:D 5.81308e-05
2 *4194:X 5.81308e-05
3 *4851:D *775:16 1.50866e-05
4 *4851:D *775:59 9.71067e-05
*RES
1 *4194:X *4851:D 8.46375 
*END

*D_NET *95 0.000474911
*CONN
*I *4852:D I *D sky130_fd_sc_hd__dfxtp_1
*I *4197:X O *D sky130_fd_sc_hd__o211a_1
*CAP
1 *4852:D 0.000150791
2 *4197:X 0.000150791
3 *4852:D *4852:CLK 4.82319e-06
4 *4852:D *199:10 5.42473e-05
5 *4852:D *776:56 6.0011e-05
6 *4852:D *839:110 5.42473e-05
*RES
1 *4197:X *4852:D 10.3538 
*END

*D_NET *96 0.000272446
*CONN
*I *4853:D I *D sky130_fd_sc_hd__dfxtp_1
*I *4200:X O *D sky130_fd_sc_hd__o221a_1
*CAP
1 *4853:D 8.47758e-05
2 *4200:X 8.47758e-05
3 *4853:D *4947:A 5.14473e-05
4 *4853:D *845:10 5.14473e-05
*RES
1 *4200:X *4853:D 8.80875 
*END

*D_NET *97 0.000470777
*CONN
*I *4854:D I *D sky130_fd_sc_hd__dfxtp_1
*I *4202:X O *D sky130_fd_sc_hd__o221a_1
*CAP
1 *4854:D 0.000170138
2 *4202:X 0.000170138
3 *4854:D *4202:A1 1.45551e-05
4 *4854:D *4854:CLK 0.000115945
*RES
1 *4202:X *4854:D 10.245 
*END

*D_NET *98 0.000243302
*CONN
*I *4855:D I *D sky130_fd_sc_hd__dfxtp_1
*I *4204:X O *D sky130_fd_sc_hd__o221a_1
*CAP
1 *4855:D 8.16011e-05
2 *4204:X 8.16011e-05
3 *4855:D *4855:CLK 4.77719e-05
4 *4855:D *838:103 3.23274e-05
*RES
1 *4204:X *4855:D 4.56875 
*END

*D_NET *99 0.000416394
*CONN
*I *4856:D I *D sky130_fd_sc_hd__dfxtp_1
*I *4206:X O *D sky130_fd_sc_hd__o221a_1
*CAP
1 *4856:D 0.00016892
2 *4206:X 0.00016892
3 *4856:D *4206:A1 1.83756e-05
4 *4856:D *778:80 2.97004e-06
5 *4856:D *778:91 5.72091e-05
*RES
1 *4206:X *4856:D 10.005 
*END

*D_NET *100 0.000280373
*CONN
*I *4857:D I *D sky130_fd_sc_hd__dfxtp_1
*I *4208:X O *D sky130_fd_sc_hd__o221a_1
*CAP
1 *4857:D 5.22435e-05
2 *4208:X 5.22435e-05
3 *4857:D *4208:B1 0.000148363
4 *4857:D *4857:CLK 2.75229e-05
*RES
1 *4208:X *4857:D 4.56875 
*END

*D_NET *101 0.000238377
*CONN
*I *4858:D I *D sky130_fd_sc_hd__dfxtp_1
*I *4210:X O *D sky130_fd_sc_hd__o221a_1
*CAP
1 *4858:D 7.69346e-05
2 *4210:X 7.69346e-05
3 *4858:D *778:67 8.45076e-05
*RES
1 *4210:X *4858:D 8.46375 
*END

*D_NET *102 0.000768149
*CONN
*I *4859:D I *D sky130_fd_sc_hd__dfxtp_1
*I *4212:X O *D sky130_fd_sc_hd__o221a_1
*CAP
1 *4859:D 0.000321624
2 *4212:X 0.000321624
3 *4859:D *4212:A2 0.0001249
4 *4859:D *5024:A 0
5 *4859:D *778:71 0
*RES
1 *4212:X *4859:D 11.4937 
*END

*D_NET *103 0.000404556
*CONN
*I *4860:D I *D sky130_fd_sc_hd__dfxtp_1
*I *4214:X O *D sky130_fd_sc_hd__o221a_1
*CAP
1 *4860:D 9.13883e-05
2 *4214:X 9.13883e-05
3 *4860:D *4212:C1 0.000139933
4 *4860:D *4214:A1 1.83756e-05
5 *4860:D *778:71 4.18603e-06
6 *4860:D *778:80 5.92849e-05
*RES
1 *4214:X *4860:D 9.42375 
*END

*D_NET *104 0.000427726
*CONN
*I *4861:D I *D sky130_fd_sc_hd__dfxtp_1
*I *4216:X O *D sky130_fd_sc_hd__o221a_1
*CAP
1 *4861:D 0.000157179
2 *4216:X 0.000157179
3 *4861:D *4216:A1 3.1835e-05
4 *4861:D *4862:CLK 7.70938e-05
5 *4861:D *778:91 4.43871e-06
*RES
1 *4216:X *4861:D 9.76875 
*END

*D_NET *105 0.000226362
*CONN
*I *4862:D I *D sky130_fd_sc_hd__dfxtp_1
*I *4218:X O *D sky130_fd_sc_hd__o221a_1
*CAP
1 *4862:D 8.81998e-05
2 *4218:X 8.81998e-05
3 *4862:D *4862:CLK 4.99619e-05
*RES
1 *4218:X *4862:D 4.56875 
*END

*D_NET *106 0.000301256
*CONN
*I *4863:D I *D sky130_fd_sc_hd__dfxtp_1
*I *4220:X O *D sky130_fd_sc_hd__o221a_1
*CAP
1 *4863:D 0.000102075
2 *4220:X 0.000102075
3 *4863:D *777:62 9.71067e-05
4 *4863:D *967:91 0
*RES
1 *4220:X *4863:D 9.00375 
*END

*D_NET *107 0.00057568
*CONN
*I *4864:D I *D sky130_fd_sc_hd__dfxtp_1
*I *4222:X O *D sky130_fd_sc_hd__o221a_1
*CAP
1 *4864:D 0.000223427
2 *4222:X 0.000223427
3 *4864:D *4222:A1 0
4 *4864:D *4222:A2 0.000128827
*RES
1 *4222:X *4864:D 11.595 
*END

*D_NET *108 0.000285937
*CONN
*I *4865:D I *D sky130_fd_sc_hd__dfxtp_1
*I *4224:X O *D sky130_fd_sc_hd__o221a_1
*CAP
1 *4865:D 6.69845e-05
2 *4224:X 6.69845e-05
3 *4865:D *4224:A1 0.000151967
*RES
1 *4224:X *4865:D 4.56875 
*END

*D_NET *109 0.000285937
*CONN
*I *4866:D I *D sky130_fd_sc_hd__dfxtp_1
*I *4226:X O *D sky130_fd_sc_hd__o221a_1
*CAP
1 *4866:D 6.69845e-05
2 *4226:X 6.69845e-05
3 *4866:D *4226:A1 0.000151967
*RES
1 *4226:X *4866:D 4.56875 
*END

*D_NET *110 0.000766817
*CONN
*I *4867:D I *D sky130_fd_sc_hd__dfxtp_1
*I *4228:X O *D sky130_fd_sc_hd__o221a_1
*CAP
1 *4867:D 0.000320958
2 *4228:X 0.000320958
3 *4867:D *4228:A2 0.0001249
4 *4867:D *4867:CLK 0
5 *4867:D *837:91 0
*RES
1 *4228:X *4867:D 11.4937 
*END

*D_NET *111 0.000311152
*CONN
*I *4868:D I *D sky130_fd_sc_hd__dfxtp_1
*I *4230:X O *D sky130_fd_sc_hd__o221a_1
*CAP
1 *4868:D 4.85177e-05
2 *4230:X 4.85177e-05
3 *4868:D *4228:C1 8.19155e-05
4 *4868:D *4230:A1 0.000132201
*RES
1 *4230:X *4868:D 5.075 
*END

*D_NET *112 0.00122438
*CONN
*I *4869:D I *D sky130_fd_sc_hd__dfxtp_1
*I *4232:X O *D sky130_fd_sc_hd__o221a_1
*CAP
1 *4869:D 7.35938e-05
2 *4232:X 7.35938e-05
3 *4869:D *4232:A2 0.000538596
4 *4869:D *967:64 0.000538596
*RES
1 *4232:X *4869:D 8.16875 
*END

*D_NET *113 0.000354842
*CONN
*I *4870:D I *D sky130_fd_sc_hd__dfxtp_1
*I *4234:X O *D sky130_fd_sc_hd__o221a_1
*CAP
1 *4870:D 0.000106487
2 *4234:X 0.000106487
3 *4870:D *777:117 5.85852e-05
4 *4870:D *967:87 8.32817e-05
*RES
1 *4234:X *4870:D 5.03375 
*END

*D_NET *114 0.000560767
*CONN
*I *4871:D I *D sky130_fd_sc_hd__dfxtp_1
*I *4236:X O *D sky130_fd_sc_hd__o221a_1
*CAP
1 *4871:D 0.000155492
2 *4236:X 0.000155492
3 *4871:D *779:80 5.00317e-05
4 *4871:D *779:82 0.000126488
5 *4871:D *779:158 7.32625e-05
*RES
1 *4236:X *4871:D 10.1888 
*END

*D_NET *115 0.000331545
*CONN
*I *4872:D I *D sky130_fd_sc_hd__dfxtp_1
*I *4238:X O *D sky130_fd_sc_hd__o221a_1
*CAP
1 *4872:D 0.000121288
2 *4238:X 0.000121288
3 *4872:D *967:41 8.89676e-05
*RES
1 *4238:X *4872:D 9.15375 
*END

*D_NET *116 0.000343458
*CONN
*I *4873:D I *D sky130_fd_sc_hd__dfxtp_1
*I *4240:X O *D sky130_fd_sc_hd__o221a_1
*CAP
1 *4873:D 8.10352e-05
2 *4240:X 8.10352e-05
3 *4873:D *4240:A2 5.20968e-05
4 *4873:D *4873:CLK 9.03376e-05
5 *4873:D *4940:A 3.89528e-05
*RES
1 *4240:X *4873:D 9.15375 
*END

*D_NET *117 0.00043899
*CONN
*I *4874:D I *D sky130_fd_sc_hd__dfxtp_1
*I *4242:X O *D sky130_fd_sc_hd__o221a_1
*CAP
1 *4874:D 0.000194397
2 *4242:X 0.000194397
3 *4874:D *4242:A1 2.01737e-05
4 *4874:D *779:92 3.00216e-05
*RES
1 *4242:X *4874:D 10.005 
*END

*D_NET *118 0.000256813
*CONN
*I *4875:D I *D sky130_fd_sc_hd__dfxtp_1
*I *4244:X O *D sky130_fd_sc_hd__o221a_1
*CAP
1 *4875:D 8.60713e-05
2 *4244:X 8.60713e-05
3 *4875:D *4244:A1 5.18362e-05
4 *4875:D *779:110 3.28339e-05
*RES
1 *4244:X *4875:D 8.80875 
*END

*D_NET *119 0.000627257
*CONN
*I *4876:D I *D sky130_fd_sc_hd__dfxtp_1
*I *4246:X O *D sky130_fd_sc_hd__o221a_1
*CAP
1 *4876:D 0.000254404
2 *4246:X 0.000254404
3 *4876:D *4246:B2 6.42013e-05
4 *4876:D *5025:A 5.42473e-05
*RES
1 *4246:X *4876:D 11.7338 
*END

*D_NET *120 0.000241609
*CONN
*I *4877:D I *D sky130_fd_sc_hd__dfxtp_1
*I *4248:X O *D sky130_fd_sc_hd__o221a_1
*CAP
1 *4877:D 8.90594e-05
2 *4248:X 8.90594e-05
3 *4877:D *4876:CLK 1.43717e-05
4 *4877:D *199:10 0
5 *4877:D *776:71 4.91189e-05
*RES
1 *4248:X *4877:D 8.97375 
*END

*D_NET *121 0.000310676
*CONN
*I *4878:D I *D sky130_fd_sc_hd__dfxtp_4
*I *4251:X O *D sky130_fd_sc_hd__and2_1
*CAP
1 *4878:D 2.57487e-05
2 *4251:X 2.57487e-05
3 *4878:D *4840:CLK 4.89295e-05
4 *4878:D *774:44 0.000113847
5 *4878:D *841:69 9.64021e-05
*RES
1 *4251:X *4878:D 4.685 
*END

*D_NET *122 0.000275988
*CONN
*I *4879:D I *D sky130_fd_sc_hd__dfxtp_1
*I *4253:X O *D sky130_fd_sc_hd__and2_1
*CAP
1 *4879:D 3.28175e-05
2 *4253:X 3.28175e-05
3 *4879:D *4169:A 0.000149404
4 *4879:D *774:40 3.09111e-05
5 *4879:D *774:42 3.00381e-05
*RES
1 *4253:X *4879:D 4.56875 
*END

*D_NET *123 0.000394429
*CONN
*I *4880:D I *D sky130_fd_sc_hd__dfxtp_1
*I *4255:X O *D sky130_fd_sc_hd__and2_1
*CAP
1 *4880:D 0.000170156
2 *4255:X 0.000170156
3 *4880:D *4255:A 5.83121e-06
4 *4880:D *4880:CLK 4.82863e-05
*RES
1 *4255:X *4880:D 5.60375 
*END

*D_NET *124 0.000316015
*CONN
*I *4881:D I *D sky130_fd_sc_hd__dfxtp_2
*I *4257:X O *D sky130_fd_sc_hd__and2_1
*CAP
1 *4881:D 2.36378e-05
2 *4257:X 2.36378e-05
3 *4881:D *4257:B 0.000120377
4 *4881:D *873:8 0.000148363
*RES
1 *4257:X *4881:D 4.56875 
*END

*D_NET *125 0.000325836
*CONN
*I *4882:D I *D sky130_fd_sc_hd__dfxtp_1
*I *4259:X O *D sky130_fd_sc_hd__and2_1
*CAP
1 *4882:D 1.85879e-05
2 *4259:X 1.85879e-05
3 *4882:D *4259:A 0.000151967
4 *4882:D *774:89 2.30292e-05
5 *4882:D *774:100 0.000113663
*RES
1 *4259:X *4882:D 4.56875 
*END

*D_NET *126 0.000350342
*CONN
*I *4883:D I *D sky130_fd_sc_hd__dfxtp_1
*I *4261:X O *D sky130_fd_sc_hd__and2_1
*CAP
1 *4883:D 0.000136036
2 *4261:X 0.000136036
3 *4883:D *4843:CLK 0
4 *4883:D *4883:CLK 7.82691e-05
5 *4883:D *224:42 0
*RES
1 *4261:X *4883:D 9.555 
*END

*D_NET *127 0.00033304
*CONN
*I *4884:D I *D sky130_fd_sc_hd__dfxtp_1
*I *4263:X O *D sky130_fd_sc_hd__and2_1
*CAP
1 *4884:D 8.03447e-05
2 *4263:X 8.03447e-05
3 *4884:D *4963:A 3.06667e-05
4 *4884:D *975:31 0.000141684
*RES
1 *4263:X *4884:D 9.00375 
*END

*D_NET *128 0.000323832
*CONN
*I *4885:D I *D sky130_fd_sc_hd__dfxtp_2
*I *4265:X O *D sky130_fd_sc_hd__and2_1
*CAP
1 *4885:D 0.000117432
2 *4265:X 0.000117432
3 *4885:D *774:113 8.89676e-05
*RES
1 *4265:X *4885:D 9.15375 
*END

*D_NET *129 0.000308086
*CONN
*I *4886:D I *D sky130_fd_sc_hd__dfxtp_1
*I *4269:X O *D sky130_fd_sc_hd__and3_1
*CAP
1 *4886:D 8.88341e-05
2 *4269:X 8.88341e-05
3 *4886:D *4266:A1 7.83293e-05
4 *4886:D *4269:B 5.2089e-05
5 *4886:D *1005:17 0
*RES
1 *4269:X *4886:D 9.00375 
*END

*D_NET *130 0.000659936
*CONN
*I *4887:D I *D sky130_fd_sc_hd__dfxtp_1
*I *4278:X O *D sky130_fd_sc_hd__o211a_1
*CAP
1 *4887:D 0.000194171
2 *4278:X 0.000194171
3 *4887:D *4161:A 3.54025e-05
4 *4887:D *4887:CLK 0.000199324
5 *4887:D *1010:52 3.68682e-05
*RES
1 *4278:X *4887:D 10.8787 
*END

*D_NET *131 0.000599512
*CONN
*I *4888:D I *D sky130_fd_sc_hd__dfxtp_1
*I *4293:X O *D sky130_fd_sc_hd__o211a_1
*CAP
1 *4888:D 0.000150693
2 *4293:X 0.000150693
3 *4888:D *4888:CLK 0.000202686
4 *4888:D *164:14 0
5 *4888:D *839:49 9.54399e-05
*RES
1 *4293:X *4888:D 10.1888 
*END

*D_NET *132 0.000616803
*CONN
*I *4889:D I *D sky130_fd_sc_hd__dfxtp_1
*I *4313:X O *D sky130_fd_sc_hd__o211a_1
*CAP
1 *4889:D 0.000182892
2 *4313:X 0.000182892
3 *4889:D *4313:B1 2.65814e-06
4 *4889:D *4994:A 7.71334e-05
5 *4889:D *775:59 0.00011852
6 *4889:D *775:70 3.25831e-05
7 *4889:D *843:16 2.01259e-05
*RES
1 *4313:X *4889:D 10.35 
*END

*D_NET *133 0.000285937
*CONN
*I *4890:D I *D sky130_fd_sc_hd__dfxtp_1
*I *4338:X O *D sky130_fd_sc_hd__and2_1
*CAP
1 *4890:D 6.69845e-05
2 *4338:X 6.69845e-05
3 *4890:D *843:116 0.000151967
*RES
1 *4338:X *4890:D 4.56875 
*END

*D_NET *134 0.000838821
*CONN
*I *4891:D I *D sky130_fd_sc_hd__dfxtp_1
*I *4371:X O *D sky130_fd_sc_hd__o211a_1
*CAP
1 *4891:D 0.00030755
2 *4371:X 0.00030755
3 *4891:D *4371:A2 4.92062e-05
4 *4891:D *776:32 7.82691e-05
5 *4891:D *844:52 7.06865e-05
6 *4891:D *1009:55 7.21296e-06
7 *4891:D *1010:131 1.83463e-05
*RES
1 *4371:X *4891:D 11.73 
*END

*D_NET *135 0.000696991
*CONN
*I *4892:D I *D sky130_fd_sc_hd__dfxtp_1
*I *4411:X O *D sky130_fd_sc_hd__o211a_1
*CAP
1 *4892:D 0.000166297
2 *4411:X 0.000166297
3 *4892:D *4196:A1 2.39362e-05
4 *4892:D *1002:46 0.00034046
5 *4892:D *1002:54 0
*RES
1 *4411:X *4892:D 11.0437 
*END

*D_NET *136 0.000182791
*CONN
*I *4893:D I *D sky130_fd_sc_hd__dfxtp_1
*I *4456:X O *D sky130_fd_sc_hd__o211a_1
*CAP
1 *4893:D 8.42098e-05
2 *4456:X 8.42098e-05
3 *4893:D *779:29 1.43717e-05
4 *4893:D *845:18 0
*RES
1 *4456:X *4893:D 8.46375 
*END

*D_NET *137 0.000352723
*CONN
*I *4894:D I *D sky130_fd_sc_hd__dfxtp_1
*I *4503:X O *D sky130_fd_sc_hd__and2_1
*CAP
1 *4894:D 5.6486e-05
2 *4503:X 5.6486e-05
3 *4894:D *4236:B1 0.000164679
4 *4894:D *4502:S 7.70553e-06
5 *4894:D *4503:A 6.73665e-05
*RES
1 *4503:X *4894:D 9.22875 
*END

*D_NET *138 0.00151135
*CONN
*I *4895:D I *D sky130_fd_sc_hd__dfxtp_1
*I *4545:X O *D sky130_fd_sc_hd__o211a_1
*CAP
1 *4895:D 0.000217644
2 *4545:X 0.000217644
3 *4895:D *4544:B1 0
4 *4895:D *498:14 0
5 *4895:D *828:30 2.20732e-05
6 *4895:D *838:118 0.000659778
7 *4895:D *1012:15 0
8 *4895:D *1012:51 0.000394213
*RES
1 *4545:X *4895:D 14.3287 
*END

*D_NET *139 0.000266006
*CONN
*I *4896:D I *D sky130_fd_sc_hd__dfxtp_1
*I *4588:X O *D sky130_fd_sc_hd__o211a_1
*CAP
1 *4896:D 3.4e-05
2 *4588:X 3.4e-05
3 *4896:D *4588:B1 0.000151158
4 *4896:D *798:8 4.68485e-05
*RES
1 *4588:X *4896:D 4.56875 
*END

*D_NET *140 0.00035447
*CONN
*I *4897:D I *D sky130_fd_sc_hd__dfxtp_1
*I *4621:X O *D sky130_fd_sc_hd__o211a_1
*CAP
1 *4897:D 9.83644e-05
2 *4621:X 9.83644e-05
3 *4897:D *4621:A2 4.82863e-05
4 *4897:D *4897:CLK 1.73877e-05
5 *4897:D *574:25 1.43717e-05
6 *4897:D *671:14 3.90349e-05
7 *4897:D *849:43 3.86607e-05
*RES
1 *4621:X *4897:D 9.16875 
*END

*D_NET *141 0.000285937
*CONN
*I *4898:D I *D sky130_fd_sc_hd__dfxtp_1
*I *4656:X O *D sky130_fd_sc_hd__o211a_1
*CAP
1 *4898:D 6.69845e-05
2 *4656:X 6.69845e-05
3 *4898:D *800:14 0.000151967
*RES
1 *4656:X *4898:D 4.56875 
*END

*D_NET *142 0.000346154
*CONN
*I *4899:D I *D sky130_fd_sc_hd__dfxtp_1
*I *4685:X O *D sky130_fd_sc_hd__o211a_1
*CAP
1 *4899:D 2.36732e-05
2 *4685:X 2.36732e-05
3 *4899:D *4956:A 0.000149404
4 *4899:D *849:76 0.000149404
*RES
1 *4685:X *4899:D 4.56875 
*END

*D_NET *143 0.000383179
*CONN
*I *4900:D I *D sky130_fd_sc_hd__dfxtp_1
*I *4713:X O *D sky130_fd_sc_hd__o211a_1
*CAP
1 *4900:D 0.000122517
2 *4713:X 0.000122517
3 *4900:D *181:60 0
4 *4900:D *778:29 0
5 *4900:D *802:26 0.000128642
6 *4900:D *849:102 9.50342e-06
*RES
1 *4713:X *4900:D 9.49875 
*END

*D_NET *144 0.000459969
*CONN
*I *4901:D I *D sky130_fd_sc_hd__dfxtp_1
*I *4725:X O *D sky130_fd_sc_hd__o221a_1
*CAP
1 *4901:D 3.32406e-05
2 *4725:X 3.32406e-05
3 *4901:D *4205:A 0.000167476
4 *4901:D *846:41 0.000226012
*RES
1 *4725:X *4901:D 5.25875 
*END

*D_NET *145 0.000745718
*CONN
*I *4902:D I *D sky130_fd_sc_hd__dfxtp_1
*I *4733:X O *D sky130_fd_sc_hd__o211a_1
*CAP
1 *4902:D 0.000284263
2 *4733:X 0.000284263
3 *4902:D *4733:A1 4.66742e-05
4 *4902:D *4733:A2 1.47347e-05
5 *4902:D *4733:C1 1.41559e-05
6 *4902:D *4902:CLK 4.99477e-05
7 *4902:D *804:8 3.54965e-05
8 *4902:D *804:22 1.61831e-05
*RES
1 *4733:X *4902:D 7.44875 
*END

*D_NET *146 0.000908563
*CONN
*I *4903:D I *D sky130_fd_sc_hd__dfxtp_1
*I *4738:X O *D sky130_fd_sc_hd__o211a_1
*CAP
1 *4903:D 0.000237462
2 *4738:X 0.000237462
3 *4903:D *4903:CLK 0.000396771
4 *4903:D *833:19 3.68682e-05
*RES
1 *4738:X *4903:D 11.9137 
*END

*D_NET *147 0.000803247
*CONN
*I *4904:D I *D sky130_fd_sc_hd__dfxtp_1
*I *4745:X O *D sky130_fd_sc_hd__o211a_1
*CAP
1 *4904:D 0.0002642
2 *4745:X 0.0002642
3 *4904:D *4745:B1 0
4 *4904:D *181:60 0.000164686
5 *4904:D *777:21 0.000110161
*RES
1 *4745:X *4904:D 11.8387 
*END

*D_NET *148 0.000325836
*CONN
*I *4905:D I *D sky130_fd_sc_hd__dfxtp_1
*I *4750:X O *D sky130_fd_sc_hd__o211a_1
*CAP
1 *4905:D 1.85879e-05
2 *4750:X 1.85879e-05
3 *4905:D *777:70 0.000113663
4 *4905:D *777:76 2.30292e-05
5 *4905:D *833:95 0.000151967
*RES
1 *4750:X *4905:D 4.56875 
*END

*D_NET *149 0.000490433
*CONN
*I *4906:D I *D sky130_fd_sc_hd__dfxtp_2
*I *4760:X O *D sky130_fd_sc_hd__o211a_1
*CAP
1 *4906:D 0.000182012
2 *4760:X 0.000182012
3 *4906:D *4760:A1 4.00541e-06
4 *4906:D *777:117 0.000116573
5 *4906:D *833:74 5.83121e-06
*RES
1 *4760:X *4906:D 6.35 
*END

*D_NET *150 0.000311641
*CONN
*I *4907:D I *D sky130_fd_sc_hd__dfxtp_1
*I *4765:X O *D sky130_fd_sc_hd__o211a_1
*CAP
1 *4907:D 7.86512e-05
2 *4765:X 7.86512e-05
3 *4907:D *780:101 4.99619e-05
4 *4907:D *780:112 0.000104377
*RES
1 *4765:X *4907:D 5.075 
*END

*D_NET *151 0.000268538
*CONN
*I *4908:D I *D sky130_fd_sc_hd__dfxtp_1
*I *4773:X O *D sky130_fd_sc_hd__o211a_1
*CAP
1 *4908:D 3.34252e-05
2 *4773:X 3.34252e-05
3 *4908:D *780:89 1.83756e-05
4 *4908:D *811:6 0.000149404
5 *4908:D *847:33 3.39081e-05
*RES
1 *4773:X *4908:D 4.56875 
*END

*D_NET *152 0.000375022
*CONN
*I *4909:D I *D sky130_fd_sc_hd__dfxtp_1
*I *4778:Y O *D sky130_fd_sc_hd__a211oi_1
*CAP
1 *4909:D 0.000128506
2 *4778:Y 0.000128506
3 *4909:D *4777:B 5.37091e-05
4 *4909:D *4778:A2 0
5 *4909:D *4778:B1 0
6 *4909:D *4790:A 0
7 *4909:D *780:47 1.22676e-05
8 *4909:D *780:73 5.20335e-05
9 *4909:D *834:60 0
*RES
1 *4778:Y *4909:D 9.57375 
*END

*D_NET *153 0.00102463
*CONN
*I *4910:D I *D sky130_fd_sc_hd__dfxtp_2
*I *4786:X O *D sky130_fd_sc_hd__o211a_1
*CAP
1 *4910:D 0.000243436
2 *4786:X 0.000243436
3 *4910:D *4786:B1 8.97486e-05
4 *4910:D *4903:CLK 8.53113e-06
5 *4910:D *4910:CLK 1.43717e-05
6 *4910:D *780:12 0.00015212
7 *4910:D *813:12 0.000272984
*RES
1 *4786:X *4910:D 11.7487 
*END

*D_NET *154 0.000412429
*CONN
*I *4911:D I *D sky130_fd_sc_hd__dfxtp_1
*I *4791:Y O *D sky130_fd_sc_hd__a211oi_1
*CAP
1 *4911:D 0.000146121
2 *4791:Y 0.000146121
3 *4911:D *1002:22 0.000120186
*RES
1 *4791:Y *4911:D 9.75375 
*END

*D_NET *155 0.000478057
*CONN
*I *4912:D I *D sky130_fd_sc_hd__dfxtp_1
*I *4799:X O *D sky130_fd_sc_hd__o211a_1
*CAP
1 *4912:D 8.97475e-05
2 *4799:X 8.97475e-05
3 *4912:D *4239:A 0.000141599
4 *4912:D *832:134 0.000154304
5 *4912:D *845:88 2.65814e-06
*RES
1 *4799:X *4912:D 9.42375 
*END

*D_NET *156 0.000434336
*CONN
*I *4913:D I *D sky130_fd_sc_hd__dfxtp_1
*I *4804:Y O *D sky130_fd_sc_hd__a211oi_1
*CAP
1 *4913:D 0.000110952
2 *4804:Y 0.000110952
3 *4913:D *779:25 5.01066e-05
4 *4913:D *832:61 0.000162325
*RES
1 *4804:Y *4913:D 9.57375 
*END

*D_NET *157 0.000219936
*CONN
*I *4914:D I *D sky130_fd_sc_hd__dfxtp_1
*I *4815:X O *D sky130_fd_sc_hd__o211a_1
*CAP
1 *4914:D 6.14148e-05
2 *4815:X 6.14148e-05
3 *4914:D *4243:A 9.71067e-05
4 *4914:D *845:12 0
*RES
1 *4815:X *4914:D 8.46375 
*END

*D_NET *158 0.000304792
*CONN
*I *4915:D I *D sky130_fd_sc_hd__dfxtp_1
*I *4820:Y O *D sky130_fd_sc_hd__a211oi_1
*CAP
1 *4915:D 6.91884e-05
2 *4820:Y 6.91884e-05
3 *4915:D *4819:B 1.43717e-05
4 *4915:D *4820:B1 7.71765e-05
5 *4915:D *4915:CLK 7.48667e-05
*RES
1 *4820:Y *4915:D 8.97375 
*END

*D_NET *159 0.000449458
*CONN
*I *4916:D I *D sky130_fd_sc_hd__dfxtp_1
*I *4831:Y O *D sky130_fd_sc_hd__a211oi_2
*CAP
1 *4916:D 0.000113079
2 *4831:Y 0.000113079
3 *4916:D *4244:A2 4.66108e-05
4 *4916:D *4244:C1 0.000162318
5 *4916:D *4916:CLK 1.43717e-05
*RES
1 *4831:Y *4916:D 9.67875 
*END

*D_NET *160 0.000285937
*CONN
*I *4917:D I *D sky130_fd_sc_hd__dfxtp_1
*I *4836:Y O *D sky130_fd_sc_hd__a211oi_1
*CAP
1 *4917:D 6.69845e-05
2 *4836:Y 6.69845e-05
3 *4917:D *4832:A 0.000151967
*RES
1 *4836:Y *4917:D 4.56875 
*END

*D_NET *161 0.00905254
*CONN
*I *4418:B1 I *D sky130_fd_sc_hd__o2bb2a_1
*I *4460:B2 I *D sky130_fd_sc_hd__o2bb2a_1
*I *4506:B2 I *D sky130_fd_sc_hd__o2bb2a_1
*I *4548:B2 I *D sky130_fd_sc_hd__o2bb2a_1
*I *4592:B2 I *D sky130_fd_sc_hd__o2bb2a_1
*I *4631:B2 I *D sky130_fd_sc_hd__o2bb2a_1
*I *4662:B2 I *D sky130_fd_sc_hd__o2bb2a_1
*I *4145:Y O *D sky130_fd_sc_hd__inv_2
*CAP
1 *4418:B1 0.00052866
2 *4460:B2 0
3 *4506:B2 0
4 *4548:B2 3.44213e-05
5 *4592:B2 4.95778e-05
6 *4631:B2 3.83895e-05
7 *4662:B2 8.62193e-05
8 *4145:Y 0
9 *161:65 0.000817342
10 *161:52 0.00075494
11 *161:41 0.000726574
12 *161:30 0.000383748
13 *161:19 0.000252738
14 *161:6 0.000192292
15 *4418:B1 *4415:A 9.62973e-05
16 *4418:B1 *4417:D 0.00037741
17 *4418:B1 *4461:A_N 0.000272973
18 *4418:B1 *4462:A 9.54399e-05
19 *4418:B1 *796:36 1.0183e-05
20 *4418:B1 *977:52 4.9968e-05
21 *4418:B1 *977:68 0
22 *4418:B1 *1003:30 1.71207e-05
23 *4418:B1 *1003:45 0
24 *4548:B2 *977:31 8.65905e-05
25 *4592:B2 *4592:A2_N 6.33103e-05
26 *4592:B2 *4592:B1 8.23457e-05
27 *4631:B2 *580:20 8.49205e-05
28 *4662:B2 *4662:A1_N 8.40213e-05
29 *4662:B2 *642:18 8.57024e-05
30 *4662:B2 *975:52 0.000160651
31 *4662:B2 *976:74 0.000100188
32 *4662:B2 *977:31 0
33 *4662:B2 *994:94 9.30787e-05
34 *161:19 *4632:A_N 0.000105841
35 *161:19 *976:74 0.000120186
36 *161:19 *976:87 0.000201335
37 *161:19 *977:31 0
38 *161:30 *4592:B1 2.92496e-05
39 *161:30 *4632:A_N 0.000175867
40 *161:30 *976:87 8.53113e-06
41 *161:30 *976:98 0.000350399
42 *161:41 *4506:A1_N 0.000172838
43 *161:41 *4592:B1 0.000172845
44 *161:41 *976:98 8.53113e-06
45 *161:41 *976:109 0.000151432
46 *161:41 *976:122 0.000376542
47 *161:41 *977:31 0
48 *161:41 *996:100 4.11198e-05
49 *161:41 *998:98 0.000361306
50 *161:52 *4467:A 0
51 *161:52 *4506:A1_N 0.000858429
52 *161:52 *4516:B 0
53 *161:52 *977:31 0
54 *161:52 *978:96 0
55 *161:52 *979:61 4.27745e-05
56 *161:52 *1003:10 0
57 *161:52 *1003:30 0
58 *161:65 *4461:A_N 4.99619e-05
59 *161:65 *979:61 0.00017974
60 *161:65 *1003:30 0
61 *161:65 *1006:14 2.0514e-05
*RES
1 *4145:Y *161:6 3.6 
2 *161:6 *4662:B2 6.795 
3 *161:6 *161:19 3.675 
4 *161:19 *4631:B2 4.395 
5 *161:19 *161:30 4.185 
6 *161:30 *4592:B2 4.74 
7 *161:30 *161:41 8.265 
8 *161:41 *4548:B2 4.395 
9 *161:41 *161:52 10.815 
10 *161:52 *4506:B2 3.6 
11 *161:52 *161:65 8 
12 *161:65 *4460:B2 1.6 
13 *161:65 *4418:B1 17.54 
*END

*D_NET *162 0.000260123
*CONN
*I *4151:A I *D sky130_fd_sc_hd__or2_1
*I *4146:Y O *D sky130_fd_sc_hd__inv_2
*CAP
1 *4151:A 6.37342e-05
2 *4146:Y 6.37342e-05
3 *4151:A *4153:A 4.60584e-05
4 *4151:A *4153:B 8.65961e-05
*RES
1 *4146:Y *4151:A 4.685 
*END

*D_NET *163 0.0129629
*CONN
*I *4951:A I *D sky130_fd_sc_hd__clkbuf_4
*I *4946:A I *D sky130_fd_sc_hd__buf_2
*I *4147:Y O *D sky130_fd_sc_hd__inv_2
*CAP
1 *4951:A 0.000217305
2 *4946:A 0.000873545
3 *4147:Y 0.000838227
4 *163:19 0.0041181
5 *163:6 0.00561257
6 *4951:A *4200:B1 0
7 *4951:A *4950:A 8.7074e-05
8 *4951:A *5010:A 0.000221846
9 *4951:A *5098:A 0.000131525
10 *4951:A *849:12 0.000431588
11 *163:19 *4245:A 0.000250093
12 *163:19 *820:36 0.000180988
*RES
1 *4147:Y *163:6 13.09 
2 *163:6 *4946:A 20.24 
3 *163:6 *163:19 54.96 
4 *163:19 *4951:A 12.02 
*END

*D_NET *164 0.00622731
*CONN
*I *4149:D_N I *D sky130_fd_sc_hd__or4b_1
*I *4148:X O *D sky130_fd_sc_hd__and3_1
*CAP
1 *4149:D_N 0
2 *4148:X 3.19106e-05
3 *164:14 0.00252209
4 *164:8 0.002554
5 *164:8 *831:18 4.99619e-05
6 *164:14 *4149:C 5.48629e-05
7 *164:14 *4154:D 4.82863e-05
8 *164:14 *4161:A 0
9 *164:14 *4172:A 0
10 *164:14 *4172:B 7.23533e-05
11 *164:14 *4185:A1 0
12 *164:14 *4188:A1 0
13 *164:14 *4998:A 0
14 *164:14 *5080:A 0.000108031
15 *164:14 *5091:A 0
16 *164:14 *169:26 7.21296e-06
17 *164:14 *181:12 0.000355218
18 *164:14 *831:8 5.72091e-05
19 *164:14 *831:14 5.21714e-05
20 *164:14 *839:40 0
21 *164:14 *839:49 0
22 *164:14 *839:62 0
23 *164:14 *926:12 4.49498e-05
24 *164:14 *936:8 0
25 *164:14 *936:21 0
26 *164:14 *950:8 0
27 *164:14 *953:12 4.49498e-05
28 rdata[2] *164:14 0
29 rdata[3] *164:14 0
30 *4848:D *164:14 0.000143266
31 *4849:D *164:14 8.08439e-05
32 *4888:D *164:14 0
*RES
1 *4148:X *164:8 4.05 
2 *164:8 *164:14 48.965 
3 *164:14 *4149:D_N 1.6 
*END

*D_NET *165 0.00145061
*CONN
*I *4152:B I *D sky130_fd_sc_hd__nor3_1
*I *4149:X O *D sky130_fd_sc_hd__or4b_1
*CAP
1 *4152:B 0.000324674
2 *4149:X 0.000324674
3 *4152:B *4154:D 0.000139438
4 *4152:B *4176:A 0.000164679
5 *4152:B *4176:B 0.000321522
6 *4152:B *168:10 0.00017562
*RES
1 *4149:X *4152:B 14.835 
*END

*D_NET *166 0.00139239
*CONN
*I *4153:B I *D sky130_fd_sc_hd__or2_1
*I *4151:B I *D sky130_fd_sc_hd__or2_1
*I *4150:X O *D sky130_fd_sc_hd__or4_1
*CAP
1 *4153:B 3.90918e-05
2 *4151:B 0
3 *4150:X 0.000362272
4 *166:12 0.000401364
5 *4153:B *4153:A 0.000203178
6 *4153:B *167:6 4.99619e-05
7 *166:12 *4150:A 0.000249928
8 *4151:A *4153:B 8.65961e-05
9 *4837:D *166:12 0
*RES
1 *4150:X *166:12 12.02 
2 *166:12 *4151:B 1.6 
3 *166:12 *4153:B 3.43 
*END

*D_NET *167 0.000721699
*CONN
*I *4152:C I *D sky130_fd_sc_hd__nor3_1
*I *4176:A I *D sky130_fd_sc_hd__nor2_2
*I *4151:X O *D sky130_fd_sc_hd__or2_1
*CAP
1 *4152:C 0
2 *4176:A 4.94708e-05
3 *4151:X 0.000120936
4 *167:6 0.000170406
5 *4176:A *168:10 0.000120186
6 *167:6 *4153:A 4.60584e-05
7 *4152:B *4176:A 0.000164679
8 *4153:B *167:6 4.99619e-05
*RES
1 *4151:X *167:6 3.775 
2 *167:6 *4176:A 7.49 
3 *167:6 *4152:C 1.6 
*END

*D_NET *168 0.00157124
*CONN
*I *4173:A I *D sky130_fd_sc_hd__nor2_4
*I *4154:D I *D sky130_fd_sc_hd__nor4_1
*I *4153:X O *D sky130_fd_sc_hd__or2_1
*CAP
1 *4173:A 0
2 *4154:D 0.000255096
3 *4153:X 0.000239463
4 *168:10 0.000494559
5 *4154:D *4149:C 6.77501e-05
6 *4154:D *169:26 1.34503e-05
7 *168:10 *4172:A 0
8 *168:10 *4176:B 1.44177e-05
9 *168:10 *179:10 2.97004e-06
10 *168:10 *925:23 0
11 *4152:B *4154:D 0.000139438
12 *4152:B *168:10 0.00017562
13 *4176:A *168:10 0.000120186
14 *164:14 *4154:D 4.82863e-05
*RES
1 *4153:X *168:10 11.06 
2 *168:10 *4154:D 6.31 
3 *168:10 *4173:A 1.6 
*END

*D_NET *169 0.00442386
*CONN
*I *5068:A I *D sky130_fd_sc_hd__clkbuf_2
*I *4187:A2 I *D sky130_fd_sc_hd__a211o_1
*I *4154:Y O *D sky130_fd_sc_hd__nor4_1
*CAP
1 *5068:A 8.471e-05
2 *4187:A2 5.21748e-05
3 *4154:Y 0.000899251
4 *169:26 0.00103614
5 *4187:A2 *182:80 6.94735e-06
6 *4187:A2 *1001:10 0.000126569
7 *4187:A2 *1001:44 9.09788e-06
8 *4187:A2 *1010:22 9.16315e-05
9 *5068:A *4986:A 0.000124471
10 *5068:A *843:42 0.000347691
11 *5068:A *1001:10 0.000121031
12 *169:26 *4149:C 0.000162311
13 *169:26 *4172:A 9.37731e-05
14 *169:26 *4172:B 8.52637e-05
15 *169:26 *5096:A 4.0843e-05
16 *169:26 *182:80 1.24187e-05
17 *169:26 *830:25 8.65905e-05
18 *169:26 *839:62 0.00072761
19 *169:26 *1010:22 0.000294673
20 *4154:D *169:26 1.34503e-05
21 *164:14 *169:26 7.21296e-06
*RES
1 *4154:Y *169:26 23.965 
2 *169:26 *4187:A2 5.49 
3 *169:26 *5068:A 6.81 
*END

*D_NET *170 0.0143717
*CONN
*I *4156:S I *D sky130_fd_sc_hd__mux2_1
*I *4158:S I *D sky130_fd_sc_hd__mux2_1
*I *4166:S I *D sky130_fd_sc_hd__mux2_1
*I *4170:S I *D sky130_fd_sc_hd__mux2_1
*I *4168:S I *D sky130_fd_sc_hd__mux2_1
*I *4164:S I *D sky130_fd_sc_hd__mux2_1
*I *4162:S I *D sky130_fd_sc_hd__mux2_1
*I *4160:S I *D sky130_fd_sc_hd__mux2_1
*I *4155:X O *D sky130_fd_sc_hd__and3_4
*CAP
1 *4156:S 0
2 *4158:S 0.000388934
3 *4166:S 7.25856e-05
4 *4170:S 0
5 *4168:S 0.00032191
6 *4164:S 3.93703e-05
7 *4162:S 0.000321485
8 *4160:S 4.46228e-05
9 *4155:X 1.41866e-05
10 *170:98 0.000648136
11 *170:59 0.00082119
12 *170:55 0.00110671
13 *170:40 0.00126616
14 *170:27 0.00168296
15 *170:12 0.000999565
16 *170:6 0.0005588
17 *4158:S *4156:A1 3.13354e-05
18 *4158:S *4158:A1 0.00042877
19 *4158:S *4199:C1 0.000150784
20 *4158:S *182:10 9.06961e-05
21 *4158:S *224:10 0.000231423
22 *4160:S *4160:A0 7.00889e-06
23 *4160:S *1004:27 3.96653e-05
24 *4162:S *4841:CLK 6.5525e-05
25 *4162:S *4881:CLK 0
26 *4162:S *774:68 0
27 *4162:S *784:19 0
28 *4164:S *4260:S 1.16578e-05
29 *4164:S *998:25 2.30292e-05
30 *4166:S *4981:A 4.66108e-05
31 *4166:S *978:20 0.000244998
32 *4166:S *996:6 9.67657e-05
33 *4166:S *996:19 8.8266e-05
34 *4168:S *4168:A1 0.000198945
35 *4168:S *4170:A0 5.73739e-05
36 *4168:S *4170:A1 3.26889e-05
37 *4168:S *4977:A 4.70919e-05
38 *4168:S *4979:A 2.30292e-05
39 *4168:S *992:25 2.26018e-05
40 *170:6 *4155:C 8.65905e-05
41 *170:6 *842:17 8.65905e-05
42 *170:12 *4943:A 0.000137578
43 *170:12 *773:14 0
44 *170:12 *841:43 0.000152194
45 *170:27 *4165:A 0
46 *170:27 *4422:B 0.000154665
47 *170:27 *4881:CLK 0
48 *170:27 *4971:A 0
49 *170:27 *4972:A 0.000291365
50 *170:27 *773:14 0
51 *170:27 *784:19 0
52 *170:27 *986:21 0
53 *170:27 *986:48 0
54 *170:27 *1004:27 0.000264425
55 *170:40 *4164:A1 3.1835e-05
56 *170:40 *4165:A 2.49909e-05
57 *170:40 *4165:B 0.000394699
58 *170:40 *895:20 7.1907e-05
59 *170:40 *998:6 3.43327e-05
60 *170:40 *998:25 2.10134e-05
61 *170:55 *4166:A1 0.00023301
62 *170:55 *4169:A 5.7344e-05
63 *170:55 *4260:S 5.98073e-05
64 *170:55 *4981:A 0.000114492
65 *170:55 *895:20 0.000198178
66 *170:59 *4167:B 0.000118527
67 *170:59 *4168:A1 0
68 *170:59 *4169:A 0.000393829
69 *170:59 *4981:A 2.92496e-05
70 *170:59 *4982:A 0
71 *170:59 *975:105 0
72 *170:59 *992:25 0
73 *170:98 *4155:C 0.000503574
74 *170:98 *4156:A1 9.49111e-05
75 *170:98 *784:19 7.04264e-05
76 *170:98 *842:17 0.000521245
*RES
1 *4155:X *170:6 2.395 
2 *170:6 *170:12 9.97 
3 *170:12 *4160:S 2.395 
4 *170:12 *170:27 15.47 
5 *170:27 *4162:S 9.06 
6 *170:27 *170:40 11.075 
7 *170:40 *4164:S 2.665 
8 *170:40 *170:55 10.04 
9 *170:55 *170:59 12.56 
10 *170:59 *4168:S 7.6 
11 *170:59 *4170:S 1.6 
12 *170:55 *4166:S 6.945 
13 *170:6 *170:98 12.025 
14 *170:98 *4158:S 10.015 
15 *170:98 *4156:S 1.6 
*END

*D_NET *171 0.000611364
*CONN
*I *4157:B I *D sky130_fd_sc_hd__and2_1
*I *4156:X O *D sky130_fd_sc_hd__mux2_1
*CAP
1 *4157:B 0.000169186
2 *4156:X 0.000169186
3 *4157:B *4249:C 2.86975e-05
4 *4157:B *4838:CLK 0.000122801
5 *4157:B *180:67 3.62086e-05
6 *4157:B *986:48 0
7 *4838:D *4157:B 8.52845e-05
*RES
1 *4156:X *4157:B 10.515 
*END

*D_NET *172 0.000550718
*CONN
*I *4159:B I *D sky130_fd_sc_hd__and2_1
*I *4158:X O *D sky130_fd_sc_hd__mux2_1
*CAP
1 *4159:B 0.000168363
2 *4158:X 0.000168363
3 *4159:B *4975:A 4.91189e-05
4 *4159:B *180:78 0.000164874
5 *4159:B *866:25 0
*RES
1 *4158:X *4159:B 10.065 
*END

*D_NET *173 0.00041561
*CONN
*I *4161:B I *D sky130_fd_sc_hd__and2_1
*I *4160:X O *D sky130_fd_sc_hd__mux2_1
*CAP
1 *4161:B 0.00016451
2 *4160:X 0.00016451
3 *4161:B *4161:A 8.65905e-05
*RES
1 *4160:X *4161:B 5.99 
*END

*D_NET *174 0.000702138
*CONN
*I *4163:B I *D sky130_fd_sc_hd__and2_1
*I *4162:X O *D sky130_fd_sc_hd__mux2_1
*CAP
1 *4163:B 0.000275865
2 *4162:X 0.000275865
3 *4163:B *4257:A 0.000140905
4 *4163:B *4881:CLK 0
5 *4163:B *840:14 9.50342e-06
*RES
1 *4162:X *4163:B 11.01 
*END

*D_NET *175 0.000768445
*CONN
*I *4165:B I *D sky130_fd_sc_hd__and2_1
*I *4164:X O *D sky130_fd_sc_hd__mux2_1
*CAP
1 *4165:B 9.65995e-05
2 *4164:X 9.65995e-05
3 *4165:B *4983:A 5.30673e-05
4 *4165:B *895:20 7.89304e-05
5 *4165:B *998:6 4.85494e-05
6 *170:40 *4165:B 0.000394699
*RES
1 *4164:X *4165:B 7.37 
*END

*D_NET *176 0.000879139
*CONN
*I *4167:B I *D sky130_fd_sc_hd__and2_1
*I *4166:X O *D sky130_fd_sc_hd__mux2_1
*CAP
1 *4167:B 0.000223722
2 *4166:X 0.000223722
3 *4167:B *4167:A 1.62913e-05
4 *4167:B *4843:CLK 4.99619e-05
5 *4167:B *4982:A 0
6 *4167:B *1000:37 0.000159361
7 *4843:D *4167:B 8.75538e-05
8 *170:59 *4167:B 0.000118527
*RES
1 *4166:X *4167:B 12.615 
*END

*D_NET *177 0.000319218
*CONN
*I *4169:B I *D sky130_fd_sc_hd__and2_1
*I *4168:X O *D sky130_fd_sc_hd__mux2_1
*CAP
1 *4169:B 5.88319e-05
2 *4168:X 5.88319e-05
3 *4169:B *4844:CLK 6.28765e-05
4 *4169:B *984:27 2.75145e-05
5 *4169:B *992:25 0.000111163
*RES
1 *4168:X *4169:B 9.03 
*END

*D_NET *178 0.000417752
*CONN
*I *4171:B I *D sky130_fd_sc_hd__and2_1
*I *4170:X O *D sky130_fd_sc_hd__mux2_1
*CAP
1 *4171:B 0.000165581
2 *4170:X 0.000165581
3 *4171:B *4170:A1 0
4 *4171:B *4171:A 8.65905e-05
*RES
1 *4170:X *4171:B 5.99 
*END

*D_NET *179 0.00175336
*CONN
*I *4176:B I *D sky130_fd_sc_hd__nor2_2
*I *4173:B I *D sky130_fd_sc_hd__nor2_4
*I *4172:X O *D sky130_fd_sc_hd__or3b_2
*CAP
1 *4176:B 0.00016557
2 *4173:B 0
3 *4172:X 0.000381152
4 *179:10 0.000546722
5 *4176:B *1010:22 0
6 *179:10 *4172:A 0
7 *179:10 *4172:C_N 8.57024e-05
8 *179:10 *5096:A 0.000110549
9 *179:10 *180:12 0.000124752
10 *179:10 *839:62 0
11 *179:10 *1010:22 0
12 *4152:B *4176:B 0.000321522
13 *168:10 *4176:B 1.44177e-05
14 *168:10 *179:10 2.97004e-06
*RES
1 *4172:X *179:10 9.72 
2 *179:10 *4173:B 3.6 
3 *179:10 *4176:B 7.785 
*END

*D_NET *180 0.0199534
*CONN
*I *4186:A2 I *D sky130_fd_sc_hd__a22o_1
*I *4189:B1 I *D sky130_fd_sc_hd__a22o_1
*I *4183:B1 I *D sky130_fd_sc_hd__a22o_1
*I *4180:B1 I *D sky130_fd_sc_hd__a22o_1
*I *4199:B1 I *D sky130_fd_sc_hd__a221o_1
*I *4195:B1 I *D sky130_fd_sc_hd__a22o_1
*I *4192:B1 I *D sky130_fd_sc_hd__a22o_1
*I *4249:C I *D sky130_fd_sc_hd__and3_4
*I *4178:A2 I *D sky130_fd_sc_hd__a211o_1
*I *4173:Y O *D sky130_fd_sc_hd__nor2_4
*CAP
1 *4186:A2 7.36154e-05
2 *4189:B1 0.00070469
3 *4183:B1 0
4 *4180:B1 0
5 *4199:B1 0.000111631
6 *4195:B1 0
7 *4192:B1 0.000118983
8 *4249:C 0.000118271
9 *4178:A2 0.000122334
10 *4173:Y 0.000518886
11 *180:125 0.000911637
12 *180:86 0.000953533
13 *180:78 0.00162918
14 *180:67 0.00124775
15 *180:48 0.000641432
16 *180:44 0.00102426
17 *180:22 0.00155417
18 *180:12 0.00125474
19 *4178:A2 *4178:A1 0.000237257
20 *4178:A2 *986:48 5.92849e-05
21 *4186:A2 *4186:B1 0
22 *4186:A2 *4186:B2 0
23 *4186:A2 *4187:C1 5.37803e-06
24 *4186:A2 *182:68 2.75119e-06
25 *4186:A2 *1001:44 5.08664e-05
26 *4189:B1 *4189:A1 2.11084e-05
27 *4189:B1 *4190:B1 3.54025e-05
28 *4189:B1 *973:24 8.65961e-05
29 *4189:B1 *974:14 0.00010131
30 *4189:B1 *1001:44 0
31 *4189:B1 *1010:22 0
32 *4192:B1 *772:48 5.02217e-05
33 *4192:B1 *859:29 9.54469e-05
34 *4192:B1 *973:24 5.83121e-06
35 *4192:B1 *973:35 4.21973e-05
36 *4199:B1 *4199:B2 1.12643e-05
37 *4199:B1 *4199:C1 2.05056e-05
38 *4199:B1 *5107:A 5.83121e-06
39 *4249:C *182:10 0.000309104
40 *180:12 *4188:B1 0.000198939
41 *180:12 *182:68 0.000141284
42 *180:12 *775:22 0
43 *180:12 *775:26 0
44 *180:12 *839:62 0
45 *180:12 *843:42 0
46 *180:12 *955:10 0
47 *180:12 *1010:22 0
48 *180:22 *182:68 0
49 *180:22 *843:42 0.000160651
50 *180:22 *972:32 0.000231564
51 *180:22 *974:14 0
52 *180:22 *1010:22 0.000223881
53 *180:44 *4177:B1 4.746e-05
54 *180:44 *4181:B1 4.41506e-05
55 *180:44 *4183:A1 1.47256e-05
56 *180:44 *4183:A2 0.000337239
57 *180:44 *4183:B2 1.85674e-05
58 *180:44 *182:39 5.44672e-05
59 *180:44 *784:19 7.14438e-05
60 *180:44 *841:18 6.88421e-05
61 *180:44 *974:14 2.07184e-05
62 *180:44 *974:24 0.000967399
63 *180:44 *986:48 4.77757e-05
64 *180:44 *986:57 0.000223918
65 *180:48 *4178:A1 0.000187807
66 *180:48 *4180:A1 2.90115e-05
67 *180:48 *4180:A2 8.35106e-05
68 *180:48 *4180:B2 5.12969e-06
69 *180:67 *4155:C 0.000682982
70 *180:67 *4178:A1 4.05053e-05
71 *180:67 *974:26 0.000160118
72 *180:67 *986:48 0
73 *180:78 *4158:A0 0.000163204
74 *180:78 *4199:C1 0.00109597
75 *180:78 *182:10 0.000273804
76 *180:78 *1005:6 7.66083e-05
77 *180:86 *4192:B2 0.000150102
78 *180:86 *4384:B1 0.000118513
79 *180:86 *4973:A 0.000131069
80 *180:86 *797:12 0
81 *180:86 *859:16 0.00105016
82 *180:86 *987:41 0
83 *180:125 *4187:C1 2.25186e-05
84 *180:125 *4188:B1 7.14699e-05
85 *180:125 *182:68 9.94617e-05
86 *180:125 *1001:44 0.000158464
87 *4157:B *4249:C 2.86975e-05
88 *4157:B *180:67 3.62086e-05
89 *4159:B *180:78 0.000164874
90 *179:10 *180:12 0.000124752
*RES
1 *4173:Y *180:12 15.95 
2 *180:12 *180:22 16.39 
3 *180:22 *180:44 28.445 
4 *180:44 *180:48 2.19 
5 *180:48 *4178:A2 8.72 
6 *180:48 *180:67 13.795 
7 *180:67 *4249:C 4.465 
8 *180:67 *180:78 15.3 
9 *180:78 *180:86 22.6 
10 *180:86 *4192:B1 7.88 
11 *180:86 *4195:B1 1.6 
12 *180:78 *4199:B1 3.085 
13 *180:44 *4180:B1 1.6 
14 *180:22 *4183:B1 1.6 
15 *180:12 *180:125 3.21 
16 *180:125 *4189:B1 16.13 
17 *180:125 *4186:A2 3.115 
*END

*D_NET *181 0.0408024
*CONN
*I *4941:A I *D sky130_fd_sc_hd__clkbuf_4
*I *4230:A2 I *D sky130_fd_sc_hd__o221a_1
*I *4232:A2 I *D sky130_fd_sc_hd__o221a_1
*I *4234:A2 I *D sky130_fd_sc_hd__o221a_1
*I *4942:A I *D sky130_fd_sc_hd__clkbuf_4
*I *1013:DIODE I *D sky130_fd_sc_hd__diode_2
*I *4174:X O *D sky130_fd_sc_hd__and2b_4
*CAP
1 *4941:A 0.000625406
2 *4230:A2 0.000188086
3 *4232:A2 0.00209054
4 *4234:A2 0
5 *4942:A 3.25158e-05
6 *1013:DIODE 0
7 *4174:X 0.000491765
8 *181:71 0.00274326
9 *181:60 0.00254754
10 *181:56 0.00589184
11 *181:50 0.00463931
12 *181:44 0.00482366
13 *181:23 0.00351337
14 *181:12 0.000604737
15 *4230:A2 *4228:C1 5.57182e-05
16 *4230:A2 *4229:A 0.00037511
17 *4230:A2 *4229:B 2.75229e-05
18 *4230:A2 *4230:B1 0.0007649
19 *4230:A2 *4230:B2 0.000311847
20 *4230:A2 *847:147 4.24022e-05
21 *4232:A2 *4229:A 0.000320306
22 *4232:A2 *4232:B1 5.19006e-06
23 *4232:A2 *4232:B2 2.69153e-05
24 *4232:A2 *4232:C1 1.08758e-05
25 *4232:A2 *847:33 0
26 *4232:A2 *847:147 2.30292e-05
27 *4232:A2 *967:64 0.00190275
28 *4941:A *4207:B 6.19997e-05
29 *4941:A *4208:A1 0
30 *4941:A *4208:A2 0.000628973
31 *4941:A *4211:A 0.000199496
32 *4941:A *4212:B2 0.000122184
33 *4941:A *4857:CLK 1.85465e-05
34 *4941:A *838:8 7.44125e-05
35 *4941:A *849:55 0
36 *4941:A *849:102 0
37 *4941:A *971:89 0
38 *4941:A *971:91 0
39 *181:12 *4161:A 0
40 *181:44 *4177:B2 2.18022e-05
41 *181:44 *4178:B1 0.000326539
42 *181:44 *4179:B1 0.000234169
43 *181:44 *4266:A1 9.9976e-05
44 *181:44 *4268:A 2.11084e-05
45 *181:44 *4268:B 8.73389e-06
46 *181:44 *4376:A 1.34594e-05
47 *181:44 *4431:A1 2.49909e-05
48 *181:44 *4431:B1 0.000130209
49 *181:44 *4886:CLK 9.27495e-05
50 *181:44 *385:12 0.000312958
51 *181:44 *391:12 0.000217411
52 *181:44 *441:10 0.000164686
53 *181:44 *984:59 0
54 *181:44 *1007:42 8.40213e-05
55 *181:44 *1008:14 0
56 *181:50 *4414:B 4.66108e-05
57 *181:50 *4414:D 2.16833e-05
58 *181:50 *4419:B 0.000124895
59 *181:50 *379:12 0.000375476
60 *181:50 *392:12 0.000954762
61 *181:50 *979:89 0.000161529
62 *181:50 *1006:45 1.34594e-05
63 *181:56 *4207:A 0.000539035
64 *181:56 *4207:B 0.000218936
65 *181:56 *4577:A 0.00011577
66 *181:56 *4577:B 0.000280844
67 *181:56 *4581:A 0.000200615
68 *181:60 *4204:B1 7.44453e-05
69 *181:60 *4205:A 0.000205368
70 *181:60 *4219:A 0
71 *181:60 *4223:B 0
72 *181:60 *4225:A 9.24049e-05
73 *181:60 *4234:B2 0.000116165
74 *181:60 *4725:A1 0
75 *181:60 *4744:B 0
76 *181:60 *4745:B1 0
77 *181:60 *4745:C1 0
78 *181:60 *4866:CLK 0
79 *181:60 *4901:CLK 0
80 *181:60 *5041:A 0
81 *181:60 *183:69 0
82 *181:60 *777:12 0
83 *181:60 *778:8 0
84 *181:60 *847:62 0
85 *181:60 *847:70 0
86 *181:60 *849:102 0
87 *181:60 *970:52 0.000181841
88 *181:60 *971:70 0.000161492
89 *181:71 *4229:A 2.92496e-05
90 *181:71 *4866:CLK 0
91 *181:71 *183:69 0
92 *181:71 *847:33 0
93 *181:71 *847:35 0
94 *181:71 *847:39 0
95 *181:71 *967:68 0.000912339
96 *4869:D *4232:A2 0.000538596
97 *4900:D *181:60 0
98 *4904:D *181:60 0.000164686
99 *164:14 *181:12 0.000355218
*RES
1 *4174:X *181:12 14.675 
2 *181:12 *1013:DIODE 1.6 
3 *181:12 *181:23 1.605 
4 *181:23 *4942:A 2.215 
5 *181:23 *181:44 49.85 
6 *181:44 *181:50 30.2375 
7 *181:50 *181:56 46.6275 
8 *181:56 *181:60 40.1 
9 *181:60 *4234:A2 3.6 
10 *181:60 *181:71 12.815 
11 *181:71 *4232:A2 42.05 
12 *181:71 *4230:A2 10 
13 *181:56 *4941:A 18.995 
*END

*D_NET *182 0.0210526
*CONN
*I *4199:C1 I *D sky130_fd_sc_hd__a221o_1
*I *4181:C1 I *D sky130_fd_sc_hd__a211o_1
*I *4187:B1 I *D sky130_fd_sc_hd__a211o_1
*I *4196:C1 I *D sky130_fd_sc_hd__a211o_1
*I *4190:C1 I *D sky130_fd_sc_hd__a211o_1
*I *4193:C1 I *D sky130_fd_sc_hd__a211o_1
*I *4184:C1 I *D sky130_fd_sc_hd__a211o_1
*I *4178:B1 I *D sky130_fd_sc_hd__a211o_1
*I *4175:Y O *D sky130_fd_sc_hd__nand2b_4
*CAP
1 *4199:C1 0.000434232
2 *4181:C1 0
3 *4187:B1 0
4 *4196:C1 4.77249e-05
5 *4190:C1 0.000126095
6 *4193:C1 0
7 *4184:C1 0
8 *4178:B1 0.000140304
9 *4175:Y 0.000274114
10 *182:91 0.000561624
11 *182:80 0.00177662
12 *182:68 0.00229581
13 *182:53 0.00155286
14 *182:39 0.00101983
15 *182:14 0.000697664
16 *182:10 0.000891743
17 *4178:B1 *4177:A1 3.40331e-05
18 *4178:B1 *4177:A2 5.29349e-05
19 *4178:B1 *4177:B2 2.49909e-05
20 *4178:B1 *4178:C1 2.15234e-05
21 *4190:C1 *4190:A1 0.00062196
22 *4190:C1 *183:18 8.65905e-05
23 *4190:C1 *972:99 2.96334e-05
24 *4190:C1 *972:116 4.43682e-05
25 *4190:C1 *1010:131 0.000709012
26 *4196:C1 *972:116 0.000115484
27 *4196:C1 *1010:131 0.000267241
28 *4199:C1 *4158:A1 0.00042877
29 *182:10 *4156:A1 4.10367e-05
30 *182:10 *4249:A 0.00012657
31 *182:10 *4249:B 4.35348e-05
32 *182:10 *224:10 0.000180338
33 *182:14 *784:19 0.000643694
34 *182:14 *1004:43 0.000644671
35 *182:14 *1007:42 4.43871e-06
36 *182:39 *4177:B1 0.000270089
37 *182:39 *4181:B1 0.00023178
38 *182:39 *4268:B 9.30787e-05
39 *182:39 *234:25 0.000249928
40 *182:39 *784:19 3.41713e-05
41 *182:39 *1004:43 1.18408e-05
42 *182:39 *1007:42 8.9283e-05
43 *182:39 *1007:55 8.28738e-05
44 *182:39 *1007:74 0.000219012
45 *182:53 *4161:A 0.000155444
46 *182:53 *4184:A2 1.03755e-05
47 *182:53 *4278:A2 9.4087e-05
48 *182:53 *808:8 8.34281e-06
49 *182:53 *808:21 4.41506e-05
50 *182:53 *972:32 0
51 *182:53 *972:51 0
52 *182:53 *986:48 0.000535811
53 *182:53 *1010:52 0.000544554
54 *182:68 *4187:C1 1.50651e-05
55 *182:68 *775:26 0
56 *182:68 *819:23 0
57 *182:68 *843:42 0
58 *182:68 *972:32 0
59 *182:68 *1010:52 0.000489586
60 *182:80 *4193:B1 0.00031682
61 *182:80 *4304:A 2.96426e-05
62 *182:80 *4305:A1 8.57024e-05
63 *182:80 *4306:B 4.99619e-05
64 *182:80 *4309:B 0.00011577
65 *182:80 *268:8 0
66 *182:80 *268:23 0
67 *182:80 *843:42 0.000385816
68 *182:80 *1001:10 7.1377e-05
69 *182:80 *1001:44 5.18317e-06
70 *182:91 *4193:A2 0.000288695
71 *182:91 *4196:B1 0
72 *182:91 *4332:A 0
73 *182:91 *4334:A_N 0
74 *182:91 *268:23 0
75 *182:91 *823:40 0
76 *4158:S *4199:C1 0.000150784
77 *4158:S *182:10 9.06961e-05
78 *4186:A2 *182:68 2.75119e-06
79 *4187:A2 *182:80 6.94735e-06
80 *4199:B1 *4199:C1 2.05056e-05
81 *4249:C *182:10 0.000309104
82 *169:26 *182:80 1.24187e-05
83 *180:12 *182:68 0.000141284
84 *180:22 *182:68 0
85 *180:44 *182:39 5.44672e-05
86 *180:78 *4199:C1 0.00109597
87 *180:78 *182:10 0.000273804
88 *180:125 *182:68 9.94617e-05
89 *181:44 *4178:B1 0.000326539
*RES
1 *4175:Y *182:10 9.76 
2 *182:10 *182:14 9.755 
3 *182:14 *4178:B1 7.635 
4 *182:14 *182:39 12.185 
5 *182:39 *182:53 21.42 
6 *182:53 *4184:C1 3.6 
7 *182:53 *182:68 18.86 
8 *182:68 *182:80 28.395 
9 *182:80 *4193:C1 3.6 
10 *182:80 *182:91 10.265 
11 *182:91 *4190:C1 8.95 
12 *182:91 *4196:C1 4.12 
13 *182:68 *4187:B1 1.6 
14 *182:39 *4181:C1 1.6 
15 *182:10 *4199:C1 14.95 
*END

*D_NET *183 0.0317256
*CONN
*I *4961:A I *D sky130_fd_sc_hd__clkbuf_4
*I *4231:B I *D sky130_fd_sc_hd__and2_1
*I *4233:B I *D sky130_fd_sc_hd__and2_1
*I *4223:B I *D sky130_fd_sc_hd__and2_1
*I *4960:A I *D sky130_fd_sc_hd__buf_2
*I *4176:Y O *D sky130_fd_sc_hd__nor2_2
*CAP
1 *4961:A 0
2 *4231:B 0.000766818
3 *4233:B 0
4 *4223:B 0.000664324
5 *4960:A 6.41635e-05
6 *4176:Y 0.000779953
7 *183:69 0.00137937
8 *183:53 0.0035113
9 *183:28 0.00611482
10 *183:18 0.00480117
11 *4223:B *4225:A 0.000124895
12 *4223:B *4234:B2 1.7386e-05
13 *4223:B *846:10 4.87479e-05
14 *4223:B *970:52 0.000331548
15 *4231:B *4231:A 0.000365281
16 *4231:B *4751:A 0.000174323
17 *4231:B *4761:A 0.000406764
18 *4231:B *4778:A2 3.89812e-05
19 *4231:B *4780:A1 0.000169526
20 *4231:B *4780:A4 0.000229897
21 *4231:B *812:19 0.000260938
22 *4231:B *834:60 0.000108693
23 *4231:B *1002:12 0.000162332
24 *4960:A *845:18 1.22505e-05
25 *4960:A *849:12 3.83319e-05
26 *4960:A *970:19 2.93818e-05
27 *183:18 *4190:A1 6.52265e-05
28 *183:18 *4191:B1 6.67647e-05
29 *183:18 *836:8 4.82863e-05
30 *183:18 *843:16 2.98726e-05
31 *183:18 *972:10 1.12578e-05
32 *183:18 *972:16 0.000313857
33 *183:18 *1010:22 9.84114e-05
34 *183:18 *1010:114 0.000141632
35 *183:18 *1010:131 0.00068833
36 *183:28 *4190:B1 1.37895e-05
37 *183:28 *4337:A1 0
38 *183:28 *4820:A1 0.000104218
39 *183:28 *4834:B1 0.000121226
40 *183:28 *836:29 0
41 *183:28 *836:46 0
42 *183:28 *844:64 0.00139333
43 *183:28 *1002:30 0.000149462
44 *183:28 *1002:54 0.00117553
45 *183:28 *1009:65 0.000148924
46 *183:53 *4795:A2 8.40213e-05
47 *183:53 *4795:B1 4.66108e-05
48 *183:53 *4801:A2 0.000540727
49 *183:53 *4932:A 6.97118e-05
50 *183:53 *735:23 6.56209e-05
51 *183:53 *754:12 4.82919e-05
52 *183:53 *835:54 0.000323717
53 *183:53 *835:77 1.33285e-05
54 *183:53 *836:46 0.000158606
55 *183:53 *849:12 8.29439e-05
56 *183:53 *961:35 0.000633226
57 *183:53 *962:34 0.000377026
58 *183:53 *970:19 2.98439e-05
59 *183:53 *970:100 8.97642e-05
60 *183:69 *4234:B2 4.61744e-05
61 *183:69 *4751:A 5.7344e-05
62 *183:69 *4751:B 0.000117512
63 *183:69 *4759:A1 0.000316421
64 *183:69 *4759:A2 4.82863e-05
65 *183:69 *4760:B1 7.32576e-05
66 *183:69 *4782:B1 0
67 *183:69 *5043:A 5.05521e-05
68 *183:69 *671:39 0.000319164
69 *183:69 *704:25 0.000123225
70 *183:69 *809:20 0.00030135
71 *183:69 *837:89 0.00116744
72 *183:69 *847:39 0
73 *183:69 *847:60 0.00020178
74 *183:69 *847:62 0.000208484
75 *183:69 *963:23 0.000873304
76 *4190:C1 *183:18 8.65905e-05
77 *181:60 *4223:B 0
78 *181:60 *183:69 0
79 *181:71 *183:69 0
*RES
1 *4176:Y *183:18 22.565 
2 *183:18 *183:28 12.149 
3 *183:28 *4960:A 4.8525 
4 *183:28 *183:53 38.2675 
5 *183:53 *183:69 32.22 
6 *183:69 *4223:B 17.63 
7 *183:69 *4233:B 1.6 
8 *183:53 *4231:B 23.775 
9 *183:18 *4961:A 1.6 
*END

*D_NET *184 0.000174052
*CONN
*I *4178:C1 I *D sky130_fd_sc_hd__a211o_1
*I *4177:X O *D sky130_fd_sc_hd__a22o_1
*CAP
1 *4178:C1 7.42619e-05
2 *4177:X 7.42619e-05
3 *4178:C1 *4177:A1 0
4 *4178:C1 *4177:A2 4.00541e-06
5 *4178:B1 *4178:C1 2.15234e-05
*RES
1 *4177:X *4178:C1 4.265 
*END

*D_NET *185 0.00104321
*CONN
*I *4179:B1 I *D sky130_fd_sc_hd__o211a_1
*I *4178:X O *D sky130_fd_sc_hd__a211o_1
*CAP
1 *4179:B1 0.000290083
2 *4178:X 0.000290083
3 *4179:B1 *4179:A2 0.000109364
4 *4179:B1 *841:37 0.000115326
5 *4179:B1 *841:39 4.18603e-06
6 *181:44 *4179:B1 0.000234169
*RES
1 *4178:X *4179:B1 12.795 
*END

*D_NET *186 0.000879632
*CONN
*I *4181:B1 I *D sky130_fd_sc_hd__a211o_1
*I *4180:X O *D sky130_fd_sc_hd__a22o_1
*CAP
1 *4181:B1 0.000172689
2 *4180:X 0.000172689
3 *4181:B1 *4177:B1 0.000142165
4 *4181:B1 *974:24 0.000116158
5 *180:44 *4181:B1 4.41506e-05
6 *182:39 *4181:B1 0.00023178
*RES
1 *4180:X *4181:B1 11.46 
*END

*D_NET *187 0.000259265
*CONN
*I *4182:B1 I *D sky130_fd_sc_hd__o211a_1
*I *4181:X O *D sky130_fd_sc_hd__a211o_1
*CAP
1 *4182:B1 8.9142e-05
2 *4181:X 8.9142e-05
3 *4182:B1 *4177:B1 0
4 *4182:B1 *839:40 3.26889e-05
5 *4182:B1 *841:37 4.82919e-05
*RES
1 *4181:X *4182:B1 4.7 
*END

*D_NET *188 0.000229203
*CONN
*I *4184:B1 I *D sky130_fd_sc_hd__a211o_1
*I *4183:X O *D sky130_fd_sc_hd__a22o_1
*CAP
1 *4184:B1 8.19765e-05
2 *4183:X 8.19765e-05
3 *4184:B1 *4183:A2 0
4 *4184:B1 *4184:A1 1.85674e-05
5 *4184:B1 *4184:A2 4.66826e-05
*RES
1 *4183:X *4184:B1 4.715 
*END

*D_NET *189 0.000277724
*CONN
*I *4185:B1 I *D sky130_fd_sc_hd__o211a_1
*I *4184:X O *D sky130_fd_sc_hd__a211o_1
*CAP
1 *4185:B1 0.000113881
2 *4184:X 0.000113881
3 *4185:B1 *4184:A2 0
4 *4185:B1 *4185:C1 4.99619e-05
*RES
1 *4184:X *4185:B1 5.045 
*END

*D_NET *190 0.000153842
*CONN
*I *4187:C1 I *D sky130_fd_sc_hd__a211o_1
*I *4186:X O *D sky130_fd_sc_hd__a22o_1
*CAP
1 *4187:C1 4.85738e-05
2 *4186:X 4.85738e-05
3 *4187:C1 *4186:A1 1.37328e-05
4 *4187:C1 *4186:B2 0
5 *4186:A2 *4187:C1 5.37803e-06
6 *180:125 *4187:C1 2.25186e-05
7 *182:68 *4187:C1 1.50651e-05
*RES
1 *4186:X *4187:C1 4.3925 
*END

*D_NET *191 0.00150171
*CONN
*I *4188:B1 I *D sky130_fd_sc_hd__o211a_1
*I *4187:X O *D sky130_fd_sc_hd__a211o_1
*CAP
1 *4188:B1 0.000511333
2 *4187:X 0.000511333
3 *4188:B1 *4849:CLK 2.11084e-05
4 *4188:B1 *775:26 7.26551e-05
5 *4188:B1 *839:49 5.53249e-06
6 *4188:B1 *839:62 8.08439e-05
7 *4188:B1 *843:50 8.53113e-06
8 *4849:D *4188:B1 1.99679e-05
9 *180:12 *4188:B1 0.000198939
10 *180:125 *4188:B1 7.14699e-05
*RES
1 *4187:X *4188:B1 14.565 
*END

*D_NET *192 0.00238959
*CONN
*I *4190:B1 I *D sky130_fd_sc_hd__a211o_1
*I *4189:X O *D sky130_fd_sc_hd__a22o_1
*CAP
1 *4190:B1 0.0010085
2 *4189:X 0.0010085
3 *4190:B1 *4189:A1 1.16578e-05
4 *4190:B1 *4309:A 2.75538e-05
5 *4190:B1 *4309:B 0
6 *4190:B1 *4311:A 0.000118332
7 *4190:B1 *4311:B 0
8 *4190:B1 *4313:A2 0
9 *4190:B1 *4335:A1 7.20828e-05
10 *4190:B1 *4336:B 0
11 *4190:B1 *4337:A1 0
12 *4190:B1 *4929:A 0
13 *4190:B1 *274:10 0
14 *4190:B1 *298:10 0
15 *4190:B1 *844:22 0
16 *4190:B1 *973:10 9.37731e-05
17 *4189:B1 *4190:B1 3.54025e-05
18 *183:28 *4190:B1 1.37895e-05
*RES
1 *4189:X *4190:B1 24 
*END

*D_NET *193 0.00113709
*CONN
*I *4191:B1 I *D sky130_fd_sc_hd__o211a_1
*I *4190:X O *D sky130_fd_sc_hd__a211o_1
*CAP
1 *4191:B1 0.000376159
2 *4190:X 0.000376159
3 *4191:B1 *4939:A 6.88421e-05
4 *4191:B1 *775:70 0
5 *4191:B1 *836:8 4.82863e-05
6 *4191:B1 *839:81 5.27941e-05
7 *4191:B1 *972:16 9.65676e-05
8 *4191:B1 *1009:16 5.18317e-06
9 *4191:B1 *1009:42 4.63352e-05
10 *183:18 *4191:B1 6.67647e-05
*RES
1 *4190:X *4191:B1 12.735 
*END

*D_NET *194 0.0045555
*CONN
*I *4193:B1 I *D sky130_fd_sc_hd__a211o_1
*I *4192:X O *D sky130_fd_sc_hd__a22o_1
*CAP
1 *4193:B1 0.0010426
2 *4192:X 0.0010426
3 *4193:B1 *4186:A1 0.000229897
4 *4193:B1 *4192:B2 2.75229e-05
5 *4193:B1 *4193:A2 5.53249e-06
6 *4193:B1 *4303:A2 0
7 *4193:B1 *4306:B 7.89689e-05
8 *4193:B1 *249:29 5.43129e-05
9 *4193:B1 *267:12 0.000116158
10 *4193:B1 *285:12 0.000316112
11 *4193:B1 *772:46 0
12 *4193:B1 *772:48 0
13 *4193:B1 *859:29 0
14 *4193:B1 *973:24 0.00132499
15 *4193:B1 *1007:136 0
16 *182:80 *4193:B1 0.00031682
*RES
1 *4192:X *4193:B1 32.16 
*END

*D_NET *195 0.00217176
*CONN
*I *4194:B1 I *D sky130_fd_sc_hd__o211a_1
*I *4193:X O *D sky130_fd_sc_hd__a211o_1
*CAP
1 *4194:B1 0.000909464
2 *4193:X 0.000909464
3 *4194:B1 *4194:A2 3.13354e-05
4 *4194:B1 *4194:C1 4.82919e-05
5 *4194:B1 *4311:B 2.75229e-05
6 *4194:B1 *4312:B 0.000160491
7 *4194:B1 *839:81 8.51879e-05
*RES
1 *4193:X *4194:B1 15.425 
*END

*D_NET *196 0.00570952
*CONN
*I *4196:B1 I *D sky130_fd_sc_hd__a211o_1
*I *4195:X O *D sky130_fd_sc_hd__a22o_1
*CAP
1 *4196:B1 0.00130259
2 *4195:X 0.00130259
3 *4196:B1 *4189:A1 0.000360323
4 *4196:B1 *4196:A1 8.53113e-06
5 *4196:B1 *4303:A1 6.28498e-05
6 *4196:B1 *4319:A1 0
7 *4196:B1 *4327:A 0.000181376
8 *4196:B1 *4332:A 0.000140912
9 *4196:B1 *4333:A1 0.000179922
10 *4196:B1 *4333:A2 2.42236e-05
11 *4196:B1 *4346:C 2.42236e-05
12 *4196:B1 *4973:A 3.64998e-06
13 *4196:B1 *261:12 6.55328e-05
14 *4196:B1 *266:10 5.65627e-05
15 *4196:B1 *266:23 3.39944e-05
16 *4196:B1 *268:23 6.0236e-05
17 *4196:B1 *290:12 0.000164679
18 *4196:B1 *292:12 6.23206e-05
19 *4196:B1 *293:10 0.000184717
20 *4196:B1 *772:48 0.000462173
21 *4196:B1 *823:40 0.000357262
22 *4196:B1 *972:116 1.56428e-05
23 *4196:B1 *984:99 0.000116165
24 *4196:B1 *988:102 0.000292059
25 *4196:B1 *997:87 9.05299e-05
26 *4196:B1 *997:104 8.53255e-05
27 *4196:B1 *999:73 2.45182e-05
28 *4196:B1 *1010:131 4.66108e-05
29 *182:91 *4196:B1 0
*RES
1 *4195:X *4196:B1 42.12 
*END

*D_NET *197 0.000786723
*CONN
*I *4197:B1 I *D sky130_fd_sc_hd__o211a_1
*I *4196:X O *D sky130_fd_sc_hd__a211o_1
*CAP
1 *4197:B1 0.000163277
2 *4196:X 0.000163277
3 *4197:B1 *4196:A2 8.53113e-06
4 *4197:B1 *199:10 0
5 *4197:B1 *839:93 0.00015938
6 *4197:B1 *972:131 0.000285654
7 *4197:B1 *1010:131 6.60261e-06
*RES
1 *4196:X *4197:B1 11.07 
*END

*D_NET *198 0.00429895
*CONN
*I *4200:B1 I *D sky130_fd_sc_hd__o221a_1
*I *4198:X O *D sky130_fd_sc_hd__and2_1
*CAP
1 *4200:B1 0.000731898
2 *4198:X 0.000731898
3 *4200:B1 *4200:C1 9.12494e-06
4 *4200:B1 *4241:A 0.000105929
5 *4200:B1 *4820:A2 0.000206776
6 *4200:B1 *817:12 0.000199221
7 *4200:B1 *845:12 0.000713579
8 *4200:B1 *845:18 0.00137375
9 *4200:B1 *849:12 0
10 *4200:B1 *970:19 3.90167e-05
11 *4200:B1 *970:100 0.000187759
12 *4951:A *4200:B1 0
*RES
1 *4198:X *4200:B1 31.275 
*END

*D_NET *199 0.0115579
*CONN
*I *4958:A I *D sky130_fd_sc_hd__clkbuf_4
*I *4199:X O *D sky130_fd_sc_hd__a221o_1
*CAP
1 *4958:A 0
2 *4199:X 0.000324743
3 *199:10 0.00388227
4 *199:8 0.00420701
5 *199:8 *5107:A 0.000158965
6 *199:8 *995:68 4.66108e-05
7 *199:10 *4189:A1 0
8 *199:10 *4193:A1 0.000155928
9 *199:10 *4196:A2 0
10 *199:10 *4248:B2 0.000117832
11 *199:10 *4303:A1 0
12 *199:10 *4318:B 0
13 *199:10 *4319:A1 0
14 *199:10 *4319:B1 2.78732e-05
15 *199:10 *4326:B1 0
16 *199:10 *4333:A1 0
17 *199:10 *4333:A2 0
18 *199:10 *4347:B1 0.000165222
19 *199:10 *4386:C 0
20 *199:10 *4387:A1 0
21 *199:10 *4387:A2 0
22 *199:10 *4387:B1 0
23 *199:10 *4431:B1 0
24 *199:10 *4431:C1 8.89673e-05
25 *199:10 *4990:A 0
26 *199:10 *5097:A 0
27 *199:10 *282:8 0.000312764
28 *199:10 *282:25 8.92701e-05
29 *199:10 *284:14 0.000169591
30 *199:10 *286:10 0
31 *199:10 *288:10 0
32 *199:10 *292:12 0
33 *199:10 *293:10 0
34 *199:10 *295:12 0
35 *199:10 *346:8 8.08439e-05
36 *199:10 *387:10 0
37 *199:10 *389:10 0
38 *199:10 *776:8 0.000138551
39 *199:10 *776:17 0.00102392
40 *199:10 *776:56 0.000301111
41 *199:10 *776:71 0
42 *199:10 *839:93 0
43 *199:10 *839:110 0
44 *199:10 *843:131 0
45 *199:10 *968:10 0.000121688
46 *199:10 *984:99 0
47 *199:10 *999:29 0
48 *199:10 *999:42 0
49 *199:10 *999:59 0
50 *199:10 *999:65 0
51 *199:10 *1001:46 9.05299e-05
52 *4197:B1 *199:10 0
53 *4852:D *199:10 5.42473e-05
54 *4877:D *199:10 0
*RES
1 *4199:X *199:8 8.535 
2 *199:8 *199:10 71.505 
3 *199:10 *4958:A 3.6 
*END

*D_NET *200 0.00530963
*CONN
*I *4202:B2 I *D sky130_fd_sc_hd__o221a_1
*I *4201:X O *D sky130_fd_sc_hd__and2_1
*CAP
1 *4202:B2 0.00132366
2 *4201:X 0.00132366
3 *4202:B2 *4202:A2 2.21697e-05
4 *4202:B2 *4202:C1 0.000109489
5 *4202:B2 *4236:B1 0
6 *4202:B2 *4237:A 0.000165068
7 *4202:B2 *4238:B2 0.000162721
8 *4202:B2 *4791:A2 0
9 *4202:B2 *4792:B 0.000473422
10 *4202:B2 *4794:A 7.09921e-05
11 *4202:B2 *4799:A2 6.55406e-05
12 *4202:B2 *4799:C1 0
13 *4202:B2 *4805:C 9.90903e-05
14 *4202:B2 *4872:CLK 4.71087e-05
15 *4202:B2 *4957:A 1.62464e-05
16 *4202:B2 *5019:A 0.000157396
17 *4202:B2 *735:8 5.12617e-05
18 *4202:B2 *772:94 0.000412562
19 *4202:B2 *845:43 2.66586e-05
20 *4202:B2 *845:103 0
21 *4202:B2 *967:22 1.10951e-05
22 *4202:B2 *968:103 0.000771485
*RES
1 *4201:X *4202:B2 41.13 
*END

*D_NET *201 0.00417049
*CONN
*I *4204:B2 I *D sky130_fd_sc_hd__o221a_1
*I *4203:X O *D sky130_fd_sc_hd__and2_1
*CAP
1 *4204:B2 0.000808289
2 *4203:X 0.000808289
3 *4204:B2 *4204:C1 0.000135652
4 *4204:B2 *4726:B 1.83847e-05
5 *4204:B2 *4730:A 3.23663e-05
6 *4204:B2 *4730:B 5.05521e-05
7 *4204:B2 *4732:A1 7.34994e-05
8 *4204:B2 *4732:B1_N 4.82863e-05
9 *4204:B2 *681:6 5.30673e-05
10 *4204:B2 *838:103 3.26889e-05
11 *4204:B2 *838:118 0.000416732
12 *4204:B2 *846:62 0.000280844
13 *4204:B2 *1012:51 0.00141184
*RES
1 *4203:X *4204:B2 25.4 
*END

*D_NET *202 0.0004055
*CONN
*I *4206:B2 I *D sky130_fd_sc_hd__o221a_1
*I *4205:X O *D sky130_fd_sc_hd__and2_1
*CAP
1 *4206:B2 0.00020275
2 *4205:X 0.00020275
*RES
1 *4205:X *4206:B2 6.065 
*END

*D_NET *203 0.00094861
*CONN
*I *4208:B2 I *D sky130_fd_sc_hd__o221a_1
*I *4207:X O *D sky130_fd_sc_hd__and2_1
*CAP
1 *4208:B2 0.0003271
2 *4207:X 0.0003271
3 *4208:B2 *4207:B 0.000205372
4 *4208:B2 *4208:A1 4.11194e-05
5 *4208:B2 *849:55 2.97004e-06
6 *4208:B2 *849:102 4.49498e-05
*RES
1 *4207:X *4208:B2 11.79 
*END

*D_NET *204 0.000350278
*CONN
*I *4210:B2 I *D sky130_fd_sc_hd__o221a_1
*I *4209:X O *D sky130_fd_sc_hd__and2_1
*CAP
1 *4210:B2 6.28301e-05
2 *4209:X 6.28301e-05
3 *4210:B2 *4209:B 0.000124473
4 *4210:B2 *4210:B1 4.94457e-05
5 *4210:B2 *4210:C1 5.06989e-05
*RES
1 *4209:X *4210:B2 5.03 
*END

*D_NET *205 0.00152697
*CONN
*I *4212:B2 I *D sky130_fd_sc_hd__o221a_1
*I *4211:X O *D sky130_fd_sc_hd__and2_1
*CAP
1 *4212:B2 0.000259387
2 *4211:X 0.000259387
3 *4212:B2 *4212:A2 0.000390466
4 *4212:B2 *4212:B1 0.000163947
5 *4212:B2 *4212:C1 4.99619e-05
6 *4212:B2 *838:8 8.26971e-05
7 *4212:B2 *838:42 0.000198939
8 *4941:A *4212:B2 0.000122184
*RES
1 *4211:X *4212:B2 10.895 
*END

*D_NET *206 0.000488942
*CONN
*I *4214:B2 I *D sky130_fd_sc_hd__o221a_1
*I *4213:X O *D sky130_fd_sc_hd__and2_1
*CAP
1 *4214:B2 0.000149756
2 *4213:X 0.000149756
3 *4214:B2 *4212:C1 7.22354e-05
4 *4214:B2 *4214:C1 9.53428e-06
5 *4214:B2 *849:102 0.00010766
*RES
1 *4213:X *4214:B2 6.53 
*END

*D_NET *207 0.000368318
*CONN
*I *4216:B2 I *D sky130_fd_sc_hd__o221a_1
*I *4215:X O *D sky130_fd_sc_hd__and2_1
*CAP
1 *4216:B2 0.000106904
2 *4215:X 0.000106904
3 *4216:B2 *4216:B1 3.00381e-05
4 *4216:B2 *846:41 0.000124473
*RES
1 *4215:X *4216:B2 5.375 
*END

*D_NET *208 0.000878481
*CONN
*I *4218:B2 I *D sky130_fd_sc_hd__o221a_1
*I *4217:X O *D sky130_fd_sc_hd__and2_1
*CAP
1 *4218:B2 0.000334148
2 *4217:X 0.000334148
3 *4218:B2 *4218:C1 8.65961e-05
4 *4218:B2 *971:81 0.000123589
*RES
1 *4217:X *4218:B2 8.48 
*END

*D_NET *209 0.000427386
*CONN
*I *4220:B2 I *D sky130_fd_sc_hd__o221a_1
*I *4219:X O *D sky130_fd_sc_hd__and2_1
*CAP
1 *4220:B2 0.000131518
2 *4219:X 0.000131518
3 *4220:B2 *4220:B1 4.89295e-05
4 *4220:B2 *4220:C1 4.18398e-05
5 *4220:B2 *970:52 7.35813e-05
*RES
1 *4219:X *4220:B2 5.72 
*END

*D_NET *210 0.000619558
*CONN
*I *4222:B2 I *D sky130_fd_sc_hd__o221a_1
*I *4221:X O *D sky130_fd_sc_hd__and2_1
*CAP
1 *4222:B2 0.000209931
2 *4221:X 0.000209931
3 *4222:B2 *4222:A2 6.55328e-05
4 *4222:B2 *4222:B1 0.00011852
5 *4222:B2 *5100:A 1.56428e-05
*RES
1 *4221:X *4222:B2 10.41 
*END

*D_NET *211 0.00102451
*CONN
*I *4224:B2 I *D sky130_fd_sc_hd__o221a_1
*I *4223:X O *D sky130_fd_sc_hd__and2_1
*CAP
1 *4224:B2 0.000347307
2 *4223:X 0.000347307
3 *4224:B2 *4224:C1 8.65961e-05
4 *4224:B2 *4865:CLK 0.000243296
*RES
1 *4223:X *4224:B2 9.185 
*END

*D_NET *212 0.000666216
*CONN
*I *4226:B2 I *D sky130_fd_sc_hd__o221a_1
*I *4225:X O *D sky130_fd_sc_hd__and2_1
*CAP
1 *4226:B2 0.000203215
2 *4225:X 0.000203215
3 *4226:B2 *4226:B1 4.99619e-05
4 *4226:B2 *4226:C1 8.65961e-05
5 *4226:B2 *4866:CLK 0.000123227
*RES
1 *4225:X *4226:B2 6.77 
*END

*D_NET *213 0.00131022
*CONN
*I *4228:B2 I *D sky130_fd_sc_hd__o221a_1
*I *4227:X O *D sky130_fd_sc_hd__and2_1
*CAP
1 *4228:B2 0.000608084
2 *4227:X 0.000608084
3 *4228:B2 *4228:A1 4.70256e-05
4 *4228:B2 *4228:C1 4.70256e-05
*RES
1 *4227:X *4228:B2 14.55 
*END

*D_NET *214 0.000704486
*CONN
*I *4230:B2 I *D sky130_fd_sc_hd__o221a_1
*I *4229:X O *D sky130_fd_sc_hd__and2_1
*CAP
1 *4230:B2 4.62359e-05
2 *4229:X 4.62359e-05
3 *4230:B2 *4228:C1 0.000100669
4 *4230:B2 *847:147 0.000199498
5 *4230:A2 *4230:B2 0.000311847
*RES
1 *4229:X *4230:B2 6.065 
*END

*D_NET *215 0.000748067
*CONN
*I *4232:B2 I *D sky130_fd_sc_hd__o221a_1
*I *4231:X O *D sky130_fd_sc_hd__and2_1
*CAP
1 *4232:B2 0.000218691
2 *4231:X 0.000218691
3 *4232:B2 *4232:A1 0.000113891
4 *4232:B2 *4232:C1 8.45817e-05
5 *4232:B2 *967:64 8.52972e-05
6 *4232:B2 *1002:12 0
7 *4232:A2 *4232:B2 2.69153e-05
*RES
1 *4231:X *4232:B2 11.67 
*END

*D_NET *216 0.000333582
*CONN
*I *4234:B2 I *D sky130_fd_sc_hd__o221a_1
*I *4233:X O *D sky130_fd_sc_hd__and2_1
*CAP
1 *4234:B2 7.69283e-05
2 *4233:X 7.69283e-05
3 *4223:B *4234:B2 1.7386e-05
4 *181:60 *4234:B2 0.000116165
5 *183:69 *4234:B2 4.61744e-05
*RES
1 *4233:X *4234:B2 9.03 
*END

*D_NET *217 0.000616733
*CONN
*I *4236:B2 I *D sky130_fd_sc_hd__o221a_1
*I *4235:X O *D sky130_fd_sc_hd__and2_1
*CAP
1 *4236:B2 0.00013671
2 *4235:X 0.00013671
3 *4236:B2 *4236:A2 5.0096e-05
4 *4236:B2 *4236:B1 0.000293217
5 *4236:B2 *779:65 0
6 *4236:B2 *779:80 0
*RES
1 *4235:X *4236:B2 10.62 
*END

*D_NET *218 0.00112014
*CONN
*I *4238:B2 I *D sky130_fd_sc_hd__o221a_1
*I *4237:X O *D sky130_fd_sc_hd__and2_1
*CAP
1 *4238:B2 0.000141099
2 *4237:X 0.000141099
3 *4238:B2 *4949:A 6.63221e-05
4 *4238:B2 *4957:A 0.000293719
5 *4238:B2 *837:73 0.000156618
6 *4238:B2 *848:44 0.000158556
7 *4202:B2 *4238:B2 0.000162721
*RES
1 *4237:X *4238:B2 13.14 
*END

*D_NET *219 0.000798492
*CONN
*I *4240:B2 I *D sky130_fd_sc_hd__o221a_1
*I *4239:X O *D sky130_fd_sc_hd__and2_1
*CAP
1 *4240:B2 0.000240376
2 *4239:X 0.000240376
3 *4240:B2 *4239:B 0.000273695
4 *4240:B2 *4815:C1 4.40446e-05
5 *4240:B2 *4940:A 0
*RES
1 *4239:X *4240:B2 11.76 
*END

*D_NET *220 0.00161669
*CONN
*I *4242:B2 I *D sky130_fd_sc_hd__o221a_1
*I *4241:X O *D sky130_fd_sc_hd__and2_1
*CAP
1 *4242:B2 0.00032487
2 *4241:X 0.00032487
3 *4242:B2 *4242:A2 0.000222641
4 *4242:B2 *4242:B1 0.000178952
5 *4242:B2 *4940:A 0.000132092
6 *4242:B2 *968:80 0.000340345
7 *4242:B2 *970:108 9.29176e-05
*RES
1 *4241:X *4242:B2 15.18 
*END

*D_NET *221 0.00108886
*CONN
*I *4244:B2 I *D sky130_fd_sc_hd__o221a_1
*I *4243:X O *D sky130_fd_sc_hd__and2_1
*CAP
1 *4244:B2 0.000257317
2 *4243:X 0.000257317
3 *4244:B2 *4244:A2 0.000332137
4 *4244:B2 *4244:C1 0
5 *4244:B2 *4916:CLK 0.000193801
6 *4244:B2 *820:10 4.82919e-05
*RES
1 *4243:X *4244:B2 12.96 
*END

*D_NET *222 0.00088845
*CONN
*I *4246:B2 I *D sky130_fd_sc_hd__o221a_1
*I *4245:X O *D sky130_fd_sc_hd__and2_1
*CAP
1 *4246:B2 0.000409443
2 *4245:X 0.000409443
3 *4246:B2 *5025:A 0
4 *4246:B2 *951:8 5.36384e-06
5 *4876:D *4246:B2 6.42013e-05
*RES
1 *4245:X *4246:B2 12.345 
*END

*D_NET *223 0.000416072
*CONN
*I *4248:B2 I *D sky130_fd_sc_hd__o221a_1
*I *4247:X O *D sky130_fd_sc_hd__and2_1
*CAP
1 *4248:B2 9.6761e-05
2 *4247:X 9.6761e-05
3 *4248:B2 *843:131 3.26822e-05
4 *4248:B2 *968:10 1.89685e-05
5 *4248:B2 *972:131 5.30673e-05
6 *199:10 *4248:B2 0.000117832
*RES
1 *4247:X *4248:B2 9.375 
*END

*D_NET *224 0.0150021
*CONN
*I *4252:S I *D sky130_fd_sc_hd__mux2_1
*I *4260:S I *D sky130_fd_sc_hd__mux2_1
*I *4258:S I *D sky130_fd_sc_hd__mux2_1
*I *4256:S I *D sky130_fd_sc_hd__mux2_1
*I *4262:S I *D sky130_fd_sc_hd__mux2_1
*I *4264:S I *D sky130_fd_sc_hd__mux2_1
*I *4250:S I *D sky130_fd_sc_hd__mux2_1
*I *4254:S I *D sky130_fd_sc_hd__mux2_1
*I *4249:X O *D sky130_fd_sc_hd__and3_4
*CAP
1 *4252:S 3.77451e-05
2 *4260:S 0.00023758
3 *4258:S 1.26537e-05
4 *4256:S 0.000503955
5 *4262:S 8.15308e-05
6 *4264:S 0.000108875
7 *4250:S 6.30152e-05
8 *4254:S 0.000501217
9 *4249:X 0.000670056
10 *224:56 0.000985756
11 *224:46 0.00167113
12 *224:44 0.000800574
13 *224:42 0.00119829
14 *224:34 0.000647855
15 *224:23 0.000128519
16 *224:10 0.00117127
17 *4250:S *4250:A0 2.20014e-05
18 *4250:S *4422:B 0.000195064
19 *4250:S *4987:A 3.66286e-05
20 *4250:S *1004:27 0.000120923
21 *4252:S *4422:B 0.000114024
22 *4252:S *4987:A 9.97659e-05
23 *4254:S *4254:A0 2.0514e-05
24 *4254:S *4971:A 0.000458536
25 *4254:S *774:64 0.000187409
26 *4254:S *985:21 0.000103509
27 *4258:S *4258:A1 5.83121e-06
28 *4258:S *792:25 4.82919e-05
29 *4258:S *981:21 1.47347e-05
30 *4260:S *4166:A1 3.1226e-05
31 *4260:S *895:20 0.000347911
32 *4260:S *998:25 0.00053765
33 *4262:S *774:113 0.000224506
34 *4262:S *796:12 2.75229e-05
35 *4264:S *4168:A1 0
36 *4264:S *4170:A1 0.000197601
37 *4264:S *917:10 9.12494e-06
38 *224:10 *4156:A1 4.77757e-05
39 *224:10 *4252:A1 0
40 *224:10 *774:64 6.34101e-06
41 *224:10 *841:77 0.000297723
42 *224:10 *1004:43 0.000665545
43 *224:34 *4422:B 0.00049539
44 *224:34 *4987:A 0.000506266
45 *224:42 *4261:B 0
46 *224:42 *4983:A 0
47 *224:42 *985:21 0
48 *224:44 *4164:A1 0.000214281
49 *224:44 *4258:A1 3.31282e-05
50 *224:44 *4967:A 0
51 *224:44 *774:100 0
52 *224:44 *895:20 0
53 *224:44 *981:12 0.000245893
54 *224:46 *774:100 0
55 *224:46 *774:104 0
56 *224:56 *774:104 0
57 *224:56 *774:113 0.000358707
58 *224:56 *796:12 2.49909e-05
59 *4158:S *224:10 0.000231423
60 *4164:S *4260:S 1.16578e-05
61 *4883:D *224:42 0
62 *170:55 *4260:S 5.98073e-05
63 *182:10 *224:10 0.000180338
*RES
1 *4249:X *224:10 17.235 
2 *224:10 *4254:S 13.845 
3 *224:10 *224:23 2 
4 *224:23 *4250:S 3.79 
5 *224:23 *224:34 4.59 
6 *224:34 *224:42 10.31 
7 *224:42 *224:44 8.52 
8 *224:44 *224:46 5.97 
9 *224:46 *224:56 13.745 
10 *224:56 *4264:S 8 
11 *224:56 *4262:S 3.775 
12 *224:46 *4256:S 10.95 
13 *224:44 *4258:S 4.05 
14 *224:42 *4260:S 10.035 
15 *224:34 *4252:S 3.1 
*END

*D_NET *225 0.000532001
*CONN
*I *4251:B I *D sky130_fd_sc_hd__and2_1
*I *4250:X O *D sky130_fd_sc_hd__mux2_1
*CAP
1 *4251:B 0.000171647
2 *4250:X 0.000171647
3 *4251:B *986:48 6.47516e-05
4 *4251:B *1004:27 0.000123955
*RES
1 *4250:X *4251:B 9.72 
*END

*D_NET *226 0.000314415
*CONN
*I *4253:B I *D sky130_fd_sc_hd__and2_1
*I *4252:X O *D sky130_fd_sc_hd__mux2_1
*CAP
1 *4253:B 0.000119307
2 *4252:X 0.000119307
3 *4253:B *4169:A 2.75145e-05
4 *4253:B *4250:A0 0
5 *4253:B *4252:A1 0
6 *4253:B *774:42 4.82863e-05
*RES
1 *4252:X *4253:B 9.03 
*END

*D_NET *227 0.000229312
*CONN
*I *4255:B I *D sky130_fd_sc_hd__and2_1
*I *4254:X O *D sky130_fd_sc_hd__mux2_1
*CAP
1 *4255:B 7.55584e-05
2 *4254:X 7.55584e-05
3 *4255:B *840:10 6.11019e-05
4 *4255:B *840:12 1.70935e-05
*RES
1 *4254:X *4255:B 8.835 
*END

*D_NET *228 0.00123416
*CONN
*I *4257:B I *D sky130_fd_sc_hd__and2_1
*I *4256:X O *D sky130_fd_sc_hd__mux2_1
*CAP
1 *4257:B 0.000410497
2 *4256:X 0.000410497
3 *4257:B *4256:A0 4.9253e-06
4 *4257:B *4256:A1 0.000139933
5 *4257:B *4881:CLK 0
6 *4257:B *873:8 0.000147936
7 *4881:D *4257:B 0.000120377
*RES
1 *4256:X *4257:B 15.045 
*END

*D_NET *229 0.000708542
*CONN
*I *4259:B I *D sky130_fd_sc_hd__and2_1
*I *4258:X O *D sky130_fd_sc_hd__mux2_1
*CAP
1 *4259:B 0.000304105
2 *4258:X 0.000304105
3 *4259:B *4162:A0 2.97004e-06
4 *4259:B *4258:A1 0
5 *4259:B *792:25 9.73618e-05
*RES
1 *4258:X *4259:B 11.1 
*END

*D_NET *230 0.000468886
*CONN
*I *4261:B I *D sky130_fd_sc_hd__and2_1
*I *4260:X O *D sky130_fd_sc_hd__mux2_1
*CAP
1 *4261:B 0.000166892
2 *4260:X 0.000166892
3 *4261:B *4261:A 0
4 *4261:B *895:20 8.53113e-06
5 *4261:B *998:25 0.00012657
6 *224:42 *4261:B 0
*RES
1 *4260:X *4261:B 9.72 
*END

*D_NET *231 0.000230251
*CONN
*I *4263:B I *D sky130_fd_sc_hd__and2_1
*I *4262:X O *D sky130_fd_sc_hd__mux2_1
*CAP
1 *4263:B 6.13527e-05
2 *4262:X 6.13527e-05
3 *4263:B *906:10 3.72179e-05
4 *4263:B *975:31 7.03276e-05
*RES
1 *4262:X *4263:B 8.58 
*END

*D_NET *232 0.000257998
*CONN
*I *4265:B I *D sky130_fd_sc_hd__and2_1
*I *4264:X O *D sky130_fd_sc_hd__mux2_1
*CAP
1 *4265:B 0.000100545
2 *4264:X 0.000100545
3 *4265:B *4263:A 5.69075e-05
*RES
1 *4264:X *4265:B 4.955 
*END

*D_NET *233 0.000785498
*CONN
*I *4269:B I *D sky130_fd_sc_hd__and3_1
*I *4266:X O *D sky130_fd_sc_hd__a31o_1
*CAP
1 *4269:B 0.00027292
2 *4266:X 0.00027292
3 *4269:B *4180:B2 1.94892e-05
4 *4269:B *4266:A1 0
5 *4269:B *4266:A3 5.30673e-05
6 *4269:B *4269:A 7.09305e-05
7 *4269:B *4886:CLK 4.40812e-05
8 *4269:B *1005:17 0
9 *4269:B *1010:80 0
10 *4886:D *4269:B 5.2089e-05
*RES
1 *4266:X *4269:B 12.18 
*END

*D_NET *234 0.00312142
*CONN
*I *4290:A1 I *D sky130_fd_sc_hd__a21oi_1
*I *4276:A I *D sky130_fd_sc_hd__xnor2_1
*I *4268:B I *D sky130_fd_sc_hd__nand2_1
*I *4267:X O *D sky130_fd_sc_hd__and3_1
*CAP
1 *4290:A1 0
2 *4276:A 0.000141029
3 *4268:B 0.000147353
4 *4267:X 0
5 *234:25 0.000425674
6 *234:6 0.000431998
7 *4268:B *4177:A1 8.23457e-05
8 *4268:B *4177:B2 0.000155491
9 *4268:B *784:19 9.03081e-05
10 *4276:A *4276:B 5.38951e-05
11 *4276:A *241:8 6.0067e-05
12 *4276:A *1010:80 4.00693e-05
13 *234:25 *241:8 0.000147115
14 *234:25 *784:19 0.000613167
15 *234:25 *1004:43 0.000360597
16 *234:25 *1007:74 2.05661e-05
17 *181:44 *4268:B 8.73389e-06
18 *182:39 *4268:B 9.30787e-05
19 *182:39 *234:25 0.000249928
*RES
1 *4267:X *234:6 3.6 
2 *234:6 *4268:B 6.915 
3 *234:6 *234:25 10.985 
4 *234:25 *4276:A 3.91 
5 *234:25 *4290:A1 1.6 
*END

*D_NET *235 0.000814971
*CONN
*I *4269:C I *D sky130_fd_sc_hd__and3_1
*I *4268:Y O *D sky130_fd_sc_hd__nand2_1
*CAP
1 *4269:C 0.000221797
2 *4268:Y 0.000221797
3 *4269:C *4178:A1 7.23533e-05
4 *4269:C *797:24 0.00022667
5 *4269:C *1010:80 7.23533e-05
*RES
1 *4268:Y *4269:C 10.65 
*END

*D_NET *236 0.000913165
*CONN
*I *4273:B I *D sky130_fd_sc_hd__and3_1
*I *4274:A1 I *D sky130_fd_sc_hd__a21oi_1
*I *4270:X O *D sky130_fd_sc_hd__a22o_1
*CAP
1 *4273:B 0.000133454
2 *4274:A1 9.07104e-05
3 *4270:X 0
4 *236:4 0.000224164
5 *4273:B *4273:C 0.000162318
6 *4273:B *4274:A2 3.57349e-05
7 *4273:B *238:10 4.66108e-05
8 *4273:B *989:33 4.9968e-05
9 *4273:B *1005:48 1.07797e-05
10 *4273:B *1007:74 7.18738e-05
11 *4274:A1 *4274:A2 8.65905e-05
12 *4274:A1 *1010:80 9.60582e-07
*RES
1 *4270:X *236:4 1.6 
2 *236:4 *4274:A1 2.74 
3 *236:4 *4273:B 8.54 
*END

*D_NET *237 0.00223864
*CONN
*I *4285:B1 I *D sky130_fd_sc_hd__a21oi_1
*I *4284:A I *D sky130_fd_sc_hd__and3_1
*I *4271:X O *D sky130_fd_sc_hd__and4_1
*CAP
1 *4285:B1 0.000250958
2 *4284:A 0
3 *4271:X 0.000413764
4 *237:12 0.000664722
5 *4285:B1 *4284:C 2.37349e-05
6 *4285:B1 *4285:A1 9.50342e-06
7 *4285:B1 *4285:A2 3.36985e-05
8 *4285:B1 *4286:B 1.16578e-05
9 *4285:B1 *248:12 3.7712e-05
10 *4285:B1 *249:16 0.00017873
11 *4285:B1 *251:12 2.29156e-05
12 *237:12 *248:12 0.000120655
13 *237:12 *251:12 0.000111285
14 *237:12 *844:22 0
15 *237:12 *972:32 0.0003593
*RES
1 *4271:X *237:12 14.435 
2 *237:12 *4284:A 1.6 
3 *237:12 *4285:B1 9.545 
*END

*D_NET *238 0.0014158
*CONN
*I *4273:C I *D sky130_fd_sc_hd__and3_1
*I *4274:A2 I *D sky130_fd_sc_hd__a21oi_1
*I *4272:Y O *D sky130_fd_sc_hd__nand4_1
*CAP
1 *4273:C 0.000161407
2 *4274:A2 6.03517e-05
3 *4272:Y 0.000162579
4 *238:10 0.000384338
5 *4273:C *4273:A 3.49688e-05
6 *4273:C *989:23 0
7 *4273:C *1005:48 2.92496e-05
8 *4273:C *1007:74 8.09021e-06
9 *4273:C *1010:80 0
10 *4274:A2 *4275:B 0
11 *4274:A2 *1005:40 0
12 *4274:A2 *1005:48 4.66108e-05
13 *238:10 *4272:D 0.000122331
14 *238:10 *989:27 2.42043e-05
15 *238:10 *1005:40 1.46828e-05
16 *238:10 *1005:48 3.57349e-05
17 *4273:B *4273:C 0.000162318
18 *4273:B *4274:A2 3.57349e-05
19 *4273:B *238:10 4.66108e-05
20 *4274:A1 *4274:A2 8.65905e-05
*RES
1 *4272:Y *238:10 4.24 
2 *238:10 *4274:A2 3.1 
3 *238:10 *4273:C 8.84 
*END

*D_NET *239 0.00135984
*CONN
*I *4275:A I *D sky130_fd_sc_hd__nor2_1
*I *4290:B1 I *D sky130_fd_sc_hd__a21oi_1
*I *4273:X O *D sky130_fd_sc_hd__and3_1
*CAP
1 *4275:A 0
2 *4290:B1 6.17042e-05
3 *4273:X 0.000264856
4 *239:12 0.00032656
5 *4290:B1 *241:8 0.000193286
6 *4290:B1 *255:10 6.69608e-06
7 *4290:B1 *1010:80 6.52933e-05
8 *239:12 *4273:A 5.21627e-05
9 *239:12 *1004:43 7.63125e-05
10 *239:12 *1007:74 0.000312964
*RES
1 *4273:X *239:12 10.1 
2 *239:12 *4290:B1 3.43 
3 *239:12 *4275:A 1.6 
*END

*D_NET *240 0.00014667
*CONN
*I *4275:B I *D sky130_fd_sc_hd__nor2_1
*I *4274:Y O *D sky130_fd_sc_hd__a21oi_1
*CAP
1 *4275:B 5.95777e-05
2 *4274:Y 5.95777e-05
3 *4275:B *1005:40 0
4 *4275:B *1010:80 2.75145e-05
5 *4274:A2 *4275:B 0
*RES
1 *4274:Y *4275:B 4.37 
*END

*D_NET *241 0.0009111
*CONN
*I *4290:A2 I *D sky130_fd_sc_hd__a21oi_1
*I *4276:B I *D sky130_fd_sc_hd__xnor2_1
*I *4275:Y O *D sky130_fd_sc_hd__nor2_1
*CAP
1 *4290:A2 0
2 *4276:B 4.02714e-05
3 *4275:Y 0.000135472
4 *241:8 0.000175743
5 *4276:B *255:10 2.68526e-05
6 *4276:B *1010:80 2.55875e-05
7 *241:8 *255:10 4.10688e-05
8 *241:8 *1010:80 1.17409e-05
9 *4276:A *4276:B 5.38951e-05
10 *4276:A *241:8 6.0067e-05
11 *4290:B1 *241:8 0.000193286
12 *234:25 *241:8 0.000147115
*RES
1 *4275:Y *241:8 5.17 
2 *241:8 *4276:B 2.755 
3 *241:8 *4290:A2 1.6 
*END

*D_NET *242 0.000314926
*CONN
*I *4277:B I *D sky130_fd_sc_hd__nand2_1
*I *4276:Y O *D sky130_fd_sc_hd__xnor2_1
*CAP
1 *4277:B 8.66969e-05
2 *4276:Y 8.66969e-05
3 *4277:B *4277:A 0
4 *4277:B *4278:C1 0
5 *4277:B *1010:80 0.000141532
*RES
1 *4276:Y *4277:B 4.955 
*END

*D_NET *243 0.000186375
*CONN
*I *4278:C1 I *D sky130_fd_sc_hd__o211a_1
*I *4277:Y O *D sky130_fd_sc_hd__nand2_1
*CAP
1 *4278:C1 6.50831e-05
2 *4277:Y 6.50831e-05
3 *4278:C1 *4277:A 9.53428e-06
4 *4278:C1 *1010:61 2.75145e-05
5 *4278:C1 *1010:80 1.91597e-05
6 *4277:B *4278:C1 0
*RES
1 *4277:Y *4278:C1 4.355 
*END

*D_NET *244 0.00117789
*CONN
*I *4282:A I *D sky130_fd_sc_hd__or3_1
*I *4283:B1 I *D sky130_fd_sc_hd__o21ai_1
*I *4299:A1 I *D sky130_fd_sc_hd__o21bai_1
*I *4279:Y O *D sky130_fd_sc_hd__nand2_1
*CAP
1 *4282:A 0
2 *4283:B1 1.92517e-05
3 *4299:A1 0
4 *4279:Y 0.000139364
5 *244:18 0.000112831
6 *244:12 0.000232944
7 *4283:B1 *4299:A2 1.85674e-05
8 *4283:B1 *246:21 5.74165e-05
9 *4283:B1 *1001:44 1.47256e-05
10 *244:12 *844:22 0
11 *244:12 *1001:44 0
12 *244:12 *1005:93 9.24521e-05
13 *244:12 *1007:109 5.86739e-05
14 *244:12 *1007:136 2.99953e-05
15 *244:18 *4282:C 0.000106145
16 *244:18 *4299:A2 5.4155e-06
17 *244:18 *246:21 2.85405e-05
18 *244:18 *263:16 0.000163199
19 *244:18 *1001:44 9.83708e-05
*RES
1 *4279:Y *244:12 7.775 
2 *244:12 *244:18 3.24 
3 *244:18 *4299:A1 1.6 
4 *244:18 *4283:B1 2.41 
5 *244:12 *4282:A 1.6 
*END

*D_NET *245 0.00148915
*CONN
*I *4282:B I *D sky130_fd_sc_hd__or3_1
*I *4299:B1_N I *D sky130_fd_sc_hd__o21bai_1
*I *4283:A1 I *D sky130_fd_sc_hd__o21ai_1
*I *4280:X O *D sky130_fd_sc_hd__and4_1
*CAP
1 *4282:B 3.01135e-05
2 *4299:B1_N 0
3 *4283:A1 0
4 *4280:X 0.000156945
5 *245:27 0.000319382
6 *245:10 0.000446214
7 *4282:B *1001:44 3.83041e-05
8 *245:10 *4271:C 4.57897e-05
9 *245:10 *4280:D 2.75145e-05
10 *245:10 *246:10 0.000113416
11 *245:10 *986:57 3.09179e-05
12 *245:27 *4282:C 1.46828e-05
13 *245:27 *4986:A 0
14 *245:27 *246:10 9.50342e-06
15 *245:27 *246:21 0.000120655
16 *245:27 *248:12 9.50342e-06
17 *245:27 *844:22 3.96088e-05
18 *245:27 *1001:44 8.65961e-05
*RES
1 *4280:X *245:10 6.12 
2 *245:10 *4283:A1 3.6 
3 *245:10 *245:27 6.29 
4 *245:27 *4299:B1_N 1.6 
5 *245:27 *4282:B 2.05 
*END

*D_NET *246 0.00142818
*CONN
*I *4282:C I *D sky130_fd_sc_hd__or3_1
*I *4299:A2 I *D sky130_fd_sc_hd__o21bai_1
*I *4283:A2 I *D sky130_fd_sc_hd__o21ai_1
*I *4281:Y O *D sky130_fd_sc_hd__a22oi_2
*CAP
1 *4282:C 3.80556e-05
2 *4299:A2 1.48842e-05
3 *4283:A2 0
4 *4281:Y 0.000129426
5 *246:21 0.00016395
6 *246:10 0.000240437
7 *4282:C *1001:44 0.00012657
8 *246:10 *4271:C 1.73877e-05
9 *246:10 *844:22 0.000114369
10 *246:10 *987:64 5.20968e-05
11 *246:10 *1005:56 1.44259e-05
12 *246:21 *1001:44 4.2239e-05
13 *4283:B1 *4299:A2 1.85674e-05
14 *4283:B1 *246:21 5.74165e-05
15 *244:18 *4282:C 0.000106145
16 *244:18 *4299:A2 5.4155e-06
17 *244:18 *246:21 2.85405e-05
18 *245:10 *246:10 0.000113416
19 *245:27 *4282:C 1.46828e-05
20 *245:27 *246:10 9.50342e-06
21 *245:27 *246:21 0.000120655
*RES
1 *4281:Y *246:10 9.02 
2 *246:10 *4283:A2 1.6 
3 *246:10 *246:21 2.805 
4 *246:21 *4299:A2 1.96 
5 *246:21 *4282:C 3.445 
*END

*D_NET *247 0.00141053
*CONN
*I *4285:A1 I *D sky130_fd_sc_hd__a21oi_1
*I *4284:B I *D sky130_fd_sc_hd__and3_1
*I *4282:X O *D sky130_fd_sc_hd__or3_1
*CAP
1 *4285:A1 4.01966e-05
2 *4284:B 9.99719e-05
3 *4282:X 0.000397414
4 *247:10 0.000537583
5 *4284:B *251:12 0.000160635
6 *4285:A1 *249:16 2.15594e-05
7 *247:10 *249:16 1.70935e-05
8 *247:10 *844:22 0
9 *247:10 *1001:44 0.00012657
10 *4285:B1 *4285:A1 9.50342e-06
*RES
1 *4282:X *247:10 9.945 
2 *247:10 *4284:B 5.445 
3 *247:10 *4285:A1 4.215 
*END

*D_NET *248 0.00152726
*CONN
*I *4285:A2 I *D sky130_fd_sc_hd__a21oi_1
*I *4284:C I *D sky130_fd_sc_hd__and3_1
*I *4283:Y O *D sky130_fd_sc_hd__o21ai_1
*CAP
1 *4285:A2 2.18753e-05
2 *4284:C 1.99461e-05
3 *4283:Y 0.000294401
4 *248:12 0.000336223
5 *4284:C *4286:B 0
6 *4285:A2 *249:16 4.82919e-05
7 *4285:A2 *251:12 0.000112349
8 *248:12 *251:12 0.000196376
9 *248:12 *844:22 0.000272491
10 *4285:B1 *4284:C 2.37349e-05
11 *4285:B1 *4285:A2 3.36985e-05
12 *4285:B1 *248:12 3.7712e-05
13 *237:12 *248:12 0.000120655
14 *245:27 *248:12 9.50342e-06
*RES
1 *4283:Y *248:12 13.145 
2 *248:12 *4284:C 2.125 
3 *248:12 *4285:A2 2.74 
*END

*D_NET *249 0.00249195
*CONN
*I *4304:A I *D sky130_fd_sc_hd__and3_1
*I *4305:B1 I *D sky130_fd_sc_hd__a21oi_1
*I *4286:A I *D sky130_fd_sc_hd__nor2_1
*I *4284:X O *D sky130_fd_sc_hd__and3_1
*CAP
1 *4304:A 0.000126418
2 *4305:B1 0
3 *4286:A 0
4 *4284:X 0.000209558
5 *249:29 0.000658855
6 *249:16 0.000741996
7 *4304:A *4304:C 7.57202e-05
8 *4304:A *4305:A1 2.16833e-05
9 *4304:A *4305:A2 4.66108e-05
10 *249:16 *4286:B 3.25635e-05
11 *249:16 *251:12 3.51884e-05
12 *249:16 *274:10 0
13 *249:29 *4186:A1 0.000130065
14 *249:29 *4929:A 0
15 *249:29 *973:24 6.36578e-05
16 *4193:B1 *249:29 5.43129e-05
17 *4285:A1 *249:16 2.15594e-05
18 *4285:A2 *249:16 4.82919e-05
19 *4285:B1 *249:16 0.00017873
20 *182:80 *4304:A 2.96426e-05
21 *247:10 *249:16 1.70935e-05
*RES
1 *4284:X *249:16 9.71 
2 *249:16 *4286:A 1.6 
3 *249:16 *249:29 13.615 
4 *249:29 *4305:B1 1.6 
5 *249:29 *4304:A 3.775 
*END

*D_NET *250 0.000175627
*CONN
*I *4286:B I *D sky130_fd_sc_hd__nor2_1
*I *4285:Y O *D sky130_fd_sc_hd__a21oi_1
*CAP
1 *4286:B 3.43393e-05
2 *4285:Y 3.43393e-05
3 *4286:B *251:12 6.2727e-05
4 *4284:C *4286:B 0
5 *4285:B1 *4286:B 1.16578e-05
6 *249:16 *4286:B 3.25635e-05
*RES
1 *4285:Y *4286:B 4.37 
*END

*D_NET *251 0.00223496
*CONN
*I *4288:B I *D sky130_fd_sc_hd__or2_1
*I *4287:B I *D sky130_fd_sc_hd__nand2_1
*I *4286:Y O *D sky130_fd_sc_hd__nor2_1
*CAP
1 *4288:B 0.000265353
2 *4287:B 0
3 *4286:Y 0.000324411
4 *251:12 0.000589764
5 *4288:B *4289:A 6.04888e-05
6 *4288:B *252:6 3.1876e-05
7 *4288:B *274:10 2.59934e-06
8 *251:12 *274:10 0.00025899
9 *4284:B *251:12 0.000160635
10 *4285:A2 *251:12 0.000112349
11 *4285:B1 *251:12 2.29156e-05
12 *4286:B *251:12 6.2727e-05
13 *237:12 *251:12 0.000111285
14 *248:12 *251:12 0.000196376
15 *249:16 *251:12 3.51884e-05
*RES
1 *4286:Y *251:12 10.03 
2 *251:12 *4287:B 1.6 
3 *251:12 *4288:B 5.35 
*END

*D_NET *252 0.000835195
*CONN
*I *4310:B1 I *D sky130_fd_sc_hd__o21ai_1
*I *4289:A I *D sky130_fd_sc_hd__nand2_1
*I *4287:Y O *D sky130_fd_sc_hd__nand2_1
*CAP
1 *4310:B1 0
2 *4289:A 0.000147609
3 *4287:Y 2.27296e-05
4 *252:6 0.000170338
5 *4289:A *4287:A 0.000231791
6 *4289:A *4289:B 4.89295e-05
7 *4289:A *819:34 6.30772e-05
8 *252:6 *4287:A 3.6355e-05
9 *252:6 *274:10 2.20014e-05
10 *4288:B *4289:A 6.04888e-05
11 *4288:B *252:6 3.1876e-05
*RES
1 *4287:Y *252:6 2.395 
2 *252:6 *4289:A 5.275 
3 *252:6 *4310:B1 1.6 
*END

*D_NET *253 0.000289273
*CONN
*I *4289:B I *D sky130_fd_sc_hd__nand2_1
*I *4288:X O *D sky130_fd_sc_hd__or2_1
*CAP
1 *4289:B 5.8771e-05
2 *4288:X 5.8771e-05
3 *4289:B *819:34 0.000122801
4 *4289:A *4289:B 4.89295e-05
*RES
1 *4288:X *4289:B 4.7 
*END

*D_NET *254 0.00122649
*CONN
*I *4310:A1 I *D sky130_fd_sc_hd__o21ai_1
*I *4291:A I *D sky130_fd_sc_hd__xnor2_1
*I *4289:Y O *D sky130_fd_sc_hd__nand2_1
*CAP
1 *4310:A1 0.000231671
2 *4291:A 0.000147955
3 *4289:Y 0
4 *254:4 0.000379625
5 *4291:A *1010:22 0.000141606
6 *4310:A1 *4287:A 7.36227e-05
7 *4310:A1 *4288:A 2.61115e-05
8 *4310:A1 *819:34 0.000159503
9 *4310:A1 *974:14 6.63985e-05
10 *4310:A1 *1010:22 0
*RES
1 *4289:Y *254:4 1.6 
2 *254:4 *4291:A 8.375 
3 *254:4 *4310:A1 9.095 
*END

*D_NET *255 0.00339221
*CONN
*I *4310:A2 I *D sky130_fd_sc_hd__o21ai_1
*I *4291:B I *D sky130_fd_sc_hd__xnor2_1
*I *4290:Y O *D sky130_fd_sc_hd__a21oi_1
*CAP
1 *4310:A2 5.91474e-05
2 *4291:B 0.000108866
3 *4290:Y 0.000704673
4 *255:10 0.000872687
5 *4310:A2 *974:14 0.000109995
6 *255:10 *974:14 0.000608113
7 *255:10 *974:24 0.000692639
8 *255:10 *1010:80 0.000161467
9 *4276:B *255:10 2.68526e-05
10 *4290:B1 *255:10 6.69608e-06
11 *241:8 *255:10 4.10688e-05
*RES
1 *4290:Y *255:10 19.98 
2 *255:10 *4291:B 5.085 
3 *255:10 *4310:A2 4.98 
*END

*D_NET *256 0.000657838
*CONN
*I *4292:B I *D sky130_fd_sc_hd__nand2_1
*I *4291:Y O *D sky130_fd_sc_hd__xnor2_1
*CAP
1 *4292:B 0.000169125
2 *4291:Y 0.000169125
3 *4292:B *1010:22 0.000271303
4 *4292:B *1010:24 4.82863e-05
*RES
1 *4291:Y *4292:B 6.68 
*END

*D_NET *257 0.000325838
*CONN
*I *4293:C1 I *D sky130_fd_sc_hd__o211a_1
*I *4292:Y O *D sky130_fd_sc_hd__nand2_1
*CAP
1 *4293:C1 7.53824e-05
2 *4292:Y 7.53824e-05
3 *4293:C1 *4184:A1 0.000118527
4 *4293:C1 *819:23 9.50342e-06
5 *4293:C1 *1010:52 4.7043e-05
*RES
1 *4292:Y *4293:C1 9.03 
*END

*D_NET *258 0.00143949
*CONN
*I *4322:A1 I *D sky130_fd_sc_hd__o21bai_1
*I *4297:A I *D sky130_fd_sc_hd__or3_1
*I *4298:B1 I *D sky130_fd_sc_hd__o21ai_1
*I *4294:Y O *D sky130_fd_sc_hd__nand2_1
*CAP
1 *4322:A1 0
2 *4297:A 7.63516e-05
3 *4298:B1 1.17533e-05
4 *4294:Y 0.000105931
5 *258:12 0.000104175
6 *258:10 0.000122001
7 *4297:A *4297:B 4.82863e-05
8 *4297:A *4297:C 0.000161529
9 *4297:A *259:14 0.000185494
10 *4297:A *260:23 3.83194e-05
11 *4298:B1 *259:14 4.82863e-05
12 *4298:B1 *260:23 2.75145e-05
13 *258:10 *4298:A1 3.05373e-05
14 *258:10 *259:10 0.000148983
15 *258:10 *973:24 0.000313764
16 *258:12 *260:23 1.65603e-05
*RES
1 *4294:Y *258:10 9.275 
2 *258:10 *258:12 0.36 
3 *258:12 *4298:B1 2.05 
4 *258:12 *4297:A 4.12 
5 *258:10 *4322:A1 1.6 
*END

*D_NET *259 0.00216809
*CONN
*I *4298:A1 I *D sky130_fd_sc_hd__o21ai_1
*I *4297:B I *D sky130_fd_sc_hd__or3_1
*I *4322:B1_N I *D sky130_fd_sc_hd__o21bai_1
*I *4295:X O *D sky130_fd_sc_hd__and4_1
*CAP
1 *4298:A1 8.26883e-05
2 *4297:B 4.186e-05
3 *4322:B1_N 0
4 *4295:X 0.000285867
5 *259:14 0.000187568
6 *259:10 0.000514263
7 *4298:A1 *263:16 0
8 *259:10 *260:12 0.000243206
9 *259:10 *263:16 0
10 *259:10 *973:24 8.06507e-05
11 *259:10 *986:78 7.55391e-05
12 *259:10 *987:114 1.52862e-05
13 *259:10 *989:77 4.99619e-05
14 *259:10 *1004:90 0.000116158
15 *259:14 *260:23 1.34594e-05
16 *4297:A *4297:B 4.82863e-05
17 *4297:A *259:14 0.000185494
18 *4298:B1 *259:14 4.82863e-05
19 *258:10 *4298:A1 3.05373e-05
20 *258:10 *259:10 0.000148983
*RES
1 *4295:X *259:10 11.295 
2 *259:10 *259:14 4.52 
3 *259:14 *4322:B1_N 1.6 
4 *259:14 *4297:B 2.41 
5 *259:10 *4298:A1 5.01 
*END

*D_NET *260 0.00168623
*CONN
*I *4297:C I *D sky130_fd_sc_hd__or3_1
*I *4322:A2 I *D sky130_fd_sc_hd__o21bai_1
*I *4298:A2 I *D sky130_fd_sc_hd__o21ai_1
*I *4296:Y O *D sky130_fd_sc_hd__a22oi_2
*CAP
1 *4297:C 6.48019e-05
2 *4322:A2 0
3 *4298:A2 0
4 *4296:Y 0.0002345
5 *260:23 0.000260335
6 *260:12 0.000430033
7 *260:12 *263:16 0.000100544
8 *260:12 *987:114 9.5433e-05
9 *4297:A *4297:C 0.000161529
10 *4297:A *260:23 3.83194e-05
11 *4298:B1 *260:23 2.75145e-05
12 *258:12 *260:23 1.65603e-05
13 *259:10 *260:12 0.000243206
14 *259:14 *260:23 1.34594e-05
*RES
1 *4296:Y *260:12 11.255 
2 *260:12 *4298:A2 1.6 
3 *260:12 *260:23 3.315 
4 *260:23 *4322:A2 1.6 
5 *260:23 *4297:C 3.085 
*END

*D_NET *261 0.00147489
*CONN
*I *4301:A1 I *D sky130_fd_sc_hd__a21o_1
*I *4300:A I *D sky130_fd_sc_hd__nand3_1
*I *4297:X O *D sky130_fd_sc_hd__or3_1
*CAP
1 *4301:A1 0.000223699
2 *4300:A 0
3 *4297:X 9.59581e-05
4 *261:12 0.000319657
5 *4301:A1 *4300:B 0.000300534
6 *4301:A1 *262:12 4.9968e-05
7 *4301:A1 *263:16 4.66108e-05
8 *4301:A1 *265:10 0.000160641
9 *4301:A1 *973:24 9.37731e-05
10 *261:12 *772:48 0.00011852
11 *4196:B1 *261:12 6.55328e-05
*RES
1 *4297:X *261:12 7.775 
2 *261:12 *4300:A 1.6 
3 *261:12 *4301:A1 10.655 
*END

*D_NET *262 0.00107509
*CONN
*I *4300:B I *D sky130_fd_sc_hd__nand3_1
*I *4301:A2 I *D sky130_fd_sc_hd__a21o_1
*I *4298:Y O *D sky130_fd_sc_hd__o21ai_1
*CAP
1 *4300:B 0.000144181
2 *4301:A2 0
3 *4298:Y 7.95813e-05
4 *262:12 0.000223762
5 *4300:B *4300:C 0.000158066
6 *4300:B *263:16 3.64936e-05
7 *262:12 *263:16 4.82863e-05
8 *262:12 *973:24 3.42142e-05
9 *4301:A1 *4300:B 0.000300534
10 *4301:A1 *262:12 4.9968e-05
*RES
1 *4298:Y *262:12 7.43 
2 *262:12 *4301:A2 1.6 
3 *262:12 *4300:B 5.53 
*END

*D_NET *263 0.00269178
*CONN
*I *4300:C I *D sky130_fd_sc_hd__nand3_1
*I *4301:B1 I *D sky130_fd_sc_hd__a21o_1
*I *4299:Y O *D sky130_fd_sc_hd__o21bai_1
*CAP
1 *4300:C 7.27491e-05
2 *4301:B1 0
3 *4299:Y 0.000797826
4 *263:16 0.000870575
5 *263:16 *973:24 0
6 *263:16 *1001:44 6.07575e-06
7 *263:16 *1007:136 0.000391354
8 *4298:A1 *263:16 0
9 *4300:B *4300:C 0.000158066
10 *4300:B *263:16 3.64936e-05
11 *4301:A1 *263:16 4.66108e-05
12 *244:18 *263:16 0.000163199
13 *259:10 *263:16 0
14 *260:12 *263:16 0.000100544
15 *262:12 *263:16 4.82863e-05
*RES
1 *4299:Y *263:16 18.2 
2 *263:16 *4301:B1 1.6 
3 *263:16 *4300:C 3.085 
*END

*D_NET *264 0.00236263
*CONN
*I *4303:B1 I *D sky130_fd_sc_hd__a22o_1
*I *4327:A I *D sky130_fd_sc_hd__nand2_1
*I *4302:C I *D sky130_fd_sc_hd__nand4_1
*I *4300:Y O *D sky130_fd_sc_hd__nand3_1
*CAP
1 *4303:B1 5.98449e-05
2 *4327:A 8.19813e-05
3 *4302:C 0
4 *4300:Y 6.40565e-05
5 *264:21 0.000246197
6 *264:8 0.000168427
7 *4303:B1 *4303:A2 4.66108e-05
8 *4303:B1 *4303:B2 0.000128347
9 *4327:A *266:10 0.000180682
10 *4327:A *266:23 9.50342e-06
11 *4327:A *772:46 2.49909e-05
12 *264:8 *265:10 0.000248254
13 *264:8 *772:48 0.000251595
14 *264:21 *4303:A2 0.000131517
15 *264:21 *4303:B2 0.000278058
16 *264:21 *265:10 4.14369e-05
17 *264:21 *772:48 0.000219751
18 *4196:B1 *4327:A 0.000181376
*RES
1 *4300:Y *264:8 6.51 
2 *264:8 *4302:C 3.6 
3 *264:8 *264:21 5.795 
4 *264:21 *4327:A 8.195 
5 *264:21 *4303:B1 3.1 
*END

*D_NET *265 0.00253081
*CONN
*I *4303:B2 I *D sky130_fd_sc_hd__a22o_1
*I *4302:D I *D sky130_fd_sc_hd__nand4_1
*I *4301:X O *D sky130_fd_sc_hd__a21o_1
*CAP
1 *4303:B2 0.000239071
2 *4302:D 2.4121e-05
3 *4301:X 0.000193459
4 *265:10 0.000456651
5 *4302:D *4189:B2 8.23457e-05
6 *4302:D *984:99 8.23457e-05
7 *4303:B2 *4303:A2 0.000171287
8 *4303:B2 *984:93 0.0001249
9 *265:10 *4303:A2 5.16418e-05
10 *265:10 *1007:136 0.000248254
11 *4301:A1 *265:10 0.000160641
12 *4303:B1 *4303:B2 0.000128347
13 *264:8 *265:10 0.000248254
14 *264:21 *4303:B2 0.000278058
15 *264:21 *265:10 4.14369e-05
*RES
1 *4301:X *265:10 8.505 
2 *265:10 *4302:D 4.395 
3 *265:10 *4303:B2 9.315 
*END

*D_NET *266 0.00183782
*CONN
*I *4304:B I *D sky130_fd_sc_hd__and3_1
*I *4305:A1 I *D sky130_fd_sc_hd__a21oi_1
*I *4327:B I *D sky130_fd_sc_hd__nand2_1
*I *4302:Y O *D sky130_fd_sc_hd__nand4_1
*CAP
1 *4304:B 0
2 *4305:A1 0.000130323
3 *4327:B 0
4 *4302:Y 0.000172689
5 *266:23 0.000264596
6 *266:10 0.000306962
7 *4305:A1 *4304:C 0.000147929
8 *4305:A1 *4305:A2 4.66108e-05
9 *266:10 *4189:A1 8.40269e-05
10 *266:10 *267:12 0
11 *266:10 *772:46 9.30717e-05
12 *266:10 *772:48 0.000157602
13 *266:23 *4304:C 2.31814e-06
14 *266:23 *268:8 3.09164e-05
15 *266:23 *290:12 8.53113e-06
16 *266:23 *772:46 4.11678e-06
17 *4196:B1 *266:10 5.65627e-05
18 *4196:B1 *266:23 3.39944e-05
19 *4304:A *4305:A1 2.16833e-05
20 *4327:A *266:10 0.000180682
21 *4327:A *266:23 9.50342e-06
22 *182:80 *4305:A1 8.57024e-05
*RES
1 *4302:Y *266:10 7.815 
2 *266:10 *4327:B 3.6 
3 *266:10 *266:23 4.01 
4 *266:23 *4305:A1 4.75 
5 *266:23 *4304:B 1.6 
*END

*D_NET *267 0.00125346
*CONN
*I *4304:C I *D sky130_fd_sc_hd__and3_1
*I *4305:A2 I *D sky130_fd_sc_hd__a21oi_1
*I *4303:X O *D sky130_fd_sc_hd__a22o_1
*CAP
1 *4304:C 7.01364e-05
2 *4305:A2 1.36534e-05
3 *4303:X 0.000280159
4 *267:12 0.000363949
5 *267:12 *4303:A2 9.02174e-05
6 *267:12 *772:46 0
7 *4193:B1 *267:12 0.000116158
8 *4304:A *4304:C 7.57202e-05
9 *4304:A *4305:A2 4.66108e-05
10 *4305:A1 *4304:C 0.000147929
11 *4305:A1 *4305:A2 4.66108e-05
12 *266:10 *267:12 0
13 *266:23 *4304:C 2.31814e-06
*RES
1 *4303:X *267:12 9.5 
2 *267:12 *4305:A2 2.05 
3 *267:12 *4304:C 3.61 
*END

*D_NET *268 0.00208053
*CONN
*I *4331:B1_N I *D sky130_fd_sc_hd__o21bai_1
*I *4330:C_N I *D sky130_fd_sc_hd__or3b_2
*I *4306:A I *D sky130_fd_sc_hd__nor2_1
*I *4304:X O *D sky130_fd_sc_hd__and3_1
*CAP
1 *4331:B1_N 9.12892e-05
2 *4330:C_N 0
3 *4306:A 0.000180963
4 *4304:X 8.65555e-05
5 *268:23 0.000338884
6 *268:8 0.000515113
7 *4331:B1_N *4193:A1 4.58166e-05
8 *4331:B1_N *4330:A 4.38278e-05
9 *4331:B1_N *4331:A2 0.000111455
10 *4331:B1_N *291:21 3.64998e-06
11 *4331:B1_N *292:12 0.000163199
12 *4331:B1_N *293:28 6.07575e-06
13 *268:8 *290:12 7.26551e-05
14 *268:23 *4193:A1 0.000223194
15 *268:23 *290:12 1.71013e-05
16 *268:23 *292:12 8.96017e-05
17 *4196:B1 *268:23 6.0236e-05
18 *182:80 *268:8 0
19 *182:80 *268:23 0
20 *182:91 *268:23 0
21 *266:23 *268:8 3.09164e-05
*RES
1 *4304:X *268:8 5.49 
2 *268:8 *4306:A 6.12 
3 *268:8 *268:23 7.7 
4 *268:23 *4330:C_N 1.6 
5 *268:23 *4331:B1_N 4.48 
*END

*D_NET *269 0.000340787
*CONN
*I *4306:B I *D sky130_fd_sc_hd__nor2_1
*I *4305:Y O *D sky130_fd_sc_hd__a21oi_1
*CAP
1 *4306:B 0.000105928
2 *4305:Y 0.000105928
3 *4193:B1 *4306:B 7.89689e-05
4 *182:80 *4306:B 4.99619e-05
*RES
1 *4305:Y *4306:B 9.285 
*END

*D_NET *270 0.00155768
*CONN
*I *4308:B I *D sky130_fd_sc_hd__or2_1
*I *4307:B I *D sky130_fd_sc_hd__nand2_1
*I *4306:Y O *D sky130_fd_sc_hd__nor2_1
*CAP
1 *4308:B 0
2 *4307:B 0.000449558
3 *4306:Y 0.000310743
4 *270:6 0.000760301
5 *4307:B *822:10 1.22505e-05
6 *4307:B *822:12 5.53249e-06
7 *4307:B *844:22 1.92979e-05
*RES
1 *4306:Y *270:6 5.845 
2 *270:6 *4307:B 7.91873 
3 *270:6 *4308:B 1.6 
*END

*D_NET *271 0.00075617
*CONN
*I *4309:A I *D sky130_fd_sc_hd__nand2_1
*I *4335:B1_N I *D sky130_fd_sc_hd__a21bo_1
*I *4307:Y O *D sky130_fd_sc_hd__nand2_1
*CAP
1 *4309:A 6.85577e-05
2 *4335:B1_N 0
3 *4307:Y 5.17084e-05
4 *271:6 0.000120266
5 *4309:A *4308:A 3.57349e-05
6 *4309:A *4311:A 0.000116158
7 *4309:A *4335:A2 2.49909e-05
8 *4309:A *274:10 0.000183043
9 *271:6 *4308:A 0.000122325
10 *271:6 *4335:A2 5.83121e-06
11 *4190:B1 *4309:A 2.75538e-05
*RES
1 *4307:Y *271:6 2.74 
2 *271:6 *4335:B1_N 1.6 
3 *271:6 *4309:A 8.195 
*END

*D_NET *272 0.00124118
*CONN
*I *4309:B I *D sky130_fd_sc_hd__nand2_1
*I *4335:A1 I *D sky130_fd_sc_hd__a21bo_1
*I *4308:X O *D sky130_fd_sc_hd__or2_1
*CAP
1 *4309:B 0.00019996
2 *4335:A1 0.000183429
3 *4308:X 0
4 *272:4 0.000383388
5 *4335:A1 *4308:A 0.000164902
6 *4335:A1 *4311:A 7.5037e-05
7 *4335:A1 *4335:A2 4.66108e-05
8 *4190:B1 *4309:B 0
9 *4190:B1 *4335:A1 7.20828e-05
10 *182:80 *4309:B 0.00011577
*RES
1 *4308:X *272:4 1.6 
2 *272:4 *4335:A1 8.75 
3 *272:4 *4309:B 9.065 
*END

*D_NET *273 0.00061347
*CONN
*I *4311:A I *D sky130_fd_sc_hd__xor2_1
*I *4309:Y O *D sky130_fd_sc_hd__nand2_1
*CAP
1 *4311:A 0.000103013
2 *4309:Y 0.000103013
3 *4311:A *4311:B 7.75369e-05
4 *4311:A *274:10 2.03801e-05
5 *4190:B1 *4311:A 0.000118332
6 *4309:A *4311:A 0.000116158
7 *4335:A1 *4311:A 7.5037e-05
*RES
1 *4309:Y *4311:A 10.62 
*END

*D_NET *274 0.00382838
*CONN
*I *4311:B I *D sky130_fd_sc_hd__xor2_1
*I *4335:A2 I *D sky130_fd_sc_hd__a21bo_1
*I *4310:Y O *D sky130_fd_sc_hd__o21ai_1
*CAP
1 *4311:B 7.45073e-05
2 *4335:A2 0.00014434
3 *4310:Y 0.000780159
4 *274:10 0.000999006
5 *4311:B *844:22 0.000154618
6 *4335:A2 *4308:A 4.20273e-05
7 *274:10 *4287:A 8.64421e-05
8 *274:10 *844:22 0.000793015
9 *274:10 *973:10 6.31804e-05
10 *274:10 *973:24 2.15738e-05
11 *4190:B1 *4311:B 0
12 *4190:B1 *274:10 0
13 *4194:B1 *4311:B 2.75229e-05
14 *4288:B *274:10 2.59934e-06
15 *4309:A *4335:A2 2.49909e-05
16 *4309:A *274:10 0.000183043
17 *4311:A *4311:B 7.75369e-05
18 *4311:A *274:10 2.03801e-05
19 *4335:A1 *4335:A2 4.66108e-05
20 *249:16 *274:10 0
21 *251:12 *274:10 0.00025899
22 *252:6 *274:10 2.20014e-05
23 *271:6 *4335:A2 5.83121e-06
*RES
1 *4310:Y *274:10 18.51 
2 *274:10 *4335:A2 5.79 
3 *274:10 *4311:B 5.94 
*END

*D_NET *275 0.00116769
*CONN
*I *4312:B I *D sky130_fd_sc_hd__nand2_1
*I *4311:X O *D sky130_fd_sc_hd__xor2_1
*CAP
1 *4312:B 0.000270866
2 *4311:X 0.000270866
3 *4312:B *839:81 0.000297754
4 *4312:B *972:16 0.000167716
5 *4194:B1 *4312:B 0.000160491
*RES
1 *4311:X *4312:B 13.14 
*END

*D_NET *276 0.000188877
*CONN
*I *4313:C1 I *D sky130_fd_sc_hd__o211a_1
*I *4312:Y O *D sky130_fd_sc_hd__nand2_1
*CAP
1 *4313:C1 6.07069e-05
2 *4312:Y 6.07069e-05
3 *4313:C1 *4313:A2 4.98756e-05
4 *4313:C1 *4313:B1 1.75875e-05
*RES
1 *4312:Y *4313:C1 4.355 
*END

*D_NET *277 0.000489055
*CONN
*I *4316:A I *D sky130_fd_sc_hd__nor2_1
*I *4314:Y O *D sky130_fd_sc_hd__a22oi_1
*CAP
1 *4316:A 0.000157932
2 *4314:Y 0.000157932
3 *4316:A *4326:A2 0
4 *4316:A *278:12 0
5 *4316:A *279:10 8.65961e-05
6 *4316:A *287:8 0
7 *4316:A *317:8 8.65961e-05
8 *4316:A *984:93 0
*RES
1 *4314:Y *4316:A 10.14 
*END

*D_NET *278 0.00189155
*CONN
*I *4358:A I *D sky130_fd_sc_hd__nand3_2
*I *4359:B1 I *D sky130_fd_sc_hd__a21o_1
*I *4316:B I *D sky130_fd_sc_hd__nor2_1
*I *4315:X O *D sky130_fd_sc_hd__and4_1
*CAP
1 *4358:A 0.000124313
2 *4359:B1 0
3 *4316:B 0
4 *4315:X 0.000131974
5 *278:23 0.000424054
6 *278:12 0.000431715
7 *278:12 *982:83 4.99619e-05
8 *278:12 *984:93 2.46089e-05
9 *278:23 *317:8 0.000582874
10 *278:23 *318:12 0
11 *278:23 *319:14 7.4027e-05
12 *278:23 *984:93 4.80182e-05
13 *4316:A *278:12 0
*RES
1 *4315:X *278:12 7.685 
2 *278:12 *4316:B 1.6 
3 *278:12 *278:23 9.17 
4 *278:23 *4359:B1 3.6 
5 *278:23 *4358:A 5.085 
*END

*D_NET *279 0.00238988
*CONN
*I *4355:A1 I *D sky130_fd_sc_hd__a21bo_1
*I *4325:A I *D sky130_fd_sc_hd__nand3_1
*I *4326:B1 I *D sky130_fd_sc_hd__a21o_1
*I *4316:Y O *D sky130_fd_sc_hd__nor2_1
*CAP
1 *4355:A1 0
2 *4325:A 0
3 *4326:B1 0.000264086
4 *4316:Y 0.000123164
5 *279:12 0.000353168
6 *279:10 0.000212247
7 *4326:B1 *4193:A1 0.000163204
8 *4326:B1 *4326:A1 0
9 *4326:B1 *4326:A2 0
10 *4326:B1 *286:10 9.50342e-06
11 *4326:B1 *288:10 0.000316112
12 *279:10 *4325:C 0
13 *279:10 *4355:A2 3.83041e-05
14 *279:10 *317:8 0.000136829
15 *279:10 *984:93 0.000218245
16 *279:12 *4325:C 0.000159859
17 *279:12 *4326:A1 2.30292e-05
18 *279:12 *4355:A2 8.40269e-05
19 *279:12 *286:21 0.000201508
20 *4316:A *279:10 8.65961e-05
21 *199:10 *4326:B1 0
*RES
1 *4316:Y *279:10 5.965 
2 *279:10 *279:12 3.21 
3 *279:12 *4326:B1 11.27 
4 *279:12 *4325:A 1.6 
5 *279:10 *4355:A1 1.6 
*END

*D_NET *280 0.00126146
*CONN
*I *4320:A I *D sky130_fd_sc_hd__or3_1
*I *4350:A1 I *D sky130_fd_sc_hd__o21bai_1
*I *4321:B1 I *D sky130_fd_sc_hd__o21ai_1
*I *4317:Y O *D sky130_fd_sc_hd__nand2_1
*CAP
1 *4320:A 0
2 *4350:A1 1.88809e-05
3 *4321:B1 7.00326e-06
4 *4317:Y 0.000174892
5 *280:12 8.38872e-05
6 *280:10 0.000232895
7 *4321:B1 *4321:A1 4.99619e-05
8 *4321:B1 *282:25 3.00381e-05
9 *4350:A1 *4321:A1 0
10 *4350:A1 *282:25 5.4155e-06
11 *280:10 *281:10 0.000112299
12 *280:10 *282:25 0
13 *280:12 *4320:B 8.65961e-05
14 *280:12 *4320:C 0.000203178
15 *280:12 *4321:A1 0.000189845
16 *280:12 *282:25 4.60584e-05
17 *280:12 *312:10 2.05056e-05
*RES
1 *4317:Y *280:10 9.02 
2 *280:10 *280:12 2.865 
3 *280:12 *4321:B1 2.05 
4 *280:12 *4350:A1 1.96 
5 *280:10 *4320:A 1.6 
*END

*D_NET *281 0.00134823
*CONN
*I *4320:B I *D sky130_fd_sc_hd__or3_1
*I *4350:B1_N I *D sky130_fd_sc_hd__o21bai_1
*I *4321:A1 I *D sky130_fd_sc_hd__o21ai_1
*I *4318:X O *D sky130_fd_sc_hd__and4_1
*CAP
1 *4320:B 5.80193e-05
2 *4350:B1_N 0
3 *4321:A1 0.000210889
4 *4318:X 0.000153601
5 *281:10 0.000422509
6 *4321:A1 *4321:A2 4.66108e-05
7 *4321:A1 *282:25 1.34594e-05
8 *281:10 *282:8 0
9 *281:10 *1001:71 4.43871e-06
10 *4321:B1 *4321:A1 4.99619e-05
11 *4350:A1 *4321:A1 0
12 *280:10 *281:10 0.000112299
13 *280:12 *4320:B 8.65961e-05
14 *280:12 *4321:A1 0.000189845
*RES
1 *4318:X *281:10 8.765 
2 *281:10 *4321:A1 5.425 
3 *281:10 *4350:B1_N 1.6 
4 *281:10 *4320:B 2.755 
*END

*D_NET *282 0.00168061
*CONN
*I *4320:C I *D sky130_fd_sc_hd__or3_1
*I *4350:A2 I *D sky130_fd_sc_hd__o21bai_1
*I *4321:A2 I *D sky130_fd_sc_hd__o21ai_1
*I *4319:Y O *D sky130_fd_sc_hd__a22oi_2
*CAP
1 *4320:C 3.03613e-05
2 *4350:A2 0
3 *4321:A2 3.69588e-05
4 *4319:Y 0.000156674
5 *282:25 0.000179938
6 *282:8 0.00034321
7 *4320:C *312:10 0.000164874
8 *282:8 *4318:B 1.22676e-05
9 *282:25 *312:10 9.53428e-06
10 *4321:A1 *4321:A2 4.66108e-05
11 *4321:A1 *282:25 1.34594e-05
12 *4321:B1 *282:25 3.00381e-05
13 *4350:A1 *282:25 5.4155e-06
14 *199:10 *282:8 0.000312764
15 *199:10 *282:25 8.92701e-05
16 *280:10 *282:25 0
17 *280:12 *4320:C 0.000203178
18 *280:12 *282:25 4.60584e-05
19 *281:10 *282:8 0
*RES
1 *4319:Y *282:8 7.275 
2 *282:8 *4321:A2 4.05 
3 *282:8 *282:25 4.97 
4 *282:25 *4350:A2 1.6 
5 *282:25 *4320:C 3.43 
*END

*D_NET *283 0.00112312
*CONN
*I *4324:A1 I *D sky130_fd_sc_hd__a21o_1
*I *4323:A I *D sky130_fd_sc_hd__nand3_1
*I *4320:X O *D sky130_fd_sc_hd__or3_1
*CAP
1 *4324:A1 0
2 *4323:A 4.0791e-05
3 *4320:X 0.000320671
4 *283:12 0.000361462
5 *4323:A *4324:A2 9.74752e-05
6 *4323:A *4324:B1 0.000143462
7 *4323:A *284:14 3.26889e-05
8 *283:12 *284:14 0
9 *283:12 *312:10 0.00012657
*RES
1 *4320:X *283:12 10.415 
2 *283:12 *4323:A 3.46 
3 *283:12 *4324:A1 1.6 
*END

*D_NET *284 0.00121554
*CONN
*I *4324:A2 I *D sky130_fd_sc_hd__a21o_1
*I *4323:B I *D sky130_fd_sc_hd__nand3_1
*I *4321:Y O *D sky130_fd_sc_hd__o21ai_1
*CAP
1 *4324:A2 7.51754e-05
2 *4323:B 0
3 *4321:Y 0.000213885
4 *284:14 0.00028906
5 *4324:A2 *4324:B1 1.12578e-05
6 *284:14 *4323:C 0.0001249
7 *284:14 *4324:B1 0.000201508
8 *4323:A *4324:A2 9.74752e-05
9 *4323:A *284:14 3.26889e-05
10 *199:10 *284:14 0.000169591
11 *283:12 *284:14 0
*RES
1 *4321:Y *284:14 11.21 
2 *284:14 *4323:B 1.6 
3 *284:14 *4324:A2 3.565 
*END

*D_NET *285 0.00291959
*CONN
*I *4323:C I *D sky130_fd_sc_hd__nand3_1
*I *4324:B1 I *D sky130_fd_sc_hd__a21o_1
*I *4322:Y O *D sky130_fd_sc_hd__o21bai_1
*CAP
1 *4323:C 6.18473e-05
2 *4324:B1 0.000300164
3 *4322:Y 0.000638756
4 *285:12 0.00100077
5 *285:12 *1007:136 0.000120819
6 *4193:B1 *285:12 0.000316112
7 *4323:A *4324:B1 0.000143462
8 *4324:A2 *4324:B1 1.12578e-05
9 *284:14 *4323:C 0.0001249
10 *284:14 *4324:B1 0.000201508
*RES
1 *4322:Y *285:12 16.625 
2 *285:12 *4324:B1 7.075 
3 *285:12 *4323:C 3.085 
*END

*D_NET *286 0.0016335
*CONN
*I *4326:A1 I *D sky130_fd_sc_hd__a21o_1
*I *4355:B1_N I *D sky130_fd_sc_hd__a21bo_1
*I *4325:B I *D sky130_fd_sc_hd__nand3_1
*I *4323:Y O *D sky130_fd_sc_hd__nand3_1
*CAP
1 *4326:A1 0.000207799
2 *4355:B1_N 0
3 *4325:B 0
4 *4323:Y 0.000246136
5 *286:21 0.000356231
6 *286:10 0.000394568
7 *4326:A1 *4326:A2 0.000175848
8 *286:10 *4326:A2 0
9 *286:10 *287:8 0
10 *286:10 *287:12 0
11 *286:21 *4325:C 1.88749e-05
12 *4326:B1 *4326:A1 0
13 *4326:B1 *286:10 9.50342e-06
14 *199:10 *286:10 0
15 *279:12 *4326:A1 2.30292e-05
16 *279:12 *286:21 0.000201508
*RES
1 *4323:Y *286:10 9.275 
2 *286:10 *4325:B 1.6 
3 *286:10 *286:21 2.895 
4 *286:21 *4355:B1_N 1.6 
5 *286:21 *4326:A1 9.725 
*END

*D_NET *287 0.00237635
*CONN
*I *4326:A2 I *D sky130_fd_sc_hd__a21o_1
*I *4355:A2 I *D sky130_fd_sc_hd__a21bo_1
*I *4325:C I *D sky130_fd_sc_hd__nand3_1
*I *4324:X O *D sky130_fd_sc_hd__a21o_1
*CAP
1 *4326:A2 0.00031113
2 *4355:A2 2.40208e-05
3 *4325:C 0.000139607
4 *4324:X 0.00021139
5 *287:12 0.000173952
6 *287:8 0.000532844
7 *4325:C *984:93 0.00039046
8 *4326:A2 *4193:A1 4.82863e-05
9 *4355:A2 *984:93 6.77501e-05
10 *4316:A *4326:A2 0
11 *4316:A *287:8 0
12 *4326:A1 *4326:A2 0.000175848
13 *4326:B1 *4326:A2 0
14 *279:10 *4325:C 0
15 *279:10 *4355:A2 3.83041e-05
16 *279:12 *4325:C 0.000159859
17 *279:12 *4355:A2 8.40269e-05
18 *286:10 *4326:A2 0
19 *286:10 *287:8 0
20 *286:10 *287:12 0
21 *286:21 *4325:C 1.88749e-05
*RES
1 *4324:X *287:8 6.8925 
2 *287:8 *287:12 2.2325 
3 *287:12 *4325:C 6.13 
4 *287:12 *4355:A2 2.74 
5 *287:8 *4326:A2 9.0675 
*END

*D_NET *288 0.00185577
*CONN
*I *4329:A1 I *D sky130_fd_sc_hd__a21oi_1
*I *4328:A I *D sky130_fd_sc_hd__and3_1
*I *4325:Y O *D sky130_fd_sc_hd__nand3_1
*CAP
1 *4329:A1 0.00036075
2 *4328:A 0
3 *4325:Y 0.000186741
4 *288:10 0.000547491
5 *4329:A1 *4193:A1 3.52624e-05
6 *4329:A1 *4328:C 0.000409414
7 *288:10 *291:10 0
8 *288:10 *776:8 0
9 *4326:B1 *288:10 0.000316112
10 *199:10 *288:10 0
*RES
1 *4325:Y *288:10 9.53 
2 *288:10 *4328:A 1.6 
3 *288:10 *4329:A1 6.55 
*END

*D_NET *289 0.00118886
*CONN
*I *4328:B I *D sky130_fd_sc_hd__and3_1
*I *4329:A2 I *D sky130_fd_sc_hd__a21oi_1
*I *4326:X O *D sky130_fd_sc_hd__a21o_1
*CAP
1 *4328:B 2.08101e-05
2 *4329:A2 0.000229557
3 *4326:X 9.57824e-05
4 *289:6 0.000346149
5 *4329:A2 *4193:A1 0.000233786
6 *4329:A2 *4328:C 6.47326e-05
7 *289:6 *4193:A1 0.000198046
*RES
1 *4326:X *289:6 3.43 
2 *289:6 *4329:A2 5.77 
3 *289:6 *4328:B 1.96 
*END

*D_NET *290 0.00148149
*CONN
*I *4328:C I *D sky130_fd_sc_hd__and3_1
*I *4329:B1 I *D sky130_fd_sc_hd__a21oi_1
*I *4327:Y O *D sky130_fd_sc_hd__nand2_1
*CAP
1 *4328:C 0.0001443
2 *4329:B1 0
3 *4327:Y 0.000166359
4 *290:12 0.000310659
5 *4328:C *4193:A1 0.000123059
6 *4196:B1 *290:12 0.000164679
7 *4329:A1 *4328:C 0.000409414
8 *4329:A2 *4328:C 6.47326e-05
9 *266:23 *290:12 8.53113e-06
10 *268:8 *290:12 7.26551e-05
11 *268:23 *290:12 1.71013e-05
*RES
1 *4327:Y *290:12 8.975 
2 *290:12 *4329:B1 1.6 
3 *290:12 *4328:C 6.07 
*END

*D_NET *291 0.00350239
*CONN
*I *4362:A_N I *D sky130_fd_sc_hd__nand3b_1
*I *4361:A I *D sky130_fd_sc_hd__nand3_1
*I *4331:A1 I *D sky130_fd_sc_hd__o21bai_1
*I *4330:A I *D sky130_fd_sc_hd__or3b_2
*I *4328:X O *D sky130_fd_sc_hd__and3_1
*CAP
1 *4362:A_N 0
2 *4361:A 0.000322038
3 *4331:A1 2.08101e-05
4 *4330:A 5.91684e-05
5 *4328:X 0.000129402
6 *291:32 0.000627731
7 *291:21 0.000371746
8 *291:10 0.000233813
9 *4330:A *4331:A2 0
10 *4330:A *293:28 0.000120655
11 *4331:A1 *4331:A2 0
12 *4361:A *4193:A1 0.000161623
13 *4361:A *4364:A 5.16418e-05
14 *4361:A *323:20 1.08758e-05
15 *4361:A *323:44 0
16 *291:10 *776:8 4.05358e-05
17 *291:10 *776:17 7.09921e-05
18 *291:21 *4331:A2 9.59502e-05
19 *291:21 *293:28 0.000190633
20 *291:32 *4362:C 3.45252e-05
21 *291:32 *293:28 0.000802711
22 *291:32 *293:41 8.23457e-05
23 *291:32 *324:12 2.77183e-05
24 *4331:B1_N *4330:A 4.38278e-05
25 *4331:B1_N *291:21 3.64998e-06
26 *288:10 *291:10 0
*RES
1 *4328:X *291:10 8 
2 *291:10 *4330:A 3.1 
3 *291:10 *291:21 1.83 
4 *291:21 *4331:A1 1.96 
5 *291:21 *291:32 8.4 
6 *291:32 *4361:A 11.045 
7 *291:32 *4362:A_N 1.6 
*END

*D_NET *292 0.00168374
*CONN
*I *4331:A2 I *D sky130_fd_sc_hd__o21bai_1
*I *4330:B I *D sky130_fd_sc_hd__or3b_2
*I *4329:Y O *D sky130_fd_sc_hd__a21oi_1
*CAP
1 *4331:A2 0.000189011
2 *4330:B 0
3 *4329:Y 0.000358824
4 *292:12 0.000547835
5 *292:12 *4193:A1 0
6 *292:12 *293:10 6.55406e-05
7 *4196:B1 *292:12 6.23206e-05
8 *4330:A *4331:A2 0
9 *4331:A1 *4331:A2 0
10 *4331:B1_N *4331:A2 0.000111455
11 *4331:B1_N *292:12 0.000163199
12 *199:10 *292:12 0
13 *268:23 *292:12 8.96017e-05
14 *291:21 *4331:A2 9.59502e-05
*RES
1 *4329:Y *292:12 11.63 
2 *292:12 *4330:B 1.6 
3 *292:12 *4331:A2 4.75 
*END

*D_NET *293 0.00611264
*CONN
*I *4363:A I *D sky130_fd_sc_hd__nor2_1
*I *4364:A I *D sky130_fd_sc_hd__or2_1
*I *4362:B I *D sky130_fd_sc_hd__nand3b_1
*I *4333:A1 I *D sky130_fd_sc_hd__a21o_1
*I *4332:B I *D sky130_fd_sc_hd__and3_1
*I *4330:X O *D sky130_fd_sc_hd__or3b_2
*CAP
1 *4363:A 0.000321835
2 *4364:A 0.000165183
3 *4362:B 2.87105e-05
4 *4333:A1 5.80188e-05
5 *4332:B 0
6 *4330:X 0
7 *293:41 0.000575455
8 *293:28 0.000873604
9 *293:10 0.000330018
10 *293:4 0.00102846
11 *4333:A1 *4333:A2 9.71067e-05
12 *4362:B *4193:A1 5.16418e-05
13 *4363:A *4362:C 3.45679e-05
14 *4363:A *322:21 0.000146883
15 *4364:A *4193:A1 8.15598e-05
16 *4364:A *4364:B 0.000167879
17 *4364:A *323:44 0
18 *4364:A *824:10 9.33406e-05
19 *293:10 *4193:A1 0.000313857
20 *293:28 *4193:A1 4.82863e-05
21 *293:41 *4362:C 1.19928e-05
22 *4196:B1 *4333:A1 0.000179922
23 *4196:B1 *293:10 0.000184717
24 *4330:A *293:28 0.000120655
25 *4331:B1_N *293:28 6.07575e-06
26 *4361:A *4364:A 5.16418e-05
27 *199:10 *4333:A1 0
28 *199:10 *293:10 0
29 *291:21 *293:28 0.000190633
30 *291:32 *293:28 0.000802711
31 *291:32 *293:41 8.23457e-05
32 *292:12 *293:10 6.55406e-05
*RES
1 *4330:X *293:4 1.6 
2 *293:4 *293:10 7.01 
3 *293:10 *4332:B 3.6 
4 *293:10 *4333:A1 5.745 
5 *293:4 *293:28 10.8 
6 *293:28 *4362:B 6.215 
7 *293:28 *293:41 1.14 
8 *293:41 *4364:A 10.04 
9 *293:41 *4363:A 6.115 
*END

*D_NET *294 0.00139594
*CONN
*I *4333:A2 I *D sky130_fd_sc_hd__a21o_1
*I *4332:C I *D sky130_fd_sc_hd__and3_1
*I *4331:Y O *D sky130_fd_sc_hd__o21bai_1
*CAP
1 *4333:A2 5.67044e-05
2 *4332:C 2.70559e-05
3 *4331:Y 0.000486322
4 *294:12 0.000570083
5 *4333:A2 *295:12 4.61744e-05
6 *294:12 *295:12 8.8266e-05
7 *294:12 *776:17 0
8 *4196:B1 *4333:A2 2.42236e-05
9 *4333:A1 *4333:A2 9.71067e-05
10 *199:10 *4333:A2 0
*RES
1 *4331:Y *294:12 12.77 
2 *294:12 *4332:C 1.93 
3 *294:12 *4333:A2 7.235 
*END

*D_NET *295 0.00174878
*CONN
*I *4368:B1 I *D sky130_fd_sc_hd__a21o_1
*I *4334:A_N I *D sky130_fd_sc_hd__nand2b_1
*I *4332:X O *D sky130_fd_sc_hd__and3_1
*CAP
1 *4368:B1 2.92427e-05
2 *4334:A_N 0.000276216
3 *4332:X 0.000128046
4 *295:12 0.000433505
5 *4334:A_N *4332:A 2.97004e-06
6 *4334:A_N *4334:B 0.000201508
7 *4334:A_N *4368:A1 2.29156e-05
8 *4334:A_N *4368:A2 0.000505506
9 *4334:A_N *823:40 1.44259e-05
10 *4333:A2 *295:12 4.61744e-05
11 *182:91 *4334:A_N 0
12 *199:10 *295:12 0
13 *294:12 *295:12 8.8266e-05
*RES
1 *4332:X *295:12 7.775 
2 *295:12 *4334:A_N 11.975 
3 *295:12 *4368:B1 2.05 
*END

*D_NET *296 0.0010082
*CONN
*I *4368:A1 I *D sky130_fd_sc_hd__a21o_1
*I *4334:B I *D sky130_fd_sc_hd__nand2b_1
*I *4333:X O *D sky130_fd_sc_hd__a21o_1
*CAP
1 *4368:A1 0.000147909
2 *4334:B 0.000152296
3 *4333:X 0
4 *296:4 0.000300205
5 *4334:B *4368:A2 4.97777e-05
6 *4368:A1 *4368:A2 0.000133592
7 *4334:A_N *4334:B 0.000201508
8 *4334:A_N *4368:A1 2.29156e-05
*RES
1 *4333:X *296:4 1.6 
2 *296:4 *4334:B 4.58875 
3 *296:4 *4368:A1 4.12 
*END

*D_NET *297 0.000889339
*CONN
*I *4336:A I *D sky130_fd_sc_hd__xnor2_1
*I *4334:Y O *D sky130_fd_sc_hd__nand2b_1
*CAP
1 *4336:A 0.00036233
2 *4334:Y 0.00036233
3 *4336:A *4193:A2 0.000164679
*RES
1 *4334:Y *4336:A 13.335 
*END

*D_NET *298 0.00286193
*CONN
*I *4336:B I *D sky130_fd_sc_hd__xnor2_1
*I *4368:A2 I *D sky130_fd_sc_hd__a21o_1
*I *4335:X O *D sky130_fd_sc_hd__a21bo_1
*CAP
1 *4336:B 0.000114231
2 *4368:A2 0.000544487
3 *4335:X 0.000409164
4 *298:10 0.00106788
5 *298:10 *4308:A 3.72916e-05
6 *4190:B1 *4336:B 0
7 *4190:B1 *298:10 0
8 *4334:A_N *4368:A2 0.000505506
9 *4334:B *4368:A2 4.97777e-05
10 *4368:A1 *4368:A2 0.000133592
*RES
1 *4335:X *298:10 10.11 
2 *298:10 *4368:A2 14.07 
3 *298:10 *4336:B 5.49 
*END

*D_NET *299 0.000699534
*CONN
*I *4337:A1 I *D sky130_fd_sc_hd__mux2_1
*I *4336:Y O *D sky130_fd_sc_hd__xnor2_1
*CAP
1 *4337:A1 0.000263171
2 *4336:Y 0.000263171
3 *4337:A1 *4190:A1 0
4 *4337:A1 *4193:A2 0
5 *4337:A1 *839:93 8.65961e-05
6 *4337:A1 *1009:42 8.65961e-05
7 *4190:B1 *4337:A1 0
8 *183:28 *4337:A1 0
*RES
1 *4336:Y *4337:A1 11.415 
*END

*D_NET *300 0.000415749
*CONN
*I *4338:B I *D sky130_fd_sc_hd__and2_1
*I *4337:X O *D sky130_fd_sc_hd__mux2_1
*CAP
1 *4338:B 0.000181137
2 *4337:X 0.000181137
3 *4338:B *839:93 5.34747e-05
4 *4338:B *844:12 0
*RES
1 *4337:X *4338:B 9.72 
*END

*D_NET *301 0.00249634
*CONN
*I *4373:B1 I *D sky130_fd_sc_hd__a211oi_1
*I *4372:A1 I *D sky130_fd_sc_hd__o211a_1
*I *4341:A I *D sky130_fd_sc_hd__or2_1
*I *4339:X O *D sky130_fd_sc_hd__and4_1
*CAP
1 *4373:B1 0
2 *4372:A1 0.000312513
3 *4341:A 0
4 *4339:X 0.000274126
5 *301:19 0.000447627
6 *301:8 0.00040924
7 *4372:A1 *4372:A2 0.000195893
8 *4372:A1 *333:10 4.05674e-06
9 *4372:A1 *1008:31 0
10 *301:8 *4340:A1 0.000159741
11 *301:8 *4340:A2 6.8725e-06
12 *301:8 *4341:B 4.66108e-05
13 *301:8 *4343:B 1.34594e-05
14 *301:8 *4375:B 9.63032e-06
15 *301:19 *4343:A 4.84982e-05
16 *301:19 *4343:B 0.000100314
17 *301:19 *4372:C1 0.0001249
18 *301:19 *305:10 0.00015723
19 *301:19 *977:117 0.000185633
*RES
1 *4339:X *301:8 5.17 
2 *301:8 *4341:A 1.6 
3 *301:8 *301:19 4.71 
4 *301:19 *4372:A1 9.8 
5 *301:19 *4373:B1 1.6 
*END

*D_NET *302 0.000371708
*CONN
*I *4341:B I *D sky130_fd_sc_hd__or2_1
*I *4340:Y O *D sky130_fd_sc_hd__a22oi_1
*CAP
1 *4341:B 0.000108958
2 *4340:Y 0.000108958
3 *4341:B *4340:A2 1.79536e-05
4 *4341:B *4344:B 5.30842e-05
5 *4341:B *4375:B 1.4389e-05
6 *4341:B *304:14 9.50342e-06
7 *4341:B *1006:67 1.22505e-05
8 *301:8 *4341:B 4.66108e-05
*RES
1 *4340:Y *4341:B 9.42 
*END

*D_NET *303 0.00122075
*CONN
*I *4344:A I *D sky130_fd_sc_hd__xor2_1
*I *4343:A I *D sky130_fd_sc_hd__nor2_1
*I *4341:X O *D sky130_fd_sc_hd__or2_1
*CAP
1 *4344:A 0.000294601
2 *4343:A 6.01841e-05
3 *4341:X 0
4 *303:6 0.000354785
5 *4343:A *4343:B 5.26759e-05
6 *4343:A *4344:B 0
7 *4343:A *977:117 5.16418e-05
8 *4344:A *4344:B 8.65905e-05
9 *4344:A *306:10 0.000140113
10 *4344:A *313:10 0.000122155
11 *4344:A *977:117 9.50342e-06
12 *4344:A *1006:73 0
13 *4344:A *1008:55 0
14 *301:19 *4343:A 4.84982e-05
*RES
1 *4341:X *303:6 3.6 
2 *303:6 *4343:A 4.8975 
3 *303:6 *4344:A 9.795 
*END

*D_NET *304 0.00181134
*CONN
*I *4343:B I *D sky130_fd_sc_hd__nor2_1
*I *4344:B I *D sky130_fd_sc_hd__xor2_1
*I *4342:Y O *D sky130_fd_sc_hd__nand2_1
*CAP
1 *4343:B 0.000102036
2 *4344:B 0.000284956
3 *4342:Y 0.000226447
4 *304:14 0.000613439
5 *4343:B *4375:B 0.000134314
6 *4343:B *305:10 1.16578e-05
7 *4343:B *977:117 0
8 *4344:B *977:117 0
9 *4344:B *1006:73 0
10 *304:14 *4342:A 8.8266e-05
11 *304:14 *977:117 0
12 *304:14 *1006:67 6.27904e-06
13 *304:14 *1008:31 2.8318e-05
14 *4341:B *4344:B 5.30842e-05
15 *4341:B *304:14 9.50342e-06
16 *4343:A *4343:B 5.26759e-05
17 *4343:A *4344:B 0
18 *4344:A *4344:B 8.65905e-05
19 *301:8 *4343:B 1.34594e-05
20 *301:19 *4343:B 0.000100314
*RES
1 *4342:Y *304:14 7.4025 
2 *304:14 *4344:B 8.7075 
3 *304:14 *4343:B 6.8175 
*END

*D_NET *305 0.00115955
*CONN
*I *4372:A2 I *D sky130_fd_sc_hd__o211a_1
*I *4373:C1 I *D sky130_fd_sc_hd__a211oi_1
*I *4343:Y O *D sky130_fd_sc_hd__nor2_1
*CAP
1 *4372:A2 6.29027e-05
2 *4373:C1 0
3 *4343:Y 7.38896e-05
4 *305:10 0.000136792
5 *4372:A2 *4372:B1 2.57174e-05
6 *4372:A2 *4372:C1 0.000124007
7 *4372:A2 *4374:B 2.30292e-05
8 *4372:A2 *4375:B 2.05056e-05
9 *305:10 *4372:C1 2.76781e-05
10 *305:10 *4375:B 0.000300252
11 *4343:B *305:10 1.16578e-05
12 *4372:A1 *4372:A2 0.000195893
13 *301:19 *305:10 0.00015723
*RES
1 *4343:Y *305:10 4.93 
2 *305:10 *4373:C1 1.6 
3 *305:10 *4372:A2 4.135 
*END

*D_NET *306 0.00135938
*CONN
*I *4353:A I *D sky130_fd_sc_hd__nand3_1
*I *4354:B1 I *D sky130_fd_sc_hd__a21o_1
*I *4393:A1 I *D sky130_fd_sc_hd__a21bo_1
*I *4344:X O *D sky130_fd_sc_hd__xor2_1
*CAP
1 *4353:A 3.17111e-05
2 *4354:B1 4.97643e-05
3 *4393:A1 0
4 *4344:X 0.000242716
5 *306:23 0.000170254
6 *306:10 0.000331494
7 *4353:A *4353:B 5.17316e-05
8 *4353:A *4353:C 5.80193e-05
9 *4353:A *4354:A1 1.56632e-05
10 *4354:B1 *4354:A1 5.94962e-05
11 *4354:B1 *313:27 3.25635e-05
12 *306:10 *313:10 0
13 *306:10 *313:27 0
14 *306:10 *314:18 9.50342e-06
15 *306:10 *1008:55 0
16 *306:23 *4353:C 0
17 *306:23 *313:27 0
18 *306:23 *314:18 0.000166346
19 *4344:A *306:10 0.000140113
*RES
1 *4344:X *306:10 7.575 
2 *306:10 *4393:A1 3.6 
3 *306:10 *306:23 4.25 
4 *306:23 *4354:B1 2.755 
5 *306:23 *4353:A 2.755 
*END

*D_NET *307 0.00142949
*CONN
*I *4349:B1 I *D sky130_fd_sc_hd__o21ai_1
*I *4348:A I *D sky130_fd_sc_hd__or3_1
*I *4388:A1 I *D sky130_fd_sc_hd__o21bai_1
*I *4345:Y O *D sky130_fd_sc_hd__nand2_1
*CAP
1 *4349:B1 8.92704e-05
2 *4348:A 0
3 *4388:A1 9.39626e-05
4 *4345:Y 4.71959e-05
5 *307:21 0.000107516
6 *307:6 0.000159404
7 *4349:B1 *4349:A2 0.000194694
8 *4349:B1 *4381:A 1.91597e-05
9 *4349:B1 *311:12 9.52646e-05
10 *4349:B1 *1000:97 1.19928e-05
11 *4388:A1 *4349:A2 2.92496e-05
12 *4388:A1 *4381:A 7.21296e-06
13 *4388:A1 *308:21 0.000130853
14 *4388:A1 *309:14 0.000155928
15 *307:6 *4348:C 4.66108e-05
16 *307:6 *4349:A2 4.66108e-05
17 *307:6 *4381:A 2.16833e-05
18 *307:6 *986:84 3.00381e-05
19 *307:21 *4348:C 3.74161e-05
20 *307:21 *4349:A2 8.49205e-05
21 *307:21 *4381:A 2.05056e-05
*RES
1 *4345:Y *307:6 2.74 
2 *307:6 *4388:A1 8.195 
3 *307:6 *307:21 0.795 
4 *307:21 *4348:A 1.6 
5 *307:21 *4349:B1 4.12 
*END

*D_NET *308 0.00202839
*CONN
*I *4349:A1 I *D sky130_fd_sc_hd__o21ai_1
*I *4348:B I *D sky130_fd_sc_hd__or3_1
*I *4388:B1_N I *D sky130_fd_sc_hd__o21bai_1
*I *4346:X O *D sky130_fd_sc_hd__and4_1
*CAP
1 *4349:A1 0.000136112
2 *4348:B 0
3 *4388:B1_N 0
4 *4346:X 8.28648e-05
5 *308:21 0.000401768
6 *308:6 0.000348521
7 *4349:A1 *4349:A2 0.00015896
8 *4349:A1 *310:12 7.23533e-05
9 *4349:A1 *311:12 7.23533e-05
10 *308:6 *309:10 0.000275548
11 *308:6 *999:59 5.05437e-05
12 *308:21 *4349:A2 7.21296e-06
13 *308:21 *4381:A 0.000114492
14 *308:21 *309:10 0.000150118
15 *308:21 *310:12 0
16 *308:21 *311:12 2.66935e-05
17 *308:21 *1001:71 0
18 *4388:A1 *308:21 0.000130853
*RES
1 *4346:X *308:6 4.12 
2 *308:6 *4388:B1_N 1.6 
3 *308:6 *308:21 9.445 
4 *308:21 *4348:B 1.6 
5 *308:21 *4349:A1 7.955 
*END

*D_NET *309 0.00283776
*CONN
*I *4388:A2 I *D sky130_fd_sc_hd__o21bai_1
*I *4349:A2 I *D sky130_fd_sc_hd__o21ai_1
*I *4348:C I *D sky130_fd_sc_hd__or3_1
*I *4347:Y O *D sky130_fd_sc_hd__a22oi_2
*CAP
1 *4388:A2 0
2 *4349:A2 0.000134486
3 *4348:C 2.01864e-05
4 *4347:Y 0.000465914
5 *309:14 0.00023243
6 *309:10 0.000543672
7 *4348:C *4381:A 8.40269e-05
8 *4349:A2 *1001:71 2.03321e-05
9 *309:10 *4346:A 1.47347e-05
10 *309:10 *4346:B 2.66586e-05
11 *309:10 *4346:C 5.062e-06
12 *309:10 *988:102 5.83121e-06
13 *309:10 *999:59 3.23663e-05
14 *309:14 *1001:71 4.18603e-06
15 *309:14 *1001:77 6.06004e-05
16 *4349:A1 *4349:A2 0.00015896
17 *4349:B1 *4349:A2 0.000194694
18 *4388:A1 *4349:A2 2.92496e-05
19 *4388:A1 *309:14 0.000155928
20 *307:6 *4348:C 4.66108e-05
21 *307:6 *4349:A2 4.66108e-05
22 *307:21 *4348:C 3.74161e-05
23 *307:21 *4349:A2 8.49205e-05
24 *308:6 *309:10 0.000275548
25 *308:21 *4349:A2 7.21296e-06
26 *308:21 *309:10 0.000150118
*RES
1 *4347:Y *309:10 8.545 
2 *309:10 *309:14 3.89 
3 *309:14 *4348:C 4.395 
4 *309:14 *4349:A2 7.08 
5 *309:10 *4388:A2 1.6 
*END

*D_NET *310 0.00181918
*CONN
*I *4351:A I *D sky130_fd_sc_hd__nand3_1
*I *4352:A1 I *D sky130_fd_sc_hd__a21o_1
*I *4348:X O *D sky130_fd_sc_hd__or3_1
*CAP
1 *4351:A 0.00016014
2 *4352:A1 1.77225e-05
3 *4348:X 0.000393897
4 *310:12 0.000571759
5 *4351:A *4351:B 3.09179e-05
6 *4351:A *4351:C 0.000124895
7 *4351:A *312:10 2.42171e-05
8 *4351:A *313:10 3.64998e-06
9 *4352:A1 *312:10 4.82863e-05
10 *310:12 *4314:A1 0
11 *310:12 *4351:B 5.53249e-06
12 *310:12 *311:12 0.000362839
13 *310:12 *1000:97 2.97004e-06
14 *4349:A1 *310:12 7.23533e-05
15 *308:21 *310:12 0
*RES
1 *4348:X *310:12 13.385 
2 *310:12 *4352:A1 2.05 
3 *310:12 *4351:A 4.84 
*END

*D_NET *311 0.00203579
*CONN
*I *4351:B I *D sky130_fd_sc_hd__nand3_1
*I *4352:A2 I *D sky130_fd_sc_hd__a21o_1
*I *4349:Y O *D sky130_fd_sc_hd__o21ai_1
*CAP
1 *4351:B 0.000273515
2 *4352:A2 0
3 *4349:Y 0.000351848
4 *311:12 0.000625363
5 *4351:B *4314:A1 0
6 *4351:B *4351:C 6.6564e-05
7 *4351:B *312:10 0.0001249
8 *311:12 *4345:A 0
9 *311:12 *1001:71 0
10 *4349:A1 *311:12 7.23533e-05
11 *4349:B1 *311:12 9.52646e-05
12 *4351:A *4351:B 3.09179e-05
13 *308:21 *311:12 2.66935e-05
14 *310:12 *4351:B 5.53249e-06
15 *310:12 *311:12 0.000362839
*RES
1 *4349:Y *311:12 11.925 
2 *311:12 *4352:A2 3.6 
3 *311:12 *4351:B 7.44 
*END

*D_NET *312 0.00158172
*CONN
*I *4351:C I *D sky130_fd_sc_hd__nand3_1
*I *4352:B1 I *D sky130_fd_sc_hd__a21o_1
*I *4350:Y O *D sky130_fd_sc_hd__o21bai_1
*CAP
1 *4351:C 2.22133e-05
2 *4352:B1 0
3 *4350:Y 0.000413473
4 *312:10 0.000435686
5 *4320:C *312:10 0.000164874
6 *4351:A *4351:C 0.000124895
7 *4351:A *312:10 2.42171e-05
8 *4351:B *4351:C 6.6564e-05
9 *4351:B *312:10 0.0001249
10 *4352:A1 *312:10 4.82863e-05
11 *280:12 *312:10 2.05056e-05
12 *282:25 *312:10 9.53428e-06
13 *283:12 *312:10 0.00012657
*RES
1 *4350:Y *312:10 9.325 
2 *312:10 *4352:B1 1.6 
3 *312:10 *4351:C 2.74 
*END

*D_NET *313 0.00228187
*CONN
*I *4353:B I *D sky130_fd_sc_hd__nand3_1
*I *4354:A1 I *D sky130_fd_sc_hd__a21o_1
*I *4393:B1_N I *D sky130_fd_sc_hd__a21bo_1
*I *4351:Y O *D sky130_fd_sc_hd__nand3_1
*CAP
1 *4353:B 8.6721e-05
2 *4354:A1 1.59758e-05
3 *4393:B1_N 0
4 *4351:Y 0.000611613
5 *313:27 0.000375895
6 *313:10 0.000884811
7 *4353:B *4353:C 2.15986e-05
8 *313:10 *1006:73 0
9 *313:27 *4354:A2 0
10 *313:27 *1006:73 0
11 *4344:A *313:10 0.000122155
12 *4351:A *313:10 3.64998e-06
13 *4353:A *4353:B 5.17316e-05
14 *4353:A *4354:A1 1.56632e-05
15 *4354:B1 *4354:A1 5.94962e-05
16 *4354:B1 *313:27 3.25635e-05
17 *306:10 *313:10 0
18 *306:10 *313:27 0
19 *306:23 *313:27 0
*RES
1 *4351:Y *313:10 10.785 
2 *313:10 *4393:B1_N 3.6 
3 *313:10 *313:27 6.515 
4 *313:27 *4354:A1 2.41 
5 *313:27 *4353:B 3.445 
*END

*D_NET *314 0.002502
*CONN
*I *4393:A2 I *D sky130_fd_sc_hd__a21bo_1
*I *4354:A2 I *D sky130_fd_sc_hd__a21o_1
*I *4353:C I *D sky130_fd_sc_hd__nand3_1
*I *4352:X O *D sky130_fd_sc_hd__a21o_1
*CAP
1 *4393:A2 0
2 *4354:A2 5.31864e-05
3 *4353:C 0.000126918
4 *4352:X 0.000804747
5 *314:18 0.000260439
6 *314:14 0.000885081
7 *4354:A2 *1008:55 0
8 *314:14 *4314:A1 0.000116158
9 *314:18 *1008:55 0
10 *4353:A *4353:C 5.80193e-05
11 *4353:B *4353:C 2.15986e-05
12 *306:10 *314:18 9.50342e-06
13 *306:23 *4353:C 0
14 *306:23 *314:18 0.000166346
15 *313:27 *4354:A2 0
*RES
1 *4352:X *314:14 16.76 
2 *314:14 *314:18 3.89 
3 *314:18 *4353:C 5.7 
4 *314:18 *4354:A2 4.215 
5 *314:14 *4393:A2 1.6 
*END

*D_NET *315 0.00130161
*CONN
*I *4357:A1 I *D sky130_fd_sc_hd__a21o_1
*I *4356:A I *D sky130_fd_sc_hd__nand3_2
*I *4353:Y O *D sky130_fd_sc_hd__nand3_1
*CAP
1 *4357:A1 0.00027206
2 *4356:A 0
3 *4353:Y 0.000211742
4 *315:10 0.000483802
5 *4357:A1 *4356:B 0.000162311
6 *4357:A1 *4356:C 1.47256e-05
7 *4357:A1 *318:12 4.85494e-05
8 *4357:A1 *318:34 2.37911e-05
9 *315:10 *316:10 0
10 *315:10 *318:12 0
11 *315:10 *320:38 1.22762e-05
12 *315:10 *1008:55 7.23533e-05
*RES
1 *4353:Y *315:10 9.275 
2 *315:10 *4356:A 1.6 
3 *315:10 *4357:A1 5.425 
*END

*D_NET *316 0.000872341
*CONN
*I *4356:B I *D sky130_fd_sc_hd__nand3_2
*I *4357:A2 I *D sky130_fd_sc_hd__a21o_1
*I *4354:X O *D sky130_fd_sc_hd__a21o_1
*CAP
1 *4356:B 6.23285e-05
2 *4357:A2 0
3 *4354:X 0.00022946
4 *316:10 0.000291788
5 *4356:B *4356:C 4.5068e-05
6 *4356:B *317:8 1.37328e-05
7 *4356:B *318:12 5.05521e-05
8 *316:10 *318:12 1.71013e-05
9 *316:10 *1006:73 0
10 *4357:A1 *4356:B 0.000162311
11 *315:10 *316:10 0
*RES
1 *4354:X *316:10 9.275 
2 *316:10 *4357:A2 1.6 
3 *316:10 *4356:B 3.805 
*END

*D_NET *317 0.00214743
*CONN
*I *4357:B1 I *D sky130_fd_sc_hd__a21o_1
*I *4356:C I *D sky130_fd_sc_hd__nand3_2
*I *4355:X O *D sky130_fd_sc_hd__a21bo_1
*CAP
1 *4357:B1 0
2 *4356:C 0.000114716
3 *4355:X 0.000515251
4 *317:8 0.000629967
5 *317:8 *984:93 7.67415e-06
6 *4316:A *317:8 8.65961e-05
7 *4356:B *4356:C 4.5068e-05
8 *4356:B *317:8 1.37328e-05
9 *4357:A1 *4356:C 1.47256e-05
10 *278:23 *317:8 0.000582874
11 *279:10 *317:8 0.000136829
*RES
1 *4355:X *317:8 11.38 
2 *317:8 *4356:C 3.805 
3 *317:8 *4357:B1 1.6 
*END

*D_NET *318 0.00255928
*CONN
*I *4399:A1 I *D sky130_fd_sc_hd__a211oi_2
*I *4400:B1 I *D sky130_fd_sc_hd__o211a_1
*I *4358:B I *D sky130_fd_sc_hd__nand3_2
*I *4359:A1 I *D sky130_fd_sc_hd__a21o_1
*I *4356:Y O *D sky130_fd_sc_hd__nand3_2
*CAP
1 *4399:A1 2.946e-05
2 *4400:B1 8.35778e-05
3 *4358:B 0
4 *4359:A1 0.00012523
5 *4356:Y 0
6 *318:34 0.000435964
7 *318:12 0.000357418
8 *318:4 0.000555114
9 *4359:A1 *4358:C 0.000168091
10 *4359:A1 *319:14 4.99619e-05
11 *4400:B1 *4399:B1 0
12 *4400:B1 *4400:C1 0.000105841
13 *4400:B1 *357:10 0
14 *4400:B1 *361:10 7.89689e-05
15 *318:12 *319:14 0
16 *318:12 *320:38 0
17 *318:34 *320:38 0.000429658
18 *4356:B *318:12 5.05521e-05
19 *4357:A1 *318:12 4.85494e-05
20 *4357:A1 *318:34 2.37911e-05
21 *278:23 *318:12 0
22 *315:10 *318:12 0
23 *316:10 *318:12 1.71013e-05
*RES
1 *4356:Y *318:4 1.6 
2 *318:4 *318:12 7.975 
3 *318:12 *4359:A1 4.24 
4 *318:12 *4358:B 1.6 
5 *318:4 *318:34 6.435 
6 *318:34 *4400:B1 8 
7 *318:34 *4399:A1 2.05 
*END

*D_NET *319 0.000928499
*CONN
*I *4358:C I *D sky130_fd_sc_hd__nand3_2
*I *4359:A2 I *D sky130_fd_sc_hd__a21o_1
*I *4357:X O *D sky130_fd_sc_hd__a21o_1
*CAP
1 *4358:C 7.36994e-05
2 *4359:A2 0
3 *4357:X 0.00010074
4 *319:14 0.000174439
5 *4358:C *772:38 0.000241483
6 *319:14 *772:38 4.60584e-05
7 *4359:A1 *4358:C 0.000168091
8 *4359:A1 *319:14 4.99619e-05
9 *278:23 *319:14 7.4027e-05
10 *318:12 *319:14 0
*RES
1 *4357:X *319:14 7.88 
2 *319:14 *4359:A2 1.6 
3 *319:14 *4358:C 4.495 
*END

*D_NET *320 0.00336035
*CONN
*I *4399:A2 I *D sky130_fd_sc_hd__a211oi_2
*I *4400:C1 I *D sky130_fd_sc_hd__o211a_1
*I *4361:B I *D sky130_fd_sc_hd__nand3_1
*I *4360:A I *D sky130_fd_sc_hd__nand2_1
*I *4358:Y O *D sky130_fd_sc_hd__nand3_2
*CAP
1 *4399:A2 0
2 *4400:C1 9.26273e-05
3 *4361:B 0.000104754
4 *4360:A 0
5 *4358:Y 3.19143e-05
6 *320:38 0.000718509
7 *320:14 0.000248439
8 *320:6 0.000801481
9 *4361:B *4360:B 8.65961e-05
10 *4361:B *322:12 8.8266e-05
11 *4361:B *323:20 8.3762e-05
12 *320:6 *772:38 4.99619e-05
13 *320:14 *321:12 0
14 *320:14 *323:20 8.65905e-05
15 *320:38 *772:38 0.00041967
16 *4400:B1 *4400:C1 0.000105841
17 *315:10 *320:38 1.22762e-05
18 *318:12 *320:38 0
19 *318:34 *320:38 0.000429658
*RES
1 *4358:Y *320:6 2.05 
2 *320:6 *320:14 6.43 
3 *320:14 *4360:A 1.6 
4 *320:14 *4361:B 4.135 
5 *320:6 *320:38 14.71 
6 *320:38 *4400:C1 7.745 
7 *320:38 *4399:A2 1.6 
*END

*D_NET *321 0.000623821
*CONN
*I *4360:B I *D sky130_fd_sc_hd__nand2_1
*I *4361:C I *D sky130_fd_sc_hd__nand3_1
*I *4359:X O *D sky130_fd_sc_hd__a21o_1
*CAP
1 *4360:B 1.41735e-05
2 *4361:C 0
3 *4359:X 0.000157268
4 *321:12 0.000171441
5 *4360:B *323:20 8.65961e-05
6 *321:12 *323:20 1.94805e-05
7 *321:12 *772:38 8.8266e-05
8 *4361:B *4360:B 8.65961e-05
9 *320:14 *321:12 0
*RES
1 *4359:X *321:12 8.03 
2 *321:12 *4361:C 1.6 
3 *321:12 *4360:B 2.395 
*END

*D_NET *322 0.00182006
*CONN
*I *4364:B I *D sky130_fd_sc_hd__or2_1
*I *4362:C I *D sky130_fd_sc_hd__nand3b_1
*I *4363:B I *D sky130_fd_sc_hd__nor2_1
*I *4360:Y O *D sky130_fd_sc_hd__nand2_1
*CAP
1 *4364:B 0.000183282
2 *4362:C 0.000106962
3 *4363:B 0
4 *4360:Y 0.000151933
5 *322:21 0.000502286
6 *322:12 0.000363975
7 *4364:B *323:44 0
8 *322:12 *323:20 0
9 *322:12 *323:44 0
10 *322:21 *325:8 2.75145e-05
11 *4361:B *322:12 8.8266e-05
12 *4363:A *4362:C 3.45679e-05
13 *4363:A *322:21 0.000146883
14 *4364:A *4364:B 0.000167879
15 *291:32 *4362:C 3.45252e-05
16 *293:41 *4362:C 1.19928e-05
*RES
1 *4360:Y *322:12 7.775 
2 *322:12 *4363:B 1.6 
3 *322:12 *322:21 4.26 
4 *322:21 *4362:C 3.445 
5 *322:21 *4364:B 9.275 
*END

*D_NET *323 0.00440215
*CONN
*I *4365:B I *D sky130_fd_sc_hd__and4_1
*I *4366:A1 I *D sky130_fd_sc_hd__a31o_1
*I *4402:B1 I *D sky130_fd_sc_hd__o21ai_1
*I *4401:A I *D sky130_fd_sc_hd__or3_1
*I *4361:Y O *D sky130_fd_sc_hd__nand3_1
*CAP
1 *4365:B 0.00021624
2 *4366:A1 0
3 *4402:B1 4.34084e-05
4 *4401:A 0.000108826
5 *4361:Y 0
6 *323:44 0.000538876
7 *323:20 0.00106256
8 *323:6 0.00123297
9 *4365:B *4366:A2 1.61831e-05
10 *4365:B *4366:A3 0.000214949
11 *4365:B *4366:B1 9.27255e-06
12 *4401:A *4402:A1 0
13 *4401:A *4402:A2 3.50033e-05
14 *4401:A *360:32 0
15 *4401:A *361:10 5.53249e-06
16 *4401:A *362:10 0.000114492
17 *4401:A *362:21 8.53113e-06
18 *4402:B1 *4402:A2 0.000239813
19 *4402:B1 *4412:A1 4.99619e-05
20 *4402:B1 *4412:A2 4.99619e-05
21 *4402:B1 *363:8 7.66083e-05
22 *323:20 *4402:A2 1.33285e-05
23 *323:20 *4412:B1_N 4.82863e-05
24 *323:20 *363:8 0
25 *323:44 *4366:B1 3.00381e-05
26 *4360:B *323:20 8.65961e-05
27 *4361:A *323:20 1.08758e-05
28 *4361:A *323:44 0
29 *4361:B *323:20 8.3762e-05
30 *4364:A *323:44 0
31 *4364:B *323:44 0
32 *320:14 *323:20 8.65905e-05
33 *321:12 *323:20 1.94805e-05
34 *322:12 *323:20 0
35 *322:12 *323:44 0
*RES
1 *4361:Y *323:6 3.6 
2 *323:6 *323:20 17.18 
3 *323:20 *4401:A 7.745 
4 *323:20 *4402:B1 3.775 
5 *323:6 *323:44 7.16 
6 *323:44 *4366:A1 1.6 
7 *323:44 *4365:B 4.735 
*END

*D_NET *324 0.00107085
*CONN
*I *4365:C I *D sky130_fd_sc_hd__and4_1
*I *4366:A2 I *D sky130_fd_sc_hd__a31o_1
*I *4362:Y O *D sky130_fd_sc_hd__nand3b_1
*CAP
1 *4365:C 0
2 *4366:A2 9.10304e-05
3 *4362:Y 0.0001398
4 *324:12 0.000230831
5 *4366:A2 *4366:A3 0.000131077
6 *4366:A2 *4366:B1 0.000160641
7 *4366:A2 *328:14 1.91597e-05
8 *4366:A2 *824:35 8.49205e-05
9 *324:12 *4193:A1 9.30787e-05
10 *324:12 *328:14 3.26084e-05
11 *324:12 *824:10 4.38051e-05
12 *4365:B *4366:A2 1.61831e-05
13 *291:32 *324:12 2.77183e-05
*RES
1 *4362:Y *324:12 8.03 
2 *324:12 *4366:A2 4.48 
3 *324:12 *4365:C 1.6 
*END

*D_NET *325 0.00237393
*CONN
*I *4404:A I *D sky130_fd_sc_hd__nand3_1
*I *4412:A1 I *D sky130_fd_sc_hd__a21bo_1
*I *4403:B1 I *D sky130_fd_sc_hd__a21o_1
*I *4363:Y O *D sky130_fd_sc_hd__nor2_1
*CAP
1 *4404:A 0
2 *4412:A1 0.000104559
3 *4403:B1 0
4 *4363:Y 0.000774302
5 *325:19 0.000199997
6 *325:8 0.000869741
7 *4412:A1 *4404:B 3.24046e-05
8 *4412:A1 *362:21 6.55406e-05
9 *4412:A1 *363:21 5.4256e-05
10 *325:8 *4403:A2 1.37328e-05
11 *325:8 *364:10 3.07153e-05
12 *325:19 *4403:A2 3.19153e-05
13 *325:19 *4404:B 0.000119285
14 *4402:B1 *4412:A1 4.99619e-05
15 *322:21 *325:8 2.75145e-05
*RES
1 *4363:Y *325:8 12.76 
2 *325:8 *4403:B1 1.6 
3 *325:8 *325:19 2.205 
4 *325:19 *4412:A1 7.94 
5 *325:19 *4404:A 1.6 
*END

*D_NET *326 0.000986042
*CONN
*I *4365:D I *D sky130_fd_sc_hd__and4_1
*I *4366:A3 I *D sky130_fd_sc_hd__a31o_1
*I *4364:X O *D sky130_fd_sc_hd__or2_1
*CAP
1 *4365:D 0
2 *4366:A3 0.000123461
3 *4364:X 9.27147e-05
4 *326:12 0.000216176
5 *4366:A3 *328:14 1.17309e-05
6 *326:12 *327:12 7.23602e-05
7 *326:12 *369:10 8.49205e-05
8 *326:12 *824:10 3.86529e-05
9 *4365:B *4366:A3 0.000214949
10 *4366:A2 *4366:A3 0.000131077
*RES
1 *4364:X *326:12 7.265 
2 *326:12 *4366:A3 4.84 
3 *326:12 *4365:D 1.6 
*END

*D_NET *327 0.000933099
*CONN
*I *4408:B1 I *D sky130_fd_sc_hd__a21o_1
*I *4367:A_N I *D sky130_fd_sc_hd__nand2b_1
*I *4365:X O *D sky130_fd_sc_hd__and4_1
*CAP
1 *4408:B1 0.000144896
2 *4367:A_N 0
3 *4365:X 8.48011e-05
4 *327:12 0.000229697
5 *4408:B1 *4408:A1 0.000233678
6 *4408:B1 *328:14 1.12643e-05
7 *4408:B1 *369:10 1.91597e-05
8 *327:12 *328:14 0.000119855
9 *327:12 *824:10 1.73877e-05
10 *326:12 *327:12 7.23602e-05
*RES
1 *4365:X *327:12 7.43 
2 *327:12 *4367:A_N 1.6 
3 *327:12 *4408:B1 4.84 
*END

*D_NET *328 0.00163654
*CONN
*I *4367:B I *D sky130_fd_sc_hd__nand2b_1
*I *4408:A1 I *D sky130_fd_sc_hd__a21o_1
*I *4366:X O *D sky130_fd_sc_hd__a31o_1
*CAP
1 *4367:B 0
2 *4408:A1 0.000124698
3 *4366:X 0.000336658
4 *328:14 0.000461356
5 *4408:A1 *369:10 0.00016281
6 *328:14 *4366:B1 3.74161e-05
7 *328:14 *369:10 3.88423e-07
8 *328:14 *824:10 0
9 *328:14 *824:35 8.49205e-05
10 *4366:A2 *328:14 1.91597e-05
11 *4366:A3 *328:14 1.17309e-05
12 *4408:B1 *4408:A1 0.000233678
13 *4408:B1 *328:14 1.12643e-05
14 *324:12 *328:14 3.26084e-05
15 *327:12 *328:14 0.000119855
*RES
1 *4366:X *328:14 10.8837 
2 *328:14 *4408:A1 4.92625 
3 *328:14 *4367:B 1.6 
*END

*D_NET *329 0.00101366
*CONN
*I *4369:A I *D sky130_fd_sc_hd__xor2_1
*I *4367:Y O *D sky130_fd_sc_hd__nand2b_1
*CAP
1 *4369:A 0.000263213
2 *4367:Y 0.000263213
3 *4369:A *4370:B 0.000173382
4 *4369:A *824:10 0
5 *4369:A *1009:65 0.000313852
*RES
1 *4367:Y *4369:A 12.99 
*END

*D_NET *330 0.00147825
*CONN
*I *4369:B I *D sky130_fd_sc_hd__xor2_1
*I *4408:A2 I *D sky130_fd_sc_hd__a21o_1
*I *4368:X O *D sky130_fd_sc_hd__a21o_1
*CAP
1 *4369:B 8.45394e-05
2 *4408:A2 0.000196113
3 *4368:X 0.000458471
4 *330:8 0.000739124
5 *4369:B *4370:B 0
6 *4369:B *776:17 0
7 *4408:A2 *776:17 0
*RES
1 *4368:X *330:8 8.535 
2 *330:8 *4408:A2 6.645 
3 *330:8 *4369:B 4.98 
*END

*D_NET *331 0.000609576
*CONN
*I *4370:B I *D sky130_fd_sc_hd__nand2_1
*I *4369:X O *D sky130_fd_sc_hd__xor2_1
*CAP
1 *4370:B 0.000213283
2 *4369:X 0.000213283
3 *4370:B *824:10 0
4 *4370:B *844:52 2.99518e-06
5 *4370:B *844:64 6.63219e-06
6 *4370:B *1009:65 0
7 *4369:A *4370:B 0.000173382
8 *4369:B *4370:B 0
*RES
1 *4369:X *4370:B 10.83 
*END

*D_NET *332 0.000220249
*CONN
*I *4371:C1 I *D sky130_fd_sc_hd__o211a_1
*I *4370:Y O *D sky130_fd_sc_hd__nand2_1
*CAP
1 *4371:C1 3.51631e-05
2 *4370:Y 3.51631e-05
3 *4371:C1 *4370:A 1.10085e-05
4 *4371:C1 *4371:A2 5.32116e-05
5 *4371:C1 *1010:131 8.57024e-05
*RES
1 *4370:Y *4371:C1 4.355 
*END

*D_NET *333 0.00398763
*CONN
*I *4444:A I *D sky130_fd_sc_hd__nand3_1
*I *4443:A I *D sky130_fd_sc_hd__and3_1
*I *4445:B1 I *D sky130_fd_sc_hd__a21o_1
*I *4374:A I *D sky130_fd_sc_hd__nor2_1
*I *4372:X O *D sky130_fd_sc_hd__o211a_1
*CAP
1 *4444:A 5.76616e-05
2 *4443:A 0.000359888
3 *4445:B1 0
4 *4374:A 0
5 *4372:X 0.000278012
6 *333:32 0.000481272
7 *333:23 0.00101052
8 *333:10 0.00122481
9 *4443:A *4442:A1 1.43521e-05
10 *4443:A *4445:A2 2.10433e-05
11 *4443:A *400:10 0
12 *4443:A *400:23 0
13 *4443:A *402:8 5.05521e-05
14 *4443:A *402:27 0
15 *4443:A *849:16 0
16 *4444:A *4445:A1 4.37141e-05
17 *4444:A *4445:A2 5.53062e-06
18 *4444:A *400:23 6.69684e-06
19 *4444:A *404:12 8.65961e-05
20 *333:10 *4374:B 0.000130547
21 *333:10 *353:10 0
22 *333:10 *354:12 4.18603e-06
23 *333:23 *354:12 0.000118083
24 *333:32 *4445:A1 2.65814e-06
25 *333:32 *4445:A2 8.58302e-07
26 *333:32 *404:12 8.65905e-05
27 *4372:A1 *333:10 4.05674e-06
*RES
1 *4372:X *333:10 8.415 
2 *333:10 *4374:A 3.6 
3 *333:10 *333:23 16.76 
4 *333:23 *4445:B1 1.6 
5 *333:23 *333:32 1.41 
6 *333:32 *4443:A 11.345 
7 *333:32 *4444:A 3.7075 
*END

*D_NET *334 0.000878706
*CONN
*I *4374:B I *D sky130_fd_sc_hd__nor2_1
*I *4373:Y O *D sky130_fd_sc_hd__a211oi_1
*CAP
1 *4374:B 0.000254804
2 *4373:Y 0.000254804
3 *4374:B *4372:B1 0.000124895
4 *4374:B *4372:C1 8.57024e-05
5 *4374:B *335:6 4.9253e-06
6 *4374:B *1008:55 0
7 *4372:A2 *4374:B 2.30292e-05
8 *333:10 *4374:B 0.000130547
*RES
1 *4373:Y *4374:B 12.72 
*END

*D_NET *335 0.00272456
*CONN
*I *4397:A I *D sky130_fd_sc_hd__nand3_1
*I *4398:B1 I *D sky130_fd_sc_hd__a21oi_1
*I *4396:A I *D sky130_fd_sc_hd__and3_1
*I *4374:Y O *D sky130_fd_sc_hd__nor2_1
*CAP
1 *4397:A 0.000221454
2 *4398:B1 2.95908e-05
3 *4396:A 1.43319e-05
4 *4374:Y 0.000347398
5 *335:12 0.000293891
6 *335:6 0.000818821
7 *4396:A *4396:C 1.12459e-05
8 *4397:A *355:32 3.63689e-05
9 *4397:A *356:8 0.000184925
10 *4397:A *358:10 7.00889e-06
11 *4398:B1 *4396:C 1.91597e-05
12 *335:6 *356:8 0.00039046
13 *335:12 *4398:A1 7.1301e-06
14 *335:12 *352:10 7.47215e-05
15 *335:12 *353:10 3.9442e-05
16 *335:12 *354:12 0
17 *335:12 *355:8 0.000148968
18 *335:12 *356:14 0
19 *335:12 *359:8 7.47215e-05
20 *4374:B *335:6 4.9253e-06
*RES
1 *4374:Y *335:6 6.19 
2 *335:6 *335:12 9.205 
3 *335:12 *4396:A 1.8025 
4 *335:12 *4398:B1 2.05 
5 *335:6 *4397:A 5.2 
*END

*D_NET *336 0.000503717
*CONN
*I *4380:A I *D sky130_fd_sc_hd__xnor2_1
*I *4375:Y O *D sky130_fd_sc_hd__nand2_1
*CAP
1 *4380:A 7.03428e-05
2 *4375:Y 7.03428e-05
3 *4380:A *4375:A 8.65961e-05
4 *4380:A *341:10 8.8266e-05
5 *4380:A *373:12 6.32751e-05
6 *4380:A *979:106 0.000124895
7 *4380:A *1006:59 0
*RES
1 *4375:Y *4380:A 5.735 
*END

*D_NET *337 0.000818673
*CONN
*I *4425:A I *D sky130_fd_sc_hd__xor2_1
*I *4459:A1 I *D sky130_fd_sc_hd__o21ai_1
*I *4376:Y O *D sky130_fd_sc_hd__nand2_1
*CAP
1 *4425:A 8.14884e-05
2 *4459:A1 0
3 *4376:Y 0.00015994
4 *337:8 0.000241428
5 *4425:A *4376:A 1.01661e-05
6 *4425:A *4425:B 0.000107634
7 *4425:A *4459:A2 3.64998e-06
8 *4425:A *384:8 7.5416e-05
9 *4425:A *997:55 8.68387e-05
10 *337:8 *4459:A2 3.81908e-06
11 *337:8 *418:14 4.82919e-05
*RES
1 *4376:Y *337:8 3.7 
2 *337:8 *4459:A1 1.6 
3 *337:8 *4425:A 8.45 
*END

*D_NET *338 0.000692063
*CONN
*I *4413:B1 I *D sky130_fd_sc_hd__a31o_1
*I *4379:A_N I *D sky130_fd_sc_hd__and2b_1
*I *4377:X O *D sky130_fd_sc_hd__and4_1
*CAP
1 *4413:B1 0
2 *4379:A_N 0.00014983
3 *4377:X 3.05583e-05
4 *338:6 0.000180389
5 *4379:A_N *4195:B2 8.65961e-05
6 *4379:A_N *1003:73 5.30673e-05
7 *4379:A_N *1006:67 2.92496e-05
8 *338:6 *339:14 6.97034e-05
9 *338:6 *350:14 4.60584e-05
10 *338:6 *1006:67 4.66108e-05
*RES
1 *4377:X *338:6 2.74 
2 *338:6 *4379:A_N 8.285 
3 *338:6 *4413:B1 1.6 
*END

*D_NET *339 0.00161961
*CONN
*I *4379:B I *D sky130_fd_sc_hd__and2b_1
*I *4413:A3 I *D sky130_fd_sc_hd__a31o_1
*I *4378:X O *D sky130_fd_sc_hd__a22o_1
*CAP
1 *4379:B 0.000118181
2 *4413:A3 0
3 *4378:X 0.000251922
4 *339:14 0.000370103
5 *4379:B *4413:A1 0
6 *4379:B *979:106 4.35348e-05
7 *4379:B *1006:59 8.65905e-05
8 *4379:B *1006:67 0
9 *4379:B *1008:14 0.000155227
10 *339:14 *4377:A 3.09164e-05
11 *339:14 *4377:C 0.000158072
12 *339:14 *4378:B1 0.000113255
13 *339:14 *350:14 2.10134e-05
14 *339:14 *792:33 3.68682e-05
15 *339:14 *979:106 8.65961e-05
16 *339:14 *984:59 2.46007e-05
17 *339:14 *1006:59 2.70346e-05
18 *339:14 *1006:67 2.59926e-05
19 *338:6 *339:14 6.97034e-05
*RES
1 *4378:X *339:14 11.675 
2 *339:14 *4413:A3 1.6 
3 *339:14 *4379:B 8.285 
*END

*D_NET *340 0.000702676
*CONN
*I *4380:B I *D sky130_fd_sc_hd__xnor2_1
*I *4379:X O *D sky130_fd_sc_hd__and2b_1
*CAP
1 *4380:B 9.11955e-05
2 *4379:X 9.11955e-05
3 *4380:B *373:12 0.000196376
4 *4380:B *977:117 6.02123e-05
5 *4380:B *979:106 3.09179e-05
6 *4380:B *1006:59 0.000120655
7 *4380:B *1008:14 0.000112123
*RES
1 *4379:X *4380:B 10.41 
*END

*D_NET *341 0.00214257
*CONN
*I *4391:A I *D sky130_fd_sc_hd__nand3_1
*I *4392:B1 I *D sky130_fd_sc_hd__a21o_1
*I *4434:A1 I *D sky130_fd_sc_hd__a21bo_1
*I *4380:Y O *D sky130_fd_sc_hd__xnor2_1
*CAP
1 *4391:A 1.86308e-05
2 *4392:B1 0
3 *4434:A1 0
4 *4380:Y 0.000460605
5 *341:23 0.000231995
6 *341:10 0.000673969
7 *4391:A *4391:B 4.99619e-05
8 *4391:A *4391:C 0.000100669
9 *4391:A *4392:A1 3.77036e-05
10 *341:10 *350:14 2.67022e-05
11 *341:10 *350:27 2.03321e-05
12 *341:10 *351:20 0
13 *341:10 *373:12 0.000198597
14 *341:10 *394:8 2.67022e-05
15 *341:23 *4391:C 4.82919e-05
16 *341:23 *4392:A1 2.75229e-05
17 *341:23 *350:27 0.000132623
18 *341:23 *351:35 0
19 *4380:A *341:10 8.8266e-05
*RES
1 *4380:Y *341:10 10.26 
2 *341:10 *4434:A1 3.6 
3 *341:10 *341:23 6.635 
4 *341:23 *4392:B1 1.6 
5 *341:23 *4391:A 2.74 
*END

*D_NET *342 0.00273909
*CONN
*I *4387:B1 I *D sky130_fd_sc_hd__o21ai_1
*I *4386:A I *D sky130_fd_sc_hd__or3_1
*I *4385:A I *D sky130_fd_sc_hd__nor3_1
*I *4381:Y O *D sky130_fd_sc_hd__nand2_1
*CAP
1 *4387:B1 4.749e-05
2 *4386:A 0.000116765
3 *4385:A 0.000123702
4 *4381:Y 0.000309386
5 *342:17 0.000164255
6 *342:6 0.000433088
7 *4385:A *4387:A1 8.57024e-05
8 *4385:A *344:22 4.21973e-05
9 *4385:A *345:17 0.000201503
10 *4386:A *4386:C 0.000186239
11 *4386:A *4387:A2 2.59981e-05
12 *4386:A *390:12 0.000122331
13 *4386:A *857:12 2.30292e-05
14 *4386:A *999:42 0.000204463
15 *4386:A *999:59 2.07184e-05
16 *4387:B1 *4387:A2 5.84378e-05
17 *4387:B1 *999:59 0.000139238
18 *342:6 *4381:B 0.000426206
19 *342:6 *344:22 8.34281e-06
20 *199:10 *4387:B1 0
*RES
1 *4381:Y *342:6 5.845 
2 *342:6 *4385:A 4.48 
3 *342:6 *342:17 2 
4 *342:17 *4386:A 7.395 
5 *342:17 *4387:B1 5.235 
*END

*D_NET *343 0.00141128
*CONN
*I *4429:B1 I *D sky130_fd_sc_hd__o21ai_1
*I *4428:A I *D sky130_fd_sc_hd__or3_4
*I *4477:A1 I *D sky130_fd_sc_hd__o21bai_1
*I *4382:Y O *D sky130_fd_sc_hd__nand2_1
*CAP
1 *4429:B1 4.04388e-05
2 *4428:A 1.60636e-05
3 *4477:A1 0.000111384
4 *4382:Y 0
5 *343:21 0.000170197
6 *343:4 0.000225078
7 *4428:A *4428:C 4.00541e-06
8 *4429:B1 *4429:A1 0.000227261
9 *4429:B1 *4429:A2 0.000141323
10 *4477:A1 *4919:A 1.74678e-05
11 *4477:A1 *4920:A 2.13396e-05
12 *4477:A1 *386:12 9.50342e-06
13 *4477:A1 *988:55 9.30717e-05
14 *4477:A1 *995:68 0.000140905
15 *343:21 *4382:B 1.19928e-05
16 *343:21 *4428:C 5.05437e-05
17 *343:21 *4429:A1 8.40269e-05
18 *343:21 *4429:A2 2.16917e-05
19 *343:21 *4919:A 5.83121e-06
20 *343:21 *781:39 1.91597e-05
*RES
1 *4382:Y *343:4 1.6 
2 *343:4 *4477:A1 8.03 
3 *343:4 *343:21 2.445 
4 *343:21 *4428:A 1.96 
5 *343:21 *4429:B1 3.775 
*END

*D_NET *344 0.00145169
*CONN
*I *5114:A I *D sky130_fd_sc_hd__dlymetal6s2s_1
*I *4386:B I *D sky130_fd_sc_hd__or3_1
*I *5115:A I *D sky130_fd_sc_hd__dlygate4sd1_1
*I *4385:B I *D sky130_fd_sc_hd__nor3_1
*I *4383:X O *D sky130_fd_sc_hd__and4_1
*CAP
1 *5114:A 0
2 *4386:B 3.90649e-05
3 *5115:A 0
4 *4385:B 0
5 *4383:X 0.00011503
6 *344:22 0.000182749
7 *344:15 0.000225171
8 *344:6 0.000196517
9 *4386:B *857:12 4.70343e-05
10 *4386:B *999:42 0.00011852
11 *344:6 *345:8 0.000200615
12 *344:6 *345:17 2.30292e-05
13 *344:15 *345:8 0
14 *344:15 *345:17 6.52265e-05
15 *344:22 *4381:B 2.49909e-05
16 *344:22 *345:17 0.000163199
17 *4385:A *344:22 4.21973e-05
18 *342:6 *344:22 8.34281e-06
*RES
1 *4383:X *344:6 3.775 
2 *344:6 *4385:B 1.6 
3 *344:6 *344:15 1.5 
4 *344:15 *5115:A 1.6 
5 *344:15 *344:22 2.865 
6 *344:22 *4386:B 6.98 
7 *344:22 *5114:A 1.6 
*END

*D_NET *345 0.00290763
*CONN
*I *4387:A2 I *D sky130_fd_sc_hd__o21ai_1
*I *4386:C I *D sky130_fd_sc_hd__or3_1
*I *4385:C I *D sky130_fd_sc_hd__nor3_1
*I *4384:Y O *D sky130_fd_sc_hd__a22oi_2
*CAP
1 *4387:A2 6.33816e-05
2 *4386:C 0.000145134
3 *4385:C 0
4 *4384:Y 0.000255468
5 *345:17 0.000289272
6 *345:8 0.000336224
7 *4386:C *390:12 4.35432e-05
8 *4386:C *857:12 0.000162311
9 *4386:C *999:42 8.09021e-06
10 *4387:A2 *4387:A1 0.000116158
11 *345:8 *4383:A 0.000230429
12 *345:8 *4383:C 0.000232105
13 *345:8 *4384:B2 1.46744e-05
14 *345:8 *859:16 4.82919e-05
15 *345:8 *859:29 3.83041e-05
16 *4385:A *345:17 0.000201503
17 *4386:A *4386:C 0.000186239
18 *4386:A *4387:A2 2.59981e-05
19 *4387:B1 *4387:A2 5.84378e-05
20 *199:10 *4386:C 0
21 *199:10 *4387:A2 0
22 *344:6 *345:8 0.000200615
23 *344:6 *345:17 2.30292e-05
24 *344:15 *345:8 0
25 *344:15 *345:17 6.52265e-05
26 *344:22 *345:17 0.000163199
*RES
1 *4384:Y *345:8 7.93 
2 *345:8 *4385:C 1.6 
3 *345:8 *345:17 4.865 
4 *345:17 *4386:C 7.485 
5 *345:17 *4387:A2 5.49 
*END

*D_NET *346 0.000558844
*CONN
*I *4430:A2 I *D sky130_fd_sc_hd__o211ai_2
*I *4431:C1 I *D sky130_fd_sc_hd__a211o_1
*I *4385:Y O *D sky130_fd_sc_hd__nor3_1
*CAP
1 *4430:A2 0
2 *4431:C1 7.1948e-05
3 *4385:Y 4.60186e-05
4 *346:8 0.000117967
5 *4431:C1 *4430:C1 8.97564e-05
6 *4431:C1 *389:10 4.43871e-06
7 *346:8 *4319:A1 3.39069e-05
8 *346:8 *4430:C1 2.4997e-05
9 *199:10 *4431:C1 8.89673e-05
10 *199:10 *346:8 8.08439e-05
*RES
1 *4385:Y *346:8 5.235 
2 *346:8 *4431:C1 5.49 
3 *346:8 *4430:A2 3.6 
*END

*D_NET *347 0.00169371
*CONN
*I *4390:A1 I *D sky130_fd_sc_hd__a21o_1
*I *4389:A I *D sky130_fd_sc_hd__nand3_1
*I *4386:X O *D sky130_fd_sc_hd__or3_1
*CAP
1 *4390:A1 0
2 *4389:A 0.000166444
3 *4386:X 0.000352282
4 *347:12 0.000518726
5 *4389:A *4389:B 9.16687e-05
6 *4389:A *4389:C 0.000113237
7 *4389:A *349:12 4.99619e-05
8 *4389:A *350:14 7.00889e-06
9 *4389:A *1001:77 2.30292e-05
10 *347:12 *4381:A 0
11 *347:12 *348:12 0.000141599
12 *347:12 *349:12 9.50342e-06
13 *347:12 *351:20 0
14 *347:12 *390:12 8.65961e-05
15 *347:12 *997:55 0.000133649
16 *347:12 *999:59 0
17 *347:12 *1000:97 0
*RES
1 *4386:X *347:12 12.11 
2 *347:12 *4389:A 5.29 
3 *347:12 *4390:A1 1.6 
*END

*D_NET *348 0.00176082
*CONN
*I *4389:B I *D sky130_fd_sc_hd__nand3_1
*I *4390:A2 I *D sky130_fd_sc_hd__a21o_1
*I *4387:Y O *D sky130_fd_sc_hd__o21ai_1
*CAP
1 *4389:B 8.9849e-05
2 *4390:A2 0
3 *4387:Y 0.000274371
4 *348:12 0.00036422
5 *4389:B *4389:C 0.000124895
6 *4389:B *349:12 4.82919e-05
7 *4389:B *1001:77 0.000310394
8 *348:12 *4195:B2 0.000315527
9 *348:12 *999:59 0
10 *4389:A *4389:B 9.16687e-05
11 *347:12 *348:12 0.000141599
*RES
1 *4387:Y *348:12 10.1 
2 *348:12 *4390:A2 1.6 
3 *348:12 *4389:B 4.825 
*END

*D_NET *349 0.000852246
*CONN
*I *4389:C I *D sky130_fd_sc_hd__nand3_1
*I *4390:B1 I *D sky130_fd_sc_hd__a21o_1
*I *4388:Y O *D sky130_fd_sc_hd__o21bai_1
*CAP
1 *4389:C 1.79633e-05
2 *4390:B1 0
3 *4388:Y 0.000185195
4 *349:12 0.000203159
5 *349:12 *4381:A 0
6 *349:12 *999:59 0
7 *349:12 *1001:77 0.00010004
8 *4389:A *4389:C 0.000113237
9 *4389:A *349:12 4.99619e-05
10 *4389:B *4389:C 0.000124895
11 *4389:B *349:12 4.82919e-05
12 *347:12 *349:12 9.50342e-06
*RES
1 *4388:Y *349:12 9.47 
2 *349:12 *4390:B1 1.6 
3 *349:12 *4389:C 2.74 
*END

*D_NET *350 0.00567126
*CONN
*I *4391:B I *D sky130_fd_sc_hd__nand3_1
*I *4392:A1 I *D sky130_fd_sc_hd__a21o_1
*I *4434:B1_N I *D sky130_fd_sc_hd__a21bo_1
*I *4389:Y O *D sky130_fd_sc_hd__nand3_1
*CAP
1 *4391:B 5.77761e-05
2 *4392:A1 0.000114902
3 *4434:B1_N 4.43379e-05
4 *4389:Y 0.00146263
5 *350:27 0.000365072
6 *350:14 0.00169936
7 *4391:B *4391:C 2.30292e-05
8 *4392:A1 *4391:C 1.47256e-05
9 *350:14 *4314:A1 1.61831e-05
10 *350:14 *4378:B1 0.000347029
11 *350:14 *373:12 0.000914536
12 *350:14 *379:12 0
13 *350:14 *394:8 0
14 *350:14 *1001:77 5.80043e-05
15 *350:14 *1006:59 6.07328e-05
16 *350:14 *1006:67 0.000124007
17 *4389:A *350:14 7.00889e-06
18 *4391:A *4391:B 4.99619e-05
19 *4391:A *4392:A1 3.77036e-05
20 *338:6 *350:14 4.60584e-05
21 *339:14 *350:14 2.10134e-05
22 *341:10 *350:14 2.67022e-05
23 *341:10 *350:27 2.03321e-05
24 *341:23 *4392:A1 2.75229e-05
25 *341:23 *350:27 0.000132623
*RES
1 *4389:Y *350:14 25.29 
2 *350:14 *4434:B1_N 4.05 
3 *350:14 *350:27 6.185 
4 *350:27 *4392:A1 3.085 
5 *350:27 *4391:B 2.755 
*END

*D_NET *351 0.00628762
*CONN
*I *4391:C I *D sky130_fd_sc_hd__nand3_1
*I *4392:A2 I *D sky130_fd_sc_hd__a21o_1
*I *4434:A2 I *D sky130_fd_sc_hd__a21bo_1
*I *4390:X O *D sky130_fd_sc_hd__a21o_1
*CAP
1 *4391:C 0.000231304
2 *4392:A2 0
3 *4434:A2 8.24099e-05
4 *4390:X 0.00139971
5 *351:35 0.000534382
6 *351:20 0.00178519
7 *351:20 *4195:B2 0.00123302
8 *351:20 *4375:B 0
9 *351:20 *4381:A 7.23602e-05
10 *351:20 *4435:B 0.000164874
11 *351:20 *4436:B1 8.53113e-06
12 *351:20 *393:14 0.000329361
13 *351:20 *394:8 0.000259761
14 *351:35 *4375:B 0
15 *4391:A *4391:C 0.000100669
16 *4391:B *4391:C 2.30292e-05
17 *4392:A1 *4391:C 1.47256e-05
18 *341:10 *351:20 0
19 *341:23 *4391:C 4.82919e-05
20 *341:23 *351:35 0
21 *347:12 *351:20 0
*RES
1 *4390:X *351:20 30.655 
2 *351:20 *4434:A2 4.74 
3 *351:20 *351:35 6.98 
4 *351:35 *4392:A2 1.6 
5 *351:35 *4391:C 6.46 
*END

*D_NET *352 0.00155389
*CONN
*I *4394:A I *D sky130_fd_sc_hd__nand3_2
*I *4395:A1 I *D sky130_fd_sc_hd__a21o_1
*I *4391:Y O *D sky130_fd_sc_hd__nand3_1
*CAP
1 *4394:A 2.33346e-05
2 *4395:A1 0.000217368
3 *4391:Y 0.000260549
4 *352:10 0.000501252
5 *4394:A *355:32 4.99619e-05
6 *4394:A *356:8 5.05521e-05
7 *4395:A1 *4394:B 2.16917e-05
8 *4395:A1 *4394:C 1.61831e-05
9 *4395:A1 *4395:A2 0.000140303
10 *4395:A1 *355:32 0
11 *4395:A1 *356:8 2.04134e-05
12 *352:10 *353:10 0.000174586
13 *352:10 *355:40 0
14 *352:10 *356:14 2.97004e-06
15 *335:12 *352:10 7.47215e-05
*RES
1 *4391:Y *352:10 11.315 
2 *352:10 *4395:A1 4.735 
3 *352:10 *4394:A 2.395 
*END

*D_NET *353 0.00122206
*CONN
*I *4394:B I *D sky130_fd_sc_hd__nand3_2
*I *4395:A2 I *D sky130_fd_sc_hd__a21o_1
*I *4392:X O *D sky130_fd_sc_hd__a21o_1
*CAP
1 *4394:B 1.22947e-05
2 *4395:A2 3.87972e-05
3 *4392:X 0.000320677
4 *353:10 0.000371769
5 *4394:B *356:8 2.75229e-05
6 *4395:A2 *4394:C 4.89933e-05
7 *4395:A2 *356:8 2.59835e-05
8 *353:10 *354:12 0
9 *4395:A1 *4394:B 2.16917e-05
10 *4395:A1 *4395:A2 0.000140303
11 *333:10 *353:10 0
12 *335:12 *353:10 3.9442e-05
13 *352:10 *353:10 0.000174586
*RES
1 *4392:X *353:10 11.825 
2 *353:10 *4395:A2 3.46 
3 *353:10 *4394:B 2.05 
*END

*D_NET *354 0.00165251
*CONN
*I *4395:B1 I *D sky130_fd_sc_hd__a21o_1
*I *4394:C I *D sky130_fd_sc_hd__nand3_2
*I *4393:X O *D sky130_fd_sc_hd__a21bo_1
*CAP
1 *4395:B1 0
2 *4394:C 6.78317e-05
3 *4393:X 0.000582263
4 *354:12 0.000650095
5 *4394:C *356:8 0.000164874
6 *4395:A1 *4394:C 1.61831e-05
7 *4395:A2 *4394:C 4.89933e-05
8 *333:10 *354:12 4.18603e-06
9 *333:23 *354:12 0.000118083
10 *335:12 *354:12 0
11 *353:10 *354:12 0
*RES
1 *4393:X *354:12 12.605 
2 *354:12 *4394:C 3.805 
3 *354:12 *4395:B1 1.6 
*END

*D_NET *355 0.00269572
*CONN
*I *4397:B I *D sky130_fd_sc_hd__nand3_1
*I *4442:B1 I *D sky130_fd_sc_hd__o211ai_2
*I *4440:A1 I *D sky130_fd_sc_hd__a211o_1
*I *4398:A1 I *D sky130_fd_sc_hd__a21oi_1
*I *4396:B I *D sky130_fd_sc_hd__and3_1
*I *4394:Y O *D sky130_fd_sc_hd__nand3_2
*CAP
1 *4397:B 0
2 *4442:B1 0
3 *4440:A1 5.22989e-05
4 *4398:A1 4.58603e-05
5 *4396:B 0.000115446
6 *4394:Y 0
7 *355:40 0.000559695
8 *355:32 0.000609157
9 *355:8 0.000268383
10 *355:4 0.000208837
11 *4396:B *4396:C 9.2741e-05
12 *4398:A1 *4396:C 4.82919e-05
13 *4398:A1 *356:14 3.9442e-05
14 *4398:A1 *359:8 5.33085e-05
15 *4440:A1 *4440:A2 9.05377e-05
16 *4440:A1 *4442:A2 8.68724e-05
17 *4440:A1 *399:10 5.53249e-06
18 *355:8 *356:14 0.000149757
19 *355:32 *356:8 2.15986e-05
20 *355:40 *356:14 5.53249e-06
21 *4394:A *355:32 4.99619e-05
22 *4395:A1 *355:32 0
23 *4397:A *355:32 3.63689e-05
24 *335:12 *4398:A1 7.1301e-06
25 *335:12 *355:8 0.000148968
26 *352:10 *355:40 0
*RES
1 *4394:Y *355:4 1.6 
2 *355:4 *355:8 5.165 
3 *355:8 *4396:B 5.085 
4 *355:8 *4398:A1 4.92 
5 *355:4 *355:32 1.845 
6 *355:32 *355:40 10.99 
7 *355:40 *4440:A1 7.49 
8 *355:40 *4442:B1 1.6 
9 *355:32 *4397:B 1.6 
*END

*D_NET *356 0.00227124
*CONN
*I *4397:C I *D sky130_fd_sc_hd__nand3_1
*I *4398:A2 I *D sky130_fd_sc_hd__a21oi_1
*I *4396:C I *D sky130_fd_sc_hd__and3_1
*I *4395:X O *D sky130_fd_sc_hd__a21o_1
*CAP
1 *4397:C 0
2 *4398:A2 0
3 *4396:C 0.00015812
4 *4395:X 0.00013879
5 *356:14 0.000364341
6 *356:8 0.000345012
7 *356:14 *360:14 9.50342e-06
8 *4394:A *356:8 5.05521e-05
9 *4394:B *356:8 2.75229e-05
10 *4394:C *356:8 0.000164874
11 *4395:A1 *356:8 2.04134e-05
12 *4395:A2 *356:8 2.59835e-05
13 *4396:A *4396:C 1.12459e-05
14 *4396:B *4396:C 9.2741e-05
15 *4397:A *356:8 0.000184925
16 *4398:A1 *4396:C 4.82919e-05
17 *4398:A1 *356:14 3.9442e-05
18 *4398:B1 *4396:C 1.91597e-05
19 *335:6 *356:8 0.00039046
20 *335:12 *356:14 0
21 *352:10 *356:14 2.97004e-06
22 *355:8 *356:14 0.000149757
23 *355:32 *356:8 2.15986e-05
24 *355:40 *356:14 5.53249e-06
*RES
1 *4395:X *356:8 7.15 
2 *356:8 *356:14 8.185 
3 *356:14 *4396:C 4.915 
4 *356:14 *4398:A2 1.6 
5 *356:8 *4397:C 1.6 
*END

*D_NET *357 0.000717907
*CONN
*I *4399:B1 I *D sky130_fd_sc_hd__a211oi_2
*I *4400:A1 I *D sky130_fd_sc_hd__o211a_1
*I *4396:X O *D sky130_fd_sc_hd__and3_1
*CAP
1 *4399:B1 0.000115539
2 *4400:A1 1.91317e-05
3 *4396:X 0.000124224
4 *357:10 0.000258894
5 *4399:B1 *4399:C1 0
6 *4399:B1 *360:32 0
7 *4399:B1 *361:10 7.89689e-05
8 *4400:A1 *4400:A2 8.65905e-05
9 *4400:A1 *361:10 3.45588e-05
10 *357:10 *359:8 0
11 *4400:B1 *4399:B1 0
12 *4400:B1 *357:10 0
*RES
1 *4396:X *357:10 5.43 
2 *357:10 *4400:A1 4.395 
3 *357:10 *4399:B1 6 
*END

*D_NET *358 0.00121862
*CONN
*I *4442:C1 I *D sky130_fd_sc_hd__o211ai_2
*I *4440:A2 I *D sky130_fd_sc_hd__a211o_1
*I *4397:Y O *D sky130_fd_sc_hd__nand3_1
*CAP
1 *4442:C1 0
2 *4440:A2 0.000136785
3 *4397:Y 0.000398769
4 *358:10 0.000535554
5 *4440:A2 *400:6 4.99619e-05
6 *4397:A *358:10 7.00889e-06
7 *4440:A1 *4440:A2 9.05377e-05
*RES
1 *4397:Y *358:10 8.28 
2 *358:10 *4440:A2 6.45 
3 *358:10 *4442:C1 3.6 
*END

*D_NET *359 0.00121606
*CONN
*I *4399:C1 I *D sky130_fd_sc_hd__a211oi_2
*I *4400:A2 I *D sky130_fd_sc_hd__o211a_1
*I *4398:Y O *D sky130_fd_sc_hd__a21oi_1
*CAP
1 *4399:C1 0.000174227
2 *4400:A2 0.000188039
3 *4398:Y 0.000108439
4 *359:8 0.000470705
5 *4399:C1 *360:8 4.82863e-05
6 *4399:C1 *360:14 0
7 *4400:A2 *361:10 1.17409e-05
8 *359:8 *360:14 0
9 *4398:A1 *359:8 5.33085e-05
10 *4399:B1 *4399:C1 0
11 *4400:A1 *4400:A2 8.65905e-05
12 *335:12 *359:8 7.47215e-05
13 *357:10 *359:8 0
*RES
1 *4398:Y *359:8 5.745 
2 *359:8 *4400:A2 6.48 
3 *359:8 *4399:C1 6.45 
*END

*D_NET *360 0.00348011
*CONN
*I *4402:A1 I *D sky130_fd_sc_hd__o21ai_1
*I *4401:B I *D sky130_fd_sc_hd__or3_1
*I *4447:B1 I *D sky130_fd_sc_hd__a21o_1
*I *4446:A I *D sky130_fd_sc_hd__nand3_1
*I *4399:Y O *D sky130_fd_sc_hd__a211oi_2
*CAP
1 *4402:A1 0.00015387
2 *4401:B 0.00016444
3 *4447:B1 0
4 *4446:A 0.000123594
5 *4399:Y 0.000155552
6 *360:32 0.000496533
7 *360:14 0.000727016
8 *360:8 0.000937196
9 *4401:B *362:10 0.000124007
10 *4401:B *772:38 0.000398324
11 *4402:A1 *4402:A2 5.83121e-06
12 *4402:A1 *4448:A 0
13 *4402:A1 *372:6 1.47347e-05
14 *4402:A1 *412:28 0
15 *4446:A *4446:C 6.77468e-05
16 *4446:A *4447:A1 5.34756e-05
17 *360:32 *4448:A 0
18 *360:32 *361:10 0
19 *4399:B1 *360:32 0
20 *4399:C1 *360:8 4.82863e-05
21 *4399:C1 *360:14 0
22 *4401:A *4402:A1 0
23 *4401:A *360:32 0
24 *356:14 *360:14 9.50342e-06
25 *359:8 *360:14 0
*RES
1 *4399:Y *360:8 5.775 
2 *360:8 *360:14 11.3 
3 *360:14 *4446:A 4.315 
4 *360:14 *4447:B1 1.6 
5 *360:8 *360:32 2.91 
6 *360:32 *4401:B 7.515 
7 *360:32 *4402:A1 5.94 
*END

*D_NET *361 0.00182242
*CONN
*I *4402:A2 I *D sky130_fd_sc_hd__o21ai_1
*I *4401:C I *D sky130_fd_sc_hd__or3_1
*I *4400:X O *D sky130_fd_sc_hd__o211a_1
*CAP
1 *4402:A2 0.00029292
2 *4401:C 0
3 *4400:X 0.000242814
4 *361:10 0.000535734
5 *4402:A2 *4412:B1_N 4.82863e-05
6 *4402:A2 *362:10 7.4027e-05
7 *4402:A2 *372:6 0.000124895
8 *4399:B1 *361:10 7.89689e-05
9 *4400:A1 *361:10 3.45588e-05
10 *4400:A2 *361:10 1.17409e-05
11 *4400:B1 *361:10 7.89689e-05
12 *4401:A *4402:A2 3.50033e-05
13 *4401:A *361:10 5.53249e-06
14 *4402:A1 *4402:A2 5.83121e-06
15 *4402:B1 *4402:A2 0.000239813
16 *323:20 *4402:A2 1.33285e-05
17 *360:32 *361:10 0
*RES
1 *4400:X *361:10 8.16 
2 *361:10 *4401:C 3.6 
3 *361:10 *4402:A2 9.15 
*END

*D_NET *362 0.0014762
*CONN
*I *4404:B I *D sky130_fd_sc_hd__nand3_1
*I *4403:A1 I *D sky130_fd_sc_hd__a21o_1
*I *4412:B1_N I *D sky130_fd_sc_hd__a21bo_1
*I *4401:X O *D sky130_fd_sc_hd__or3_1
*CAP
1 *4404:B 0.000179502
2 *4403:A1 0
3 *4412:B1_N 9.73191e-06
4 *4401:X 0.000141833
5 *362:21 0.000263233
6 *362:10 0.000235296
7 *4404:B *4403:A2 1.17409e-05
8 *4401:A *362:10 0.000114492
9 *4401:A *362:21 8.53113e-06
10 *4401:B *362:10 0.000124007
11 *4402:A2 *4412:B1_N 4.82863e-05
12 *4402:A2 *362:10 7.4027e-05
13 *4412:A1 *4404:B 3.24046e-05
14 *4412:A1 *362:21 6.55406e-05
15 *323:20 *4412:B1_N 4.82863e-05
16 *325:19 *4404:B 0.000119285
*RES
1 *4401:X *362:10 6.12 
2 *362:10 *4412:B1_N 4.05 
3 *362:10 *362:21 1.635 
4 *362:21 *4403:A1 3.6 
5 *362:21 *4404:B 6.48 
*END

*D_NET *363 0.00092495
*CONN
*I *4404:C I *D sky130_fd_sc_hd__nand3_1
*I *4403:A2 I *D sky130_fd_sc_hd__a21o_1
*I *4412:A2 I *D sky130_fd_sc_hd__a21bo_1
*I *4402:Y O *D sky130_fd_sc_hd__o21ai_1
*CAP
1 *4404:C 0
2 *4403:A2 0.00017072
3 *4412:A2 2.03181e-05
4 *4402:Y 5.45763e-05
5 *363:21 0.000268473
6 *363:8 0.000172648
7 *4402:B1 *4412:A2 4.99619e-05
8 *4402:B1 *363:8 7.66083e-05
9 *4404:B *4403:A2 1.17409e-05
10 *4412:A1 *363:21 5.4256e-05
11 *323:20 *363:8 0
12 *325:8 *4403:A2 1.37328e-05
13 *325:19 *4403:A2 3.19153e-05
*RES
1 *4402:Y *363:8 2.755 
2 *363:8 *4412:A2 2.05 
3 *363:8 *363:21 5.635 
4 *363:21 *4403:A2 4.06 
5 *363:21 *4404:C 1.6 
*END

*D_NET *364 0.00106791
*CONN
*I *4405:B I *D sky130_fd_sc_hd__and3_1
*I *4406:A1 I *D sky130_fd_sc_hd__a21o_1
*I *4403:X O *D sky130_fd_sc_hd__a21o_1
*CAP
1 *4405:B 0.000183468
2 *4406:A1 0
3 *4403:X 0.000248535
4 *364:10 0.000432002
5 *4405:B *4405:A 4.60584e-05
6 *4405:B *365:12 0
7 *4405:B *366:8 8.65961e-05
8 *4405:B *825:25 4.05358e-05
9 *364:10 *365:12 0
10 *364:10 *412:28 0
11 *325:8 *364:10 3.07153e-05
*RES
1 *4403:X *364:10 7.305 
2 *364:10 *4406:A1 3.6 
3 *364:10 *4405:B 6.465 
*END

*D_NET *365 0.0010724
*CONN
*I *4405:C I *D sky130_fd_sc_hd__and3_1
*I *4406:A2 I *D sky130_fd_sc_hd__a21o_1
*I *4404:Y O *D sky130_fd_sc_hd__nand3_1
*CAP
1 *4405:C 0
2 *4406:A2 0.000112703
3 *4404:Y 0.000366924
4 *365:12 0.000479627
5 *4406:A2 *4405:A 5.46657e-05
6 *4406:A2 *4407:A_N 0
7 *365:12 *4405:A 4.0106e-05
8 *365:12 *4915:CLK 1.83756e-05
9 *4405:B *365:12 0
10 *364:10 *365:12 0
*RES
1 *4404:Y *365:12 10.745 
2 *365:12 *4406:A2 3.295 
3 *365:12 *4405:C 1.6 
*END

*D_NET *366 0.0012693
*CONN
*I *4407:A_N I *D sky130_fd_sc_hd__and2b_1
*I *4452:B1 I *D sky130_fd_sc_hd__a21oi_2
*I *4405:X O *D sky130_fd_sc_hd__and3_1
*CAP
1 *4407:A_N 0.000194318
2 *4452:B1 0
3 *4405:X 0.000124034
4 *366:8 0.000318353
5 *4407:A_N *4405:A 3.26889e-05
6 *4407:A_N *4407:B 6.12198e-05
7 *4407:A_N *4452:A2 4.99619e-05
8 *4407:A_N *367:6 0.000241483
9 *366:8 *4405:A 0.000160641
10 *366:8 *4407:B 0
11 *4405:B *366:8 8.65961e-05
12 *4406:A2 *4407:A_N 0
*RES
1 *4405:X *366:8 4.48 
2 *366:8 *4452:B1 1.6 
3 *366:8 *4407:A_N 6.22 
*END

*D_NET *367 0.000806398
*CONN
*I *4452:A1 I *D sky130_fd_sc_hd__a21oi_2
*I *4407:B I *D sky130_fd_sc_hd__and2b_1
*I *4406:X O *D sky130_fd_sc_hd__a21o_1
*CAP
1 *4452:A1 0
2 *4407:B 0.000144314
3 *4406:X 5.79714e-05
4 *367:6 0.000202285
5 *4407:B *4452:A2 9.91257e-05
6 *4407:A_N *4407:B 6.12198e-05
7 *4407:A_N *367:6 0.000241483
8 *366:8 *4407:B 0
*RES
1 *4406:X *367:6 3.43 
2 *367:6 *4407:B 4.495 
3 *367:6 *4452:A1 1.6 
*END

*D_NET *368 0.00080997
*CONN
*I *4409:A I *D sky130_fd_sc_hd__xnor2_1
*I *4407:X O *D sky130_fd_sc_hd__and2b_1
*CAP
1 *4409:A 0.000284243
2 *4407:X 0.000284243
3 *4409:A *4409:B 0
4 *4409:A *1009:65 0.000241483
*RES
1 *4407:X *4409:A 12.39 
*END

*D_NET *369 0.00234651
*CONN
*I *4452:A2 I *D sky130_fd_sc_hd__a21oi_2
*I *4409:B I *D sky130_fd_sc_hd__xnor2_1
*I *4408:X O *D sky130_fd_sc_hd__a21o_1
*CAP
1 *4452:A2 0.000302295
2 *4409:B 0.000130496
3 *4408:X 0.000532281
4 *369:10 0.000965072
5 *4407:A_N *4452:A2 4.99619e-05
6 *4407:B *4452:A2 9.91257e-05
7 *4408:A1 *369:10 0.00016281
8 *4408:B1 *369:10 1.91597e-05
9 *4409:A *4409:B 0
10 *326:12 *369:10 8.49205e-05
11 *328:14 *369:10 3.88423e-07
*RES
1 *4408:X *369:10 10.105 
2 *369:10 *4409:B 7.745 
3 *369:10 *4452:A2 6.88 
*END

*D_NET *370 0.000217113
*CONN
*I *4410:B I *D sky130_fd_sc_hd__nand2_1
*I *4409:Y O *D sky130_fd_sc_hd__xnor2_1
*CAP
1 *4410:B 8.02593e-05
2 *4409:Y 8.02593e-05
3 *4410:B *1009:65 5.65948e-05
*RES
1 *4409:Y *4410:B 8.58 
*END

*D_NET *371 0.000233741
*CONN
*I *4411:C1 I *D sky130_fd_sc_hd__o211a_1
*I *4410:Y O *D sky130_fd_sc_hd__nand2_1
*CAP
1 *4411:C1 4.08e-05
2 *4410:Y 4.08e-05
3 *4411:C1 *4834:B1 8.57024e-05
4 *4411:C1 *1009:80 6.64382e-05
*RES
1 *4410:Y *4411:C1 4.355 
*END

*D_NET *372 0.00222753
*CONN
*I *4449:B1 I *D sky130_fd_sc_hd__a21o_1
*I *4457:A1 I *D sky130_fd_sc_hd__a21bo_1
*I *4448:A I *D sky130_fd_sc_hd__nand3_1
*I *4412:X O *D sky130_fd_sc_hd__a21bo_1
*CAP
1 *4449:B1 0
2 *4457:A1 0.000101166
3 *4448:A 9.58752e-05
4 *4412:X 0.000352389
5 *372:23 0.000345742
6 *372:6 0.000692841
7 *4448:A *407:14 0
8 *4457:A1 *4457:A2 4.99619e-05
9 *4457:A1 *406:12 4.82919e-05
10 *4457:A1 *406:25 5.02217e-05
11 *4457:A1 *407:14 2.66852e-05
12 *372:6 *412:28 4.82863e-05
13 *372:23 *412:28 0.000276441
14 *372:23 *772:38 0
15 *4402:A1 *4448:A 0
16 *4402:A1 *372:6 1.47347e-05
17 *4402:A2 *372:6 0.000124895
18 *360:32 *4448:A 0
*RES
1 *4412:X *372:6 5.845 
2 *372:6 *4448:A 7.235 
3 *372:6 *372:23 6.155 
4 *372:23 *4457:A1 5.94 
5 *372:23 *4449:B1 3.6 
*END

*D_NET *373 0.0029453
*CONN
*I *4420:A I *D sky130_fd_sc_hd__nand2_1
*I *4421:A I *D sky130_fd_sc_hd__xor2_1
*I *4413:X O *D sky130_fd_sc_hd__a31o_1
*CAP
1 *4420:A 0.000163231
2 *4421:A 0
3 *4413:X 0.000436567
4 *373:12 0.000599798
5 *4420:A *4420:B 0.000174409
6 *4420:A *381:10 4.60584e-05
7 *373:12 *4375:A 5.05521e-05
8 *373:12 *4420:B 3.26889e-05
9 *373:12 *979:106 9.27255e-06
10 *373:12 *1006:59 5.99393e-05
11 *4380:A *373:12 6.32751e-05
12 *4380:B *373:12 0.000196376
13 *341:10 *373:12 0.000198597
14 *350:14 *373:12 0.000914536
*RES
1 *4413:X *373:12 14.95 
2 *373:12 *4421:A 1.6 
3 *373:12 *4420:A 4.84 
*END

*D_NET *374 0.0018476
*CONN
*I *4458:A I *D sky130_fd_sc_hd__nor2_1
*I *4415:A I *D sky130_fd_sc_hd__inv_2
*I *4414:X O *D sky130_fd_sc_hd__and4_1
*CAP
1 *4458:A 0.000123561
2 *4415:A 0.000112003
3 *4414:X 0.000114571
4 *374:12 0.000350135
5 *4415:A *4417:D 2.06083e-05
6 *4415:A *4418:A2_N 2.59981e-05
7 *4415:A *375:12 3.90266e-05
8 *4415:A *979:76 0
9 *4415:A *1003:45 0
10 *4415:A *1003:54 0
11 *4458:A *4418:A1_N 0.000299098
12 *4458:A *4418:A2_N 0.000313857
13 *4458:A *4458:B 7.37522e-05
14 *374:12 *4418:A1_N 0.000120655
15 *374:12 *4418:A2_N 0.000102022
16 *374:12 *4419:A 0
17 *374:12 *376:14 1.91597e-05
18 *374:12 *979:76 3.68596e-05
19 *4418:B1 *4415:A 9.62973e-05
*RES
1 *4414:X *374:12 8.21 
2 *374:12 *4415:A 8.255 
3 *374:12 *4458:A 5.86 
*END

*D_NET *375 0.00141269
*CONN
*I *4418:A1_N I *D sky130_fd_sc_hd__o2bb2a_1
*I *4417:B I *D sky130_fd_sc_hd__and4b_1
*I *4415:Y O *D sky130_fd_sc_hd__inv_2
*CAP
1 *4418:A1_N 9.23466e-05
2 *4417:B 0
3 *4415:Y 0.000120716
4 *375:12 0.000213063
5 *4418:A1_N *4417:D 0.000111922
6 *4418:A1_N *4418:B2 1.56554e-05
7 *4418:A1_N *4458:B 0.000126149
8 *4418:A1_N *376:14 4.66108e-05
9 *4418:A1_N *377:6 5.29938e-05
10 *375:12 *4418:A2_N 2.92496e-05
11 *375:12 *376:14 0.000114492
12 *375:12 *418:14 3.07153e-05
13 *375:12 *979:76 0
14 *4415:A *375:12 3.90266e-05
15 *4458:A *4418:A1_N 0.000299098
16 *374:12 *4418:A1_N 0.000120655
*RES
1 *4415:Y *375:12 8.03 
2 *375:12 *4417:B 1.6 
3 *375:12 *4418:A1_N 5.51125 
*END

*D_NET *376 0.00162336
*CONN
*I *4417:C I *D sky130_fd_sc_hd__and4b_1
*I *4418:A2_N I *D sky130_fd_sc_hd__o2bb2a_1
*I *4416:X O *D sky130_fd_sc_hd__a22o_1
*CAP
1 *4417:C 0
2 *4418:A2_N 0.000293415
3 *4416:X 0.000129315
4 *376:14 0.000422729
5 *4418:A2_N *979:76 0
6 *376:14 *4418:B2 4.66826e-05
7 *376:14 *418:14 3.07153e-05
8 *376:14 *979:76 4.91189e-05
9 *4415:A *4418:A2_N 2.59981e-05
10 *4418:A1_N *376:14 4.66108e-05
11 *4458:A *4418:A2_N 0.000313857
12 *374:12 *4418:A2_N 0.000102022
13 *374:12 *376:14 1.91597e-05
14 *375:12 *4418:A2_N 2.92496e-05
15 *375:12 *376:14 0.000114492
*RES
1 *4416:X *376:14 8.57 
2 *376:14 *4418:A2_N 10.025 
3 *376:14 *4417:C 1.6 
*END

*D_NET *377 0.00127082
*CONN
*I *4458:B I *D sky130_fd_sc_hd__nor2_1
*I *4419:A I *D sky130_fd_sc_hd__nor2_1
*I *4417:X O *D sky130_fd_sc_hd__and4b_1
*CAP
1 *4458:B 0.000166175
2 *4419:A 0.000160272
3 *4417:X 5.00055e-05
4 *377:6 0.000376452
5 *4419:A *4417:D 6.26955e-05
6 *4419:A *4419:B 0
7 *4458:B *417:8 3.00381e-05
8 *377:6 *4417:D 4.99619e-05
9 *377:6 *4418:B2 0.000122325
10 *4418:A1_N *4458:B 0.000126149
11 *4418:A1_N *377:6 5.29938e-05
12 *4458:A *4458:B 7.37522e-05
13 *374:12 *4419:A 0
*RES
1 *4417:X *377:6 3.085 
2 *377:6 *4419:A 8 
3 *377:6 *4458:B 5.185 
*END

*D_NET *378 0.000402727
*CONN
*I *4419:B I *D sky130_fd_sc_hd__nor2_1
*I *4418:X O *D sky130_fd_sc_hd__o2bb2a_1
*CAP
1 *4419:B 0.000138916
2 *4418:X 0.000138916
3 *4419:A *4419:B 0
4 *181:50 *4419:B 0.000124895
*RES
1 *4418:X *4419:B 9.72 
*END

*D_NET *379 0.00225198
*CONN
*I *4420:B I *D sky130_fd_sc_hd__nand2_1
*I *4421:B I *D sky130_fd_sc_hd__xor2_1
*I *4419:Y O *D sky130_fd_sc_hd__nor2_1
*CAP
1 *4420:B 6.13754e-05
2 *4421:B 0
3 *4419:Y 0.000748344
4 *379:12 0.00080972
5 *4420:B *381:10 4.99619e-05
6 *379:12 *396:10 0
7 *4420:A *4420:B 0.000174409
8 *181:50 *379:12 0.000375476
9 *350:14 *379:12 0
10 *373:12 *4420:B 3.26889e-05
*RES
1 *4419:Y *379:12 16.685 
2 *379:12 *4421:B 1.6 
3 *379:12 *4420:B 3.445 
*END

*D_NET *380 0.00214503
*CONN
*I *4492:B1 I *D sky130_fd_sc_hd__o21ai_1
*I *4491:C I *D sky130_fd_sc_hd__or3_4
*I *4420:Y O *D sky130_fd_sc_hd__nand2_1
*CAP
1 *4492:B1 0.000147899
2 *4491:C 4.88978e-05
3 *4420:Y 0.000405679
4 *380:6 0.000602476
5 *4491:C *4490:A1 8.97564e-05
6 *4491:C *4492:A1 0.000152821
7 *4491:C *447:10 9.50342e-06
8 *4492:B1 *4492:A1 5.05521e-05
9 *4492:B1 *4492:A2 4.82919e-05
10 *4492:B1 *449:6 4.82863e-05
11 *380:6 *4490:A2 8.49205e-05
12 *380:6 *4490:B1 9.80032e-06
13 *380:6 *4490:C1 2.16917e-05
14 *380:6 *381:10 0.000315527
15 *380:6 *395:40 1.61831e-05
16 *380:6 *398:12 9.2741e-05
*RES
1 *4420:Y *380:6 8.605 
2 *380:6 *4491:C 7.49 
3 *380:6 *4492:B1 4.135 
*END

*D_NET *381 0.00222442
*CONN
*I *4437:A I *D sky130_fd_sc_hd__and3_1
*I *4439:B1 I *D sky130_fd_sc_hd__a21oi_1
*I *4438:A I *D sky130_fd_sc_hd__nand3_1
*I *4421:X O *D sky130_fd_sc_hd__xor2_1
*CAP
1 *4437:A 0.000121435
2 *4439:B1 2.90906e-05
3 *4438:A 0
4 *4421:X 0.000304766
5 *381:16 9.62998e-05
6 *381:10 0.00049341
7 *4437:A *4437:B 8.35683e-05
8 *4437:A *4437:C 4.82863e-05
9 *4437:A *395:40 3.09233e-05
10 *4437:A *395:49 4.38051e-05
11 *4437:A *396:10 0
12 *4439:B1 *4439:A2 0.000124007
13 *4439:B1 *399:10 5.05521e-05
14 *381:10 *395:34 8.09021e-06
15 *381:10 *395:40 0.000321522
16 *381:10 *396:10 0
17 *381:10 *398:12 1.34361e-05
18 *381:16 *4439:A2 4.36791e-05
19 *4420:A *381:10 4.60584e-05
20 *4420:B *381:10 4.99619e-05
21 *380:6 *381:10 0.000315527
*RES
1 *4421:X *381:10 11.34 
2 *381:10 *381:16 3.155 
3 *381:16 *4438:A 1.6 
4 *381:16 *4439:B1 2.74 
5 *381:10 *4437:A 5.94 
*END

*D_NET *382 0.00119176
*CONN
*I *4459:B1 I *D sky130_fd_sc_hd__o21ai_1
*I *4424:A I *D sky130_fd_sc_hd__nand2_1
*I *4422:Y O *D sky130_fd_sc_hd__nand4_1
*CAP
1 *4459:B1 0.000108166
2 *4424:A 0
3 *4422:Y 0.000246167
4 *382:10 0.000354333
5 *4459:B1 *4376:A 3.25831e-05
6 *4459:B1 *4968:A 0
7 *4459:B1 *384:8 0.000140905
8 *4459:B1 *997:55 0
9 *382:10 *4423:A1 7.06865e-05
10 *382:10 *4968:A 0
11 *382:10 *983:89 0.000238919
12 *382:10 *997:42 0
13 *382:10 *997:55 0
*RES
1 *4422:Y *382:10 7.41 
2 *382:10 *4424:A 3.6 
3 *382:10 *4459:B1 5.745 
*END

*D_NET *383 0.000161339
*CONN
*I *4424:B I *D sky130_fd_sc_hd__nand2_1
*I *4423:X O *D sky130_fd_sc_hd__a22o_1
*CAP
1 *4424:B 3.34042e-05
2 *4423:X 3.34042e-05
3 *4424:B *4423:A1 4.45687e-05
4 *4424:B *781:39 4.99619e-05
*RES
1 *4423:X *4424:B 4.265 
*END

*D_NET *384 0.00075724
*CONN
*I *4425:B I *D sky130_fd_sc_hd__xor2_1
*I *4459:A2 I *D sky130_fd_sc_hd__o21ai_1
*I *4424:Y O *D sky130_fd_sc_hd__nand2_1
*CAP
1 *4425:B 3.93259e-05
2 *4459:A2 4.33512e-05
3 *4424:Y 8.62904e-05
4 *384:8 0.000168967
5 *4425:B *4376:A 6.28843e-05
6 *384:8 *4376:A 2.4997e-05
7 *384:8 *997:55 0
8 *4425:A *4425:B 0.000107634
9 *4425:A *4459:A2 3.64998e-06
10 *4425:A *384:8 7.5416e-05
11 *4459:B1 *384:8 0.000140905
12 *337:8 *4459:A2 3.81908e-06
*RES
1 *4424:Y *384:8 5.745 
2 *384:8 *4459:A2 4.05 
3 *384:8 *4425:B 4.98 
*END

*D_NET *385 0.00215337
*CONN
*I *4482:A2 I *D sky130_fd_sc_hd__a21bo_1
*I *4433:B1 I *D sky130_fd_sc_hd__a21o_1
*I *4432:A I *D sky130_fd_sc_hd__nand3_1
*I *4425:X O *D sky130_fd_sc_hd__xor2_1
*CAP
1 *4482:A2 7.21638e-05
2 *4433:B1 1.04051e-05
3 *4432:A 0
4 *4425:X 0.000139487
5 *385:21 0.000136193
6 *385:12 0.000193111
7 *4482:A2 *4482:A1 6.47326e-05
8 *4482:A2 *4482:B1_N 0.000111285
9 *4482:A2 *392:12 0.000392136
10 *385:12 *4376:A 9.13951e-05
11 *385:12 *4433:A2 5.16418e-05
12 *385:12 *4968:A 0
13 *385:12 *792:33 7.26551e-05
14 *385:12 *982:23 0.000205971
15 *385:12 *1000:97 0
16 *385:21 *4482:B1_N 5.05521e-05
17 *385:21 *390:12 3.26889e-05
18 *385:21 *390:16 5.36849e-05
19 *385:21 *392:12 0.000162311
20 *181:44 *385:12 0.000312958
*RES
1 *4425:X *385:12 10.61 
2 *385:12 *4432:A 1.6 
3 *385:12 *385:21 1.845 
4 *385:21 *4433:B1 1.96 
5 *385:21 *4482:A2 5.155 
*END

*D_NET *386 0.00251134
*CONN
*I *4429:A1 I *D sky130_fd_sc_hd__o21ai_1
*I *4428:B I *D sky130_fd_sc_hd__or3_4
*I *4477:A2 I *D sky130_fd_sc_hd__o21bai_1
*I *4426:Y O *D sky130_fd_sc_hd__a21oi_1
*CAP
1 *4429:A1 0.00010182
2 *4428:B 0
3 *4477:A2 0
4 *4426:Y 0.000101344
5 *386:25 0.000191287
6 *386:12 0.00019081
7 *4429:A1 *4429:A2 4.19006e-05
8 *4429:A1 *781:39 0.000480368
9 *386:12 *4199:A1 3.50033e-05
10 *386:12 *4920:A 0.000289004
11 *386:12 *4990:A 4.66108e-05
12 *386:12 *988:55 4.66108e-05
13 *386:12 *995:68 0.000179465
14 *386:25 *4199:A2 3.32209e-05
15 *386:25 *4477:B1_N 3.64998e-06
16 *386:25 *4990:A 0.000108886
17 *386:25 *387:10 7.5416e-05
18 *386:25 *387:23 8.28738e-05
19 *386:25 *781:39 7.06865e-05
20 *386:25 *988:55 0.000111595
21 *4429:B1 *4429:A1 0.000227261
22 *4477:A1 *386:12 9.50342e-06
23 *343:21 *4429:A1 8.40269e-05
*RES
1 *4426:Y *386:12 9.47 
2 *386:12 *4477:A2 1.6 
3 *386:12 *386:25 7.03 
4 *386:25 *4428:B 1.6 
5 *386:25 *4429:A1 6.115 
*END

*D_NET *387 0.00196646
*CONN
*I *4429:A2 I *D sky130_fd_sc_hd__o21ai_1
*I *4428:C I *D sky130_fd_sc_hd__or3_4
*I *4477:B1_N I *D sky130_fd_sc_hd__o21bai_1
*I *4427:X O *D sky130_fd_sc_hd__and3_1
*CAP
1 *4429:A2 0.00015801
2 *4428:C 5.67462e-05
3 *4477:B1_N 4.06469e-05
4 *4427:X 0.000246097
5 *387:23 0.000317633
6 *387:10 0.00038962
7 *4428:C *4382:B 3.26889e-05
8 *4429:A2 *388:10 4.99619e-05
9 *4429:A2 *389:10 4.99619e-05
10 *4429:A2 *781:39 1.31519e-05
11 *4477:B1_N *4990:A 1.03323e-05
12 *387:10 *4319:A1 0
13 *387:10 *988:55 0.000152652
14 *387:23 *4199:A2 2.75538e-05
15 *387:23 *4319:A1 0
16 *4428:A *4428:C 4.00541e-06
17 *4429:A1 *4429:A2 4.19006e-05
18 *4429:B1 *4429:A2 0.000141323
19 *199:10 *387:10 0
20 *343:21 *4428:C 5.05437e-05
21 *343:21 *4429:A2 2.16917e-05
22 *386:25 *4477:B1_N 3.64998e-06
23 *386:25 *387:10 7.5416e-05
24 *386:25 *387:23 8.28738e-05
*RES
1 *4427:X *387:10 8.235 
2 *387:10 *4477:B1_N 4.05 
3 *387:10 *387:23 3.89 
4 *387:23 *4428:C 2.755 
5 *387:23 *4429:A2 5.17 
*END

*D_NET *388 0.00122617
*CONN
*I *4430:B1 I *D sky130_fd_sc_hd__o211ai_2
*I *4431:A2 I *D sky130_fd_sc_hd__a211o_1
*I *4428:X O *D sky130_fd_sc_hd__or3_4
*CAP
1 *4430:B1 0.000129253
2 *4431:A2 0
3 *4428:X 0.000183261
4 *388:10 0.000312514
5 *4430:B1 *4199:A2 0
6 *4430:B1 *4319:A1 0.000185398
7 *4430:B1 *4430:C1 4.66108e-05
8 *388:10 *4199:A2 0
9 *388:10 *4319:A1 0.000319167
10 *4429:A2 *388:10 4.99619e-05
*RES
1 *4428:X *388:10 7.725 
2 *388:10 *4431:A2 3.6 
3 *388:10 *4430:B1 6.555 
*END

*D_NET *389 0.00147669
*CONN
*I *4430:C1 I *D sky130_fd_sc_hd__o211ai_2
*I *4431:A1 I *D sky130_fd_sc_hd__a211o_1
*I *4429:Y O *D sky130_fd_sc_hd__o21ai_1
*CAP
1 *4430:C1 0.000145349
2 *4431:A1 1.93533e-05
3 *4429:Y 0.000183222
4 *389:10 0.000347924
5 *4430:C1 *4319:A1 0.000195925
6 *4431:A1 *391:12 2.49909e-05
7 *389:10 *4319:A1 0.000319167
8 *4429:A2 *389:10 4.99619e-05
9 *4430:B1 *4430:C1 4.66108e-05
10 *4431:C1 *4430:C1 8.97564e-05
11 *4431:C1 *389:10 4.43871e-06
12 *181:44 *4431:A1 2.49909e-05
13 *199:10 *389:10 0
14 *346:8 *4430:C1 2.4997e-05
*RES
1 *4429:Y *389:10 7.725 
2 *389:10 *4431:A1 4.05 
3 *389:10 *4430:C1 7.14 
*END

*D_NET *390 0.00260034
*CONN
*I *4432:B I *D sky130_fd_sc_hd__nand3_1
*I *4482:B1_N I *D sky130_fd_sc_hd__a21bo_1
*I *4433:A1 I *D sky130_fd_sc_hd__a21o_1
*I *4430:Y O *D sky130_fd_sc_hd__o211ai_2
*CAP
1 *4432:B 0
2 *4482:B1_N 4.96271e-05
3 *4433:A1 0
4 *4430:Y 0.000676415
5 *390:16 0.000112878
6 *390:12 0.000739666
7 *4482:B1_N *4482:A1 0.000264677
8 *390:12 *4430:A1 5.07419e-05
9 *390:12 *391:16 2.8185e-05
10 *390:12 *857:12 4.30929e-05
11 *390:16 *4482:A1 4.66108e-05
12 *390:16 *391:16 8.77612e-05
13 *4386:A *390:12 0.000122331
14 *4386:C *390:12 4.35432e-05
15 *4482:A2 *4482:B1_N 0.000111285
16 *347:12 *390:12 8.65961e-05
17 *385:21 *4482:B1_N 5.05521e-05
18 *385:21 *390:12 3.26889e-05
19 *385:21 *390:16 5.36849e-05
*RES
1 *4430:Y *390:12 12.535 
2 *390:12 *390:16 1.5 
3 *390:16 *4433:A1 1.6 
4 *390:16 *4482:B1_N 4.12 
5 *390:12 *4432:B 1.6 
*END

*D_NET *391 0.00441611
*CONN
*I *4432:C I *D sky130_fd_sc_hd__nand3_1
*I *4482:A1 I *D sky130_fd_sc_hd__a21bo_1
*I *4433:A2 I *D sky130_fd_sc_hd__a21o_1
*I *4431:X O *D sky130_fd_sc_hd__a211o_1
*CAP
1 *4432:C 0
2 *4482:A1 0.00033725
3 *4433:A2 1.57584e-05
4 *4431:X 0.000991277
5 *391:16 0.000493135
6 *391:12 0.0011314
7 *4433:A2 *792:33 5.16418e-05
8 *391:12 *4376:A 0.000198945
9 *391:12 *4431:B1 0.000311288
10 *391:12 *982:23 9.94023e-05
11 *391:12 *1000:97 0
12 *4431:A1 *391:12 2.49909e-05
13 *4482:A2 *4482:A1 6.47326e-05
14 *4482:B1_N *4482:A1 0.000264677
15 *181:44 *391:12 0.000217411
16 *385:12 *4433:A2 5.16418e-05
17 *390:12 *391:16 2.8185e-05
18 *390:16 *4482:A1 4.66108e-05
19 *390:16 *391:16 8.77612e-05
*RES
1 *4431:X *391:12 18.56 
2 *391:12 *391:16 1.845 
3 *391:16 *4433:A2 6.215 
4 *391:16 *4482:A1 6.46 
5 *391:12 *4432:C 1.6 
*END

*D_NET *392 0.00400859
*CONN
*I *4435:A I *D sky130_fd_sc_hd__nand3_2
*I *4436:A1 I *D sky130_fd_sc_hd__a21o_1
*I *4432:Y O *D sky130_fd_sc_hd__nand3_1
*CAP
1 *4435:A 0.000114268
2 *4436:A1 0
3 *4432:Y 0.000737231
4 *392:12 0.000851499
5 *4435:A *4435:B 7.45031e-05
6 *4435:A *4436:B1 8.8266e-05
7 *4435:A *396:10 4.99619e-05
8 *392:12 *393:14 0.000583656
9 *392:12 *979:89 0
10 *4482:A2 *392:12 0.000392136
11 *181:50 *392:12 0.000954762
12 *385:21 *392:12 0.000162311
*RES
1 *4432:Y *392:12 22.67 
2 *392:12 *4436:A1 1.6 
3 *392:12 *4435:A 4.15 
*END

*D_NET *393 0.00375726
*CONN
*I *4435:B I *D sky130_fd_sc_hd__nand3_2
*I *4436:A2 I *D sky130_fd_sc_hd__a21o_1
*I *4433:X O *D sky130_fd_sc_hd__a21o_1
*CAP
1 *4435:B 9.30599e-05
2 *4436:A2 0
3 *4433:X 0.000767504
4 *393:14 0.000860564
5 *4435:B *4435:C 0.000157589
6 *4435:B *4436:B1 8.65905e-05
7 *4435:B *396:10 3.23663e-05
8 *393:14 *4195:B2 0.000120655
9 *393:14 *1003:73 0.000192125
10 *393:14 *1008:14 0.000294414
11 *4435:A *4435:B 7.45031e-05
12 *351:20 *4435:B 0.000164874
13 *351:20 *393:14 0.000329361
14 *392:12 *393:14 0.000583656
*RES
1 *4433:X *393:14 20.615 
2 *393:14 *4436:A2 1.6 
3 *393:14 *4435:B 5.185 
*END

*D_NET *394 0.00137536
*CONN
*I *4435:C I *D sky130_fd_sc_hd__nand3_2
*I *4436:B1 I *D sky130_fd_sc_hd__a21o_1
*I *4434:X O *D sky130_fd_sc_hd__a21bo_1
*CAP
1 *4435:C 0.000123536
2 *4436:B1 6.46139e-05
3 *4434:X 0.00012966
4 *394:8 0.00031781
5 *4435:C *395:8 4.99619e-05
6 *4435:C *396:10 6.23399e-05
7 *4435:A *4436:B1 8.8266e-05
8 *4435:B *4435:C 0.000157589
9 *4435:B *4436:B1 8.65905e-05
10 *341:10 *394:8 2.67022e-05
11 *350:14 *394:8 0
12 *351:20 *4436:B1 8.53113e-06
13 *351:20 *394:8 0.000259761
*RES
1 *4434:X *394:8 6.765 
2 *394:8 *4436:B1 5.01 
3 *394:8 *4435:C 6.495 
*END

*D_NET *395 0.00479752
*CONN
*I *4490:B1 I *D sky130_fd_sc_hd__o211a_1
*I *4437:B I *D sky130_fd_sc_hd__and3_1
*I *4439:A1 I *D sky130_fd_sc_hd__a21oi_1
*I *4438:B I *D sky130_fd_sc_hd__nand3_1
*I *4488:A1 I *D sky130_fd_sc_hd__a211oi_1
*I *4489:A1 I *D sky130_fd_sc_hd__a211o_1
*I *4435:Y O *D sky130_fd_sc_hd__nand3_2
*CAP
1 *4490:B1 0.000138297
2 *4437:B 7.35136e-05
3 *4439:A1 0.000156616
4 *4438:B 0
5 *4488:A1 0
6 *4489:A1 3.10775e-05
7 *4435:Y 0.000455204
8 *395:49 0.000246398
9 *395:40 0.000149067
10 *395:34 0.000383317
11 *395:14 0.000253414
12 *395:8 0.000789762
13 *4437:B *399:10 0.000103185
14 *4439:A1 *4439:A2 0.000237249
15 *4489:A1 *4488:A2 0.00011852
16 *4489:A1 *398:16 9.50342e-06
17 *4489:A1 *444:19 0.00011852
18 *4490:B1 *4490:A2 3.70572e-05
19 *4490:B1 *4490:C1 4.82919e-05
20 *4490:B1 *398:12 0.000112349
21 *395:8 *396:10 0.000235833
22 *395:14 *4488:A2 4.70343e-05
23 *395:14 *396:10 0
24 *395:14 *398:16 8.08153e-06
25 *395:34 *396:10 0
26 *395:34 *398:12 2.92496e-05
27 *395:34 *398:16 7.25122e-05
28 *395:40 *398:12 0.00032198
29 *395:40 *399:10 2.97561e-05
30 *395:49 *399:10 2.78732e-05
31 *4435:C *395:8 4.99619e-05
32 *4437:A *4437:B 8.35683e-05
33 *4437:A *395:40 3.09233e-05
34 *4437:A *395:49 4.38051e-05
35 *380:6 *4490:B1 9.80032e-06
36 *380:6 *395:40 1.61831e-05
37 *381:10 *395:34 8.09021e-06
38 *381:10 *395:40 0.000321522
*RES
1 *4435:Y *395:8 11.985 
2 *395:8 *395:14 5.12 
3 *395:14 *4489:A1 6.98 
4 *395:14 *4488:A1 1.6 
5 *395:8 *395:34 4.4 
6 *395:34 *395:40 6.725 
7 *395:40 *4438:B 3.6 
8 *395:40 *395:49 0.615 
9 *395:49 *4439:A1 5.775 
10 *395:49 *4437:B 5.745 
11 *395:34 *4490:B1 4.135 
*END

*D_NET *396 0.00391815
*CONN
*I *4437:C I *D sky130_fd_sc_hd__and3_1
*I *4439:A2 I *D sky130_fd_sc_hd__a21oi_1
*I *4438:C I *D sky130_fd_sc_hd__nand3_1
*I *4436:X O *D sky130_fd_sc_hd__a21o_1
*CAP
1 *4437:C 0.000297351
2 *4439:A2 0.000168608
3 *4438:C 0
4 *4436:X 0.000976791
5 *396:14 0.00026807
6 *396:10 0.0013736
7 *4435:A *396:10 4.99619e-05
8 *4435:B *396:10 3.23663e-05
9 *4435:C *396:10 6.23399e-05
10 *4437:A *4437:C 4.82863e-05
11 *4437:A *396:10 0
12 *4439:A1 *4439:A2 0.000237249
13 *4439:B1 *4439:A2 0.000124007
14 *379:12 *396:10 0
15 *381:10 *396:10 0
16 *381:16 *4439:A2 4.36791e-05
17 *395:8 *396:10 0.000235833
18 *395:14 *396:10 0
19 *395:34 *396:10 0
*RES
1 *4436:X *396:10 17.94 
2 *396:10 *396:14 3.485 
3 *396:14 *4438:C 1.6 
4 *396:14 *4439:A2 5.53 
5 *396:10 *4437:C 7.215 
*END

*D_NET *397 0.000957246
*CONN
*I *4442:A1 I *D sky130_fd_sc_hd__o211ai_2
*I *4440:C1 I *D sky130_fd_sc_hd__a211o_1
*I *4437:X O *D sky130_fd_sc_hd__and3_1
*CAP
1 *4442:A1 0.000107452
2 *4440:C1 5.05434e-05
3 *4437:X 0.000251004
4 *397:10 0.000409
5 *4440:C1 *400:6 0.000124895
6 *4442:A1 *4442:A2 0
7 *4442:A1 *400:10 0
8 *397:10 *4442:A2 0
9 *397:10 *399:10 0
10 *397:10 *403:12 0
11 *4443:A *4442:A1 1.43521e-05
*RES
1 *4437:X *397:10 6.72 
2 *397:10 *4440:C1 4.74 
3 *397:10 *4442:A1 5.49 
*END

*D_NET *398 0.00162987
*CONN
*I *4490:C1 I *D sky130_fd_sc_hd__o211a_1
*I *4489:A2 I *D sky130_fd_sc_hd__a211o_1
*I *4488:A2 I *D sky130_fd_sc_hd__a211oi_1
*I *4438:Y O *D sky130_fd_sc_hd__nand3_1
*CAP
1 *4490:C1 9.47958e-06
2 *4489:A2 0
3 *4488:A2 4.99322e-05
4 *4438:Y 0.000170475
5 *398:16 0.000132514
6 *398:12 0.000262536
7 *4488:A2 *444:19 1.26548e-05
8 *398:16 *4490:A1 0
9 *398:16 *4490:A2 9.68865e-05
10 *4489:A1 *4488:A2 0.00011852
11 *4489:A1 *398:16 9.50342e-06
12 *4490:B1 *4490:C1 4.82919e-05
13 *4490:B1 *398:12 0.000112349
14 *380:6 *4490:C1 2.16917e-05
15 *380:6 *398:12 9.2741e-05
16 *381:10 *398:12 1.34361e-05
17 *395:14 *4488:A2 4.70343e-05
18 *395:14 *398:16 8.08153e-06
19 *395:34 *398:12 2.92496e-05
20 *395:34 *398:16 7.25122e-05
21 *395:40 *398:12 0.00032198
*RES
1 *4438:Y *398:12 10.505 
2 *398:12 *398:16 4.4 
3 *398:16 *4488:A2 5.235 
4 *398:16 *4489:A2 3.6 
5 *398:12 *4490:C1 2.05 
*END

*D_NET *399 0.00113007
*CONN
*I *4442:A2 I *D sky130_fd_sc_hd__o211ai_2
*I *4440:B1 I *D sky130_fd_sc_hd__a211o_1
*I *4439:Y O *D sky130_fd_sc_hd__a21oi_1
*CAP
1 *4442:A2 0.000116125
2 *4440:B1 0
3 *4439:Y 0.000297022
4 *399:10 0.000413148
5 *4437:B *399:10 0.000103185
6 *4439:B1 *399:10 5.05521e-05
7 *4440:A1 *4442:A2 8.68724e-05
8 *4440:A1 *399:10 5.53249e-06
9 *4442:A1 *4442:A2 0
10 *395:40 *399:10 2.97561e-05
11 *395:49 *399:10 2.78732e-05
12 *397:10 *4442:A2 0
13 *397:10 *399:10 0
*RES
1 *4439:Y *399:10 9.09 
2 *399:10 *4440:B1 3.6 
3 *399:10 *4442:A2 5.94 
*END

*D_NET *400 0.00252363
*CONN
*I *4441:A I *D sky130_fd_sc_hd__inv_2
*I *4444:B I *D sky130_fd_sc_hd__nand3_1
*I *4445:A1 I *D sky130_fd_sc_hd__a21o_1
*I *4443:B I *D sky130_fd_sc_hd__and3_1
*I *4440:X O *D sky130_fd_sc_hd__a211o_1
*CAP
1 *4441:A 0.000131894
2 *4444:B 1.99761e-05
3 *4445:A1 8.7839e-05
4 *4443:B 0
5 *4440:X 0.000346725
6 *400:23 0.00026512
7 *400:10 0.000317358
8 *400:6 0.000638673
9 *4441:A *401:10 6.97118e-05
10 *4444:B *4445:A2 4.87171e-06
11 *4445:A1 *4445:A2 8.7477e-06
12 *400:10 *402:27 5.4003e-05
13 *400:10 *403:12 7.89767e-05
14 *400:10 *849:16 1.95374e-05
15 *400:23 *402:27 0.000252275
16 *4440:A2 *400:6 4.99619e-05
17 *4440:C1 *400:6 0.000124895
18 *4442:A1 *400:10 0
19 *4443:A *400:10 0
20 *4443:A *400:23 0
21 *4444:A *4445:A1 4.37141e-05
22 *4444:A *400:23 6.69684e-06
23 *333:32 *4445:A1 2.65814e-06
*RES
1 *4440:X *400:6 7.225 
2 *400:6 *400:10 4.91 
3 *400:10 *4443:B 3.6 
4 *400:10 *400:23 5.36 
5 *400:23 *4445:A1 2.74 
6 *400:23 *4444:B 1.96 
7 *400:6 *4441:A 3.79 
*END

*D_NET *401 0.00192165
*CONN
*I *4493:A1 I *D sky130_fd_sc_hd__o211a_1
*I *4494:B1 I *D sky130_fd_sc_hd__a211o_1
*I *4441:Y O *D sky130_fd_sc_hd__inv_2
*CAP
1 *4493:A1 0.000125274
2 *4494:B1 4.50439e-05
3 *4441:Y 0.000156411
4 *401:10 0.000326729
5 *4493:A1 *4493:A2 7.7888e-05
6 *4493:A1 *4493:C1 0.000239813
7 *4493:A1 *772:6 0.000207887
8 *4493:A1 *772:118 6.90876e-05
9 *4494:B1 *4494:C1 0.000118513
10 *4494:B1 *403:12 7.70828e-05
11 *4494:B1 *849:16 0.000185398
12 *401:10 *403:12 0.000108322
13 *401:10 *849:16 0.000114492
14 *4441:A *401:10 6.97118e-05
*RES
1 *4441:Y *401:10 6.465 
2 *401:10 *4494:B1 5.745 
3 *401:10 *4493:A1 8.205 
*END

*D_NET *402 0.00169621
*CONN
*I *4445:A2 I *D sky130_fd_sc_hd__a21o_1
*I *4444:C I *D sky130_fd_sc_hd__nand3_1
*I *4443:C I *D sky130_fd_sc_hd__and3_1
*I *4442:Y O *D sky130_fd_sc_hd__o211ai_2
*CAP
1 *4445:A2 0.000163842
2 *4444:C 0
3 *4443:C 4.39419e-05
4 *4442:Y 0.000224866
5 *402:27 0.000283652
6 *402:8 0.000388618
7 *4445:A2 *849:16 1.22505e-05
8 *402:27 *849:16 0.00018116
9 *4443:A *4445:A2 2.10433e-05
10 *4443:A *402:8 5.05521e-05
11 *4443:A *402:27 0
12 *4444:A *4445:A2 5.53062e-06
13 *4444:B *4445:A2 4.87171e-06
14 *4445:A1 *4445:A2 8.7477e-06
15 *333:32 *4445:A2 8.58302e-07
16 *400:10 *402:27 5.4003e-05
17 *400:23 *402:27 0.000252275
*RES
1 *4442:Y *402:8 5.17 
2 *402:8 *4443:C 2.575 
3 *402:8 *402:27 6.125 
4 *402:27 *4444:C 3.6 
5 *402:27 *4445:A2 5.94375 
*END

*D_NET *403 0.00198958
*CONN
*I *4493:A2 I *D sky130_fd_sc_hd__o211a_1
*I *4494:C1 I *D sky130_fd_sc_hd__a211o_1
*I *4443:X O *D sky130_fd_sc_hd__and3_1
*CAP
1 *4493:A2 0.000379033
2 *4494:C1 5.93895e-05
3 *4443:X 0.000171459
4 *403:12 0.000609881
5 *4493:A2 *4493:C1 0.000138808
6 *4493:A2 *772:6 3.1562e-06
7 *403:12 *849:16 0.000167073
8 *4493:A1 *4493:A2 7.7888e-05
9 *4494:B1 *4494:C1 0.000118513
10 *4494:B1 *403:12 7.70828e-05
11 *397:10 *403:12 0
12 *400:10 *403:12 7.89767e-05
13 *401:10 *403:12 0.000108322
*RES
1 *4443:X *403:12 8.34 
2 *403:12 *4494:C1 4.98 
3 *403:12 *4493:A2 8.46 
*END

*D_NET *404 0.000941713
*CONN
*I *4447:A1 I *D sky130_fd_sc_hd__a21o_1
*I *4446:B I *D sky130_fd_sc_hd__nand3_1
*I *4444:Y O *D sky130_fd_sc_hd__nand3_1
*CAP
1 *4447:A1 9.20931e-05
2 *4446:B 0
3 *4444:Y 0.000217573
4 *404:12 0.000309666
5 *4447:A1 *4446:C 1.57478e-05
6 *404:12 *4447:A2 4.13171e-05
7 *404:12 *405:8 3.86529e-05
8 *404:12 *849:16 0
9 *4444:A *404:12 8.65961e-05
10 *4446:A *4447:A1 5.34756e-05
11 *333:32 *404:12 8.65905e-05
*RES
1 *4444:Y *404:12 8.72 
2 *404:12 *4446:B 1.6 
3 *404:12 *4447:A1 3.46 
*END

*D_NET *405 0.000688816
*CONN
*I *4447:A2 I *D sky130_fd_sc_hd__a21o_1
*I *4446:C I *D sky130_fd_sc_hd__nand3_1
*I *4445:X O *D sky130_fd_sc_hd__a21o_1
*CAP
1 *4447:A2 4.7781e-05
2 *4446:C 0.000168786
3 *4445:X 4.61086e-05
4 *405:8 0.000262676
5 *4446:A *4446:C 6.77468e-05
6 *4447:A1 *4446:C 1.57478e-05
7 *404:12 *4447:A2 4.13171e-05
8 *404:12 *405:8 3.86529e-05
*RES
1 *4445:X *405:8 4.47 
2 *405:8 *4446:C 5.955 
3 *405:8 *4447:A2 4.47 
*END

*D_NET *406 0.00150893
*CONN
*I *4449:A1 I *D sky130_fd_sc_hd__a21o_1
*I *4448:B I *D sky130_fd_sc_hd__nand3_1
*I *4457:B1_N I *D sky130_fd_sc_hd__a21bo_1
*I *4446:Y O *D sky130_fd_sc_hd__nand3_1
*CAP
1 *4449:A1 0
2 *4448:B 0.000138992
3 *4457:B1_N 3.58276e-05
4 *4446:Y 0.000377516
5 *406:25 0.000174426
6 *406:12 0.000448778
7 *4448:B *4448:C 2.75145e-05
8 *4448:B *772:38 4.43591e-05
9 *4457:B1_N *4457:A2 5.83121e-06
10 *406:12 *4457:A2 6.07412e-05
11 *406:12 *407:8 0
12 *406:12 *407:14 0
13 *406:12 *416:10 2.65814e-06
14 *406:12 *849:16 0
15 *406:25 *407:14 9.37731e-05
16 *4457:A1 *406:12 4.82919e-05
17 *4457:A1 *406:25 5.02217e-05
*RES
1 *4446:Y *406:12 11.705 
2 *406:12 *4457:B1_N 2.05 
3 *406:12 *406:25 5.125 
4 *406:25 *4448:B 3.445 
5 *406:25 *4449:A1 1.6 
*END

*D_NET *407 0.00115154
*CONN
*I *4457:A2 I *D sky130_fd_sc_hd__a21bo_1
*I *4449:A2 I *D sky130_fd_sc_hd__a21o_1
*I *4448:C I *D sky130_fd_sc_hd__nand3_1
*I *4447:X O *D sky130_fd_sc_hd__a21o_1
*CAP
1 *4457:A2 6.82321e-05
2 *4449:A2 0
3 *4448:C 1.17533e-05
4 *4447:X 0.000206038
5 *407:14 0.000145102
6 *407:8 0.000407618
7 *4448:C *772:38 4.82863e-05
8 *4448:A *407:14 0
9 *4448:B *4448:C 2.75145e-05
10 *4457:A1 *4457:A2 4.99619e-05
11 *4457:A1 *407:14 2.66852e-05
12 *4457:B1_N *4457:A2 5.83121e-06
13 *406:12 *4457:A2 6.07412e-05
14 *406:12 *407:8 0
15 *406:12 *407:14 0
16 *406:25 *407:14 9.37731e-05
*RES
1 *4447:X *407:8 7.02 
2 *407:8 *407:14 4.595 
3 *407:14 *4448:C 2.05 
4 *407:14 *4449:A2 1.6 
5 *407:8 *4457:A2 5.085 
*END

*D_NET *408 0.00118705
*CONN
*I *4450:B I *D sky130_fd_sc_hd__and3_1
*I *4451:A1 I *D sky130_fd_sc_hd__a21oi_1
*I *4448:Y O *D sky130_fd_sc_hd__nand3_1
*CAP
1 *4450:B 0
2 *4451:A1 9.11926e-05
3 *4448:Y 0.000257705
4 *408:6 0.000348897
5 *4451:A1 *4450:A 1.33293e-05
6 *4451:A1 *4450:C 0
7 *4451:A1 *4451:A2 2.30292e-05
8 *4451:A1 *410:10 0.00013987
9 *4451:A1 *772:38 8.65905e-05
10 *408:6 *772:38 0.000226431
*RES
1 *4448:Y *408:6 5.155 
2 *408:6 *4451:A1 4.06 
3 *408:6 *4450:B 1.6 
*END

*D_NET *409 0.000521202
*CONN
*I *4451:A2 I *D sky130_fd_sc_hd__a21oi_1
*I *4450:C I *D sky130_fd_sc_hd__and3_1
*I *4449:X O *D sky130_fd_sc_hd__a21o_1
*CAP
1 *4451:A2 1.71535e-05
2 *4450:C 2.06999e-05
3 *4449:X 2.43556e-05
4 *409:6 6.2209e-05
5 *4450:C *4450:A 2.78536e-05
6 *4451:A2 *4450:A 6.50826e-05
7 *4451:A2 *772:38 8.8266e-05
8 *409:6 *4450:A 6.59822e-05
9 *409:6 *772:38 0.00012657
10 *4451:A1 *4450:C 0
11 *4451:A1 *4451:A2 2.30292e-05
*RES
1 *4449:X *409:6 2.74 
2 *409:6 *4450:C 2.125 
3 *409:6 *4451:A2 2.74 
*END

*D_NET *410 0.00253823
*CONN
*I *4454:A1 I *D sky130_fd_sc_hd__o21ai_1
*I *4500:B1_N I *D sky130_fd_sc_hd__o21bai_2
*I *4453:A I *D sky130_fd_sc_hd__or3_1
*I *4450:X O *D sky130_fd_sc_hd__and3_1
*CAP
1 *4454:A1 0
2 *4500:B1_N 4.55863e-05
3 *4453:A 0
4 *4450:X 0.000179382
5 *410:26 0.000483768
6 *410:10 0.000617564
7 *4500:B1_N *4453:C 8.7302e-05
8 *4500:B1_N *412:37 0
9 *4500:B1_N *459:20 0.000183943
10 *410:10 *4450:A 2.65506e-05
11 *410:10 *411:6 4.60584e-05
12 *410:10 *412:28 0.000121437
13 *410:10 *826:27 0.00016063
14 *410:26 *4450:A 0
15 *410:26 *4453:C 0.000297378
16 *410:26 *412:28 6.52265e-05
17 *410:26 *412:37 5.58587e-05
18 *410:26 *459:20 2.76781e-05
19 *4451:A1 *410:10 0.00013987
*RES
1 *4450:X *410:10 5.785 
2 *410:10 *410:26 7.725 
3 *410:26 *4453:A 1.6 
4 *410:26 *4500:B1_N 4.36 
5 *410:10 *4454:A1 1.6 
*END

*D_NET *411 0.00159522
*CONN
*I *4453:B I *D sky130_fd_sc_hd__or3_1
*I *4500:A1 I *D sky130_fd_sc_hd__o21bai_2
*I *4454:A2 I *D sky130_fd_sc_hd__o21ai_1
*I *4451:Y O *D sky130_fd_sc_hd__a21oi_1
*CAP
1 *4453:B 0.000237496
2 *4500:A1 3.14664e-05
3 *4454:A2 0
4 *4451:Y 0.000126747
5 *411:17 0.000362397
6 *411:6 0.000220182
7 *4453:B *4453:C 4.7672e-05
8 *4453:B *412:37 4.21973e-05
9 *4453:B *459:20 0.00012657
10 *4500:A1 *4455:A2 5.53249e-06
11 *4500:A1 *4940:A 2.46007e-05
12 *4500:A1 *772:16 6.00217e-05
13 *411:6 *412:28 0.00015639
14 *411:17 *412:28 7.57202e-05
15 *411:17 *412:37 3.21634e-05
16 *411:17 *459:20 0
17 *410:10 *411:6 4.60584e-05
*RES
1 *4451:Y *411:6 3.775 
2 *411:6 *4454:A2 1.6 
3 *411:6 *411:17 1.605 
4 *411:17 *4500:A1 6.47 
5 *411:17 *4453:B 4.81 
*END

*D_NET *412 0.00546185
*CONN
*I *4500:A2 I *D sky130_fd_sc_hd__o21bai_2
*I *4453:C I *D sky130_fd_sc_hd__or3_1
*I *4454:B1 I *D sky130_fd_sc_hd__o21ai_1
*I *4452:Y O *D sky130_fd_sc_hd__a21oi_2
*CAP
1 *4500:A2 0
2 *4453:C 7.07527e-05
3 *4454:B1 0
4 *4452:Y 0.00188352
5 *412:37 0.000117488
6 *412:28 0.00193026
7 *4453:C *459:20 1.61831e-05
8 *412:28 *772:38 0
9 *412:28 *849:16 0.000137578
10 *412:37 *459:20 0
11 *4402:A1 *412:28 0
12 *4453:B *4453:C 4.7672e-05
13 *4453:B *412:37 4.21973e-05
14 *4500:B1_N *4453:C 8.7302e-05
15 *4500:B1_N *412:37 0
16 *364:10 *412:28 0
17 *372:6 *412:28 4.82863e-05
18 *372:23 *412:28 0.000276441
19 *410:10 *412:28 0.000121437
20 *410:26 *4453:C 0.000297378
21 *410:26 *412:28 6.52265e-05
22 *410:26 *412:37 5.58587e-05
23 *411:6 *412:28 0.00015639
24 *411:17 *412:28 7.57202e-05
25 *411:17 *412:37 3.21634e-05
*RES
1 *4452:Y *412:28 40.945 
2 *412:28 *4454:B1 1.6 
3 *412:28 *412:37 1.5 
4 *412:37 *4453:C 4.84 
5 *412:37 *4500:A2 1.6 
*END

*D_NET *413 0.00075754
*CONN
*I *4455:A1 I *D sky130_fd_sc_hd__a21bo_1
*I *4453:X O *D sky130_fd_sc_hd__or3_1
*CAP
1 *4455:A1 0.000311594
2 *4453:X 0.000311594
3 *4455:A1 *4502:S 7.69787e-05
4 *4455:A1 *4503:A 0
5 *4455:A1 *832:29 5.73739e-05
*RES
1 *4453:X *4455:A1 12.495 
*END

*D_NET *414 0.000460544
*CONN
*I *4455:A2 I *D sky130_fd_sc_hd__a21bo_1
*I *4454:Y O *D sky130_fd_sc_hd__o21ai_1
*CAP
1 *4455:A2 0.000143526
2 *4454:Y 0.000143526
3 *4455:A2 *4940:A 0.000120186
4 *4455:A2 *772:16 4.28483e-05
5 *4455:A2 *832:29 4.9253e-06
6 *4500:A1 *4455:A2 5.53249e-06
*RES
1 *4454:Y *4455:A2 10.065 
*END

*D_NET *415 0.00144753
*CONN
*I *4456:C1 I *D sky130_fd_sc_hd__o211a_1
*I *4455:X O *D sky130_fd_sc_hd__a21bo_1
*CAP
1 *4456:C1 0.000337663
2 *4455:X 0.000337663
3 *4456:C1 *4456:A1 8.65905e-05
4 *4456:C1 *4456:A2 4.99619e-05
5 *4456:C1 *4940:A 0.000123798
6 *4456:C1 *772:16 9.54399e-05
7 *4456:C1 *826:12 8.65961e-05
8 *4456:C1 *826:27 4.82863e-05
9 *4456:C1 *832:29 3.76596e-05
10 *4456:C1 *832:61 8.34505e-05
11 *4456:C1 *845:26 0.000160418
*RES
1 *4455:X *4456:C1 15.465 
*END

*D_NET *416 0.00675218
*CONN
*I *4496:A I *D sky130_fd_sc_hd__xor2_1
*I *4537:A1 I *D sky130_fd_sc_hd__a21o_1
*I *4580:A1 I *D sky130_fd_sc_hd__a21o_1
*I *4649:A2 I *D sky130_fd_sc_hd__a211o_1
*I *4457:X O *D sky130_fd_sc_hd__a21bo_1
*CAP
1 *4496:A 0
2 *4537:A1 0
3 *4580:A1 0.000173078
4 *4649:A2 1.31277e-05
5 *4457:X 0.000893828
6 *416:24 0.000863478
7 *416:16 0.00105812
8 *416:10 0.00127468
9 *4580:A1 *4580:A2 0.000172739
10 *4580:A1 *4580:B1 1.61831e-05
11 *4580:A1 *536:6 1.12578e-05
12 *4649:A2 *4580:A2 3.26889e-05
13 *416:10 *4496:B 3.25831e-05
14 *416:10 *772:16 0.000277796
15 *416:16 *4496:B 0.00057009
16 *416:16 *4537:A2 7.35813e-05
17 *416:16 *772:16 0.000269119
18 *416:24 *4495:B 0.000130072
19 *416:24 *4496:B 0
20 *416:24 *4537:B1 0.000125626
21 *416:24 *4578:D 9.05377e-05
22 *416:24 *4579:A1 0.000151772
23 *416:24 *450:36 0
24 *416:24 *452:17 0.000186407
25 *416:24 *454:10 0
26 *416:24 *493:23 9.54469e-05
27 *416:24 *536:6 0.000237301
28 *406:12 *416:10 2.65814e-06
*RES
1 *4457:X *416:10 16.32 
2 *416:10 *416:16 10.67 
3 *416:16 *416:24 18.835 
4 *416:24 *4649:A2 1.96 
5 *416:24 *4580:A1 4.135 
6 *416:16 *4537:A1 1.6 
7 *416:10 *4496:A 3.6 
*END

*D_NET *417 0.00107706
*CONN
*I *4465:A_N I *D sky130_fd_sc_hd__nand2b_1
*I *4466:A I *D sky130_fd_sc_hd__xnor2_1
*I *4458:Y O *D sky130_fd_sc_hd__nor2_1
*CAP
1 *4465:A_N 6.0587e-05
2 *4466:A 0
3 *4458:Y 0.000336058
4 *417:8 0.000396645
5 *4465:A_N *4465:B 0.000203178
6 *4465:A_N *425:8 3.00381e-05
7 *417:8 *4465:B 2.0514e-05
8 *4458:B *417:8 3.00381e-05
*RES
1 *4458:Y *417:8 6.55 
2 *417:8 *4466:A 1.6 
3 *417:8 *4465:A_N 3.43 
*END

*D_NET *418 0.00393528
*CONN
*I *4463:B I *D sky130_fd_sc_hd__nand2b_1
*I *4464:A I *D sky130_fd_sc_hd__xnor2_1
*I *4459:Y O *D sky130_fd_sc_hd__o21ai_1
*CAP
1 *4463:B 4.52797e-05
2 *4464:A 7.69585e-05
3 *4459:Y 0.001464
4 *418:14 0.00158624
5 *4463:B *4463:A_N 1.16578e-05
6 *4464:A *4463:A_N 0.000120186
7 *4464:A *423:12 0
8 *418:14 *4463:A_N 4.82919e-05
9 *418:14 *979:61 4.91952e-05
10 *418:14 *979:76 3.58657e-05
11 *418:14 *1000:89 0.000387891
12 *337:8 *418:14 4.82919e-05
13 *375:12 *418:14 3.07153e-05
14 *376:14 *418:14 3.07153e-05
*RES
1 *4459:Y *418:14 23.335 
2 *418:14 *4464:A 7.34 
3 *418:14 *4463:B 2.51875 
*END

*D_NET *419 0.00055036
*CONN
*I *4462:A I *D sky130_fd_sc_hd__or2_1
*I *4460:X O *D sky130_fd_sc_hd__o2bb2a_1
*CAP
1 *4462:A 0.000209331
2 *4460:X 0.000209331
3 *4462:A *421:10 2.77283e-05
4 *4462:A *977:68 0
5 *4462:A *1003:30 8.53113e-06
6 *4418:B1 *4462:A 9.54399e-05
*RES
1 *4460:X *4462:A 10.5 
*END

*D_NET *420 0.00130849
*CONN
*I *4462:B I *D sky130_fd_sc_hd__or2_1
*I *4511:A I *D sky130_fd_sc_hd__xor2_1
*I *4546:A1 I *D sky130_fd_sc_hd__a21oi_1
*I *4461:X O *D sky130_fd_sc_hd__and4b_1
*CAP
1 *4462:B 0.000127494
2 *4511:A 0
3 *4546:A1 7.57117e-05
4 *4461:X 0
5 *420:8 0.000379869
6 *420:4 0.000431652
7 *4462:B *4417:D 0
8 *4462:B *421:10 2.77183e-05
9 *4462:B *503:12 0
10 *4546:A1 *4511:B 0.000177568
11 *4546:A1 *468:10 9.50342e-06
12 *4546:A1 *503:12 7.89689e-05
*RES
1 *4461:X *420:4 1.6 
2 *420:4 *420:8 4.515 
3 *420:8 *4546:A1 8 
4 *420:8 *4511:A 1.6 
5 *420:4 *4462:B 7.52 
*END

*D_NET *421 0.0014022
*CONN
*I *4463:A_N I *D sky130_fd_sc_hd__nand2b_1
*I *4464:B I *D sky130_fd_sc_hd__xnor2_1
*I *4462:X O *D sky130_fd_sc_hd__or2_1
*CAP
1 *4463:A_N 0.000146939
2 *4464:B 0
3 *4462:X 0.00043637
4 *421:10 0.000583309
5 *4463:A_N *423:12 0
6 *4462:A *421:10 2.77283e-05
7 *4462:B *421:10 2.77183e-05
8 *4463:B *4463:A_N 1.16578e-05
9 *4464:A *4463:A_N 0.000120186
10 *418:14 *4463:A_N 4.82919e-05
*RES
1 *4462:X *421:10 8.88 
2 *421:10 *4464:B 3.6 
3 *421:10 *4463:A_N 6.195 
*END

*D_NET *422 0.00354072
*CONN
*I *4533:B1 I *D sky130_fd_sc_hd__o211a_1
*I *4532:A1 I *D sky130_fd_sc_hd__a211oi_2
*I *4463:Y O *D sky130_fd_sc_hd__nand2b_1
*CAP
1 *4533:B1 0
2 *4532:A1 0.000114075
3 *4463:Y 0.00136816
4 *422:8 0.00148224
5 *4532:A1 *4532:C1 8.08153e-06
6 *4532:A1 *4533:A1 3.05295e-05
7 *4532:A1 *4533:C1 0.000103192
8 *4532:A1 *488:23 7.4538e-05
9 *422:8 *4486:B 0.000237243
10 *422:8 *4530:A1 4.47209e-05
11 *422:8 *4530:B1 3.001e-05
12 *422:8 *4533:A2 9.53428e-06
13 *422:8 *488:8 3.83995e-05
14 *11:9 *4532:A1 0
*RES
1 *4463:Y *422:8 17.5 
2 *422:8 *4532:A1 8.45 
3 *422:8 *4533:B1 1.6 
*END

*D_NET *423 0.00122204
*CONN
*I *4465:B I *D sky130_fd_sc_hd__nand2b_1
*I *4466:B I *D sky130_fd_sc_hd__xnor2_1
*I *4464:Y O *D sky130_fd_sc_hd__xnor2_1
*CAP
1 *4465:B 0.000131823
2 *4466:B 0
3 *4464:Y 0.000329404
4 *423:12 0.000461227
5 *4465:B *425:8 1.8517e-05
6 *423:12 *442:6 5.73739e-05
7 *4463:A_N *423:12 0
8 *4464:A *423:12 0
9 *4465:A_N *4465:B 0.000203178
10 *417:8 *4465:B 2.0514e-05
*RES
1 *4464:Y *423:12 10.505 
2 *423:12 *4466:B 1.6 
3 *423:12 *4465:B 4.58875 
*END

*D_NET *424 0.00194448
*CONN
*I *4532:A2 I *D sky130_fd_sc_hd__a211oi_2
*I *4533:C1 I *D sky130_fd_sc_hd__o211a_1
*I *4465:Y O *D sky130_fd_sc_hd__nand2b_1
*CAP
1 *4532:A2 0
2 *4533:C1 6.24983e-05
3 *4465:Y 0.000546158
4 *424:10 0.000608656
5 *4533:C1 *4530:B1 3.09164e-05
6 *424:10 *4485:C 8.34281e-06
7 *424:10 *4486:A 4.9763e-06
8 *424:10 *4487:A2 0.00017947
9 *424:10 *4487:B1 8.33419e-05
10 *424:10 *425:8 7.99757e-05
11 *424:10 *425:12 5.05437e-05
12 *424:10 *443:23 0.000123225
13 *4532:A1 *4533:C1 0.000103192
14 *11:9 *4533:C1 6.31804e-05
*RES
1 *4465:Y *424:10 11.83 
2 *424:10 *4533:C1 7.745 
3 *424:10 *4532:A2 1.6 
*END

*D_NET *425 0.0015547
*CONN
*I *4485:A I *D sky130_fd_sc_hd__and3_1
*I *4487:B1 I *D sky130_fd_sc_hd__a21oi_1
*I *4486:A I *D sky130_fd_sc_hd__nand3_1
*I *4466:Y O *D sky130_fd_sc_hd__xnor2_1
*CAP
1 *4485:A 0
2 *4487:B1 2.45175e-05
3 *4486:A 0.000136571
4 *4466:Y 0.000322909
5 *425:12 0.000214764
6 *425:8 0.000376585
7 *4486:A *4487:A2 0
8 *4486:A *4531:C1 3.09164e-05
9 *4486:A *442:41 0
10 *4486:A *443:23 5.71917e-05
11 *4486:A *446:8 1.22762e-05
12 *4487:B1 *4485:C 0.000111571
13 *425:8 *4485:C 0
14 *425:12 *4485:C 0
15 *4465:A_N *425:8 3.00381e-05
16 *4465:B *425:8 1.8517e-05
17 *424:10 *4486:A 4.9763e-06
18 *424:10 *4487:B1 8.33419e-05
19 *424:10 *425:8 7.99757e-05
20 *424:10 *425:12 5.05437e-05
*RES
1 *4466:Y *425:8 5.86 
2 *425:8 *425:12 1.155 
3 *425:12 *4486:A 8.105 
4 *425:12 *4487:B1 2.74 
5 *425:8 *4485:A 1.6 
*END

*D_NET *426 0.000334672
*CONN
*I *4471:A I *D sky130_fd_sc_hd__xnor2_2
*I *4467:Y O *D sky130_fd_sc_hd__nand2_1
*CAP
1 *4471:A 0.000114122
2 *4467:Y 0.000114122
3 *4471:A *4467:A 3.00381e-05
4 *4471:A *430:12 1.16578e-05
5 *4471:A *463:16 6.47326e-05
*RES
1 *4467:Y *4471:A 5.39 
*END

*D_NET *427 0.00141495
*CONN
*I *4470:A_N I *D sky130_fd_sc_hd__and2b_1
*I *4505:B1 I *D sky130_fd_sc_hd__a31o_1
*I *4468:X O *D sky130_fd_sc_hd__and4_1
*CAP
1 *4470:A_N 0.000104936
2 *4505:B1 8.30361e-05
3 *4468:X 0.000122815
4 *427:12 0.000310788
5 *4470:A_N *4470:B 0.000198945
6 *4470:A_N *4505:A1 0.000130453
7 *4470:A_N *979:61 7.35813e-05
8 *4505:B1 *4470:B 4.66108e-05
9 *4505:B1 *4505:A1 6.58339e-05
10 *427:12 *4470:B 3.09164e-05
11 *427:12 *4987:A 8.40269e-05
12 *427:12 *428:10 0.000113797
13 *427:12 *984:59 4.92096e-05
*RES
1 *4468:X *427:12 8.03 
2 *427:12 *4505:B1 3.085 
3 *427:12 *4470:A_N 4.81 
*END

*D_NET *428 0.00180551
*CONN
*I *4470:B I *D sky130_fd_sc_hd__and2b_1
*I *4505:A3 I *D sky130_fd_sc_hd__a31o_1
*I *4469:X O *D sky130_fd_sc_hd__a22o_1
*CAP
1 *4470:B 0.000138737
2 *4505:A3 0
3 *4469:X 0.000190141
4 *428:10 0.000328878
5 *4470:B *1000:89 4.38051e-05
6 *428:10 *478:12 0.000192125
7 *428:10 *984:59 0.000193806
8 *428:10 *1000:43 0.000266605
9 *428:10 *1000:76 5.16418e-05
10 *428:10 *1000:89 9.50342e-06
11 *4470:A_N *4470:B 0.000198945
12 *4505:B1 *4470:B 4.66108e-05
13 *427:12 *4470:B 3.09164e-05
14 *427:12 *428:10 0.000113797
*RES
1 *4469:X *428:10 9.105 
2 *428:10 *4505:A3 3.6 
3 *428:10 *4470:B 6.39 
*END

*D_NET *429 0.000335278
*CONN
*I *4471:B I *D sky130_fd_sc_hd__xnor2_2
*I *4470:X O *D sky130_fd_sc_hd__and2b_1
*CAP
1 *4471:B 7.53848e-05
2 *4470:X 7.53848e-05
3 *4471:B *430:12 1.83847e-05
4 *4471:B *463:16 4.82919e-05
5 *4471:B *984:59 0.000117832
*RES
1 *4470:X *4471:B 9.03 
*END

*D_NET *430 0.00155798
*CONN
*I *4525:A1 I *D sky130_fd_sc_hd__a21bo_1
*I *4480:A I *D sky130_fd_sc_hd__nand3_2
*I *4481:B1 I *D sky130_fd_sc_hd__a21o_1
*I *4471:Y O *D sky130_fd_sc_hd__xnor2_2
*CAP
1 *4525:A1 0
2 *4480:A 0
3 *4481:B1 2.97592e-05
4 *4471:Y 0.00035786
5 *430:20 0.00021227
6 *430:12 0.00054037
7 *4481:B1 *4480:B 0.000122331
8 *4481:B1 *438:18 6.97118e-05
9 *430:12 *463:16 6.67382e-05
10 *430:12 *979:61 0
11 *430:12 *984:59 0
12 *430:20 *4525:A2 0
13 *430:20 *439:10 1.22676e-05
14 *430:20 *984:59 0.000116629
15 *4471:A *430:12 1.16578e-05
16 *4471:B *430:12 1.83847e-05
*RES
1 *4471:Y *430:12 10.19 
2 *430:12 *430:20 7.54 
3 *430:20 *4481:B1 2.74 
4 *430:20 *4480:A 1.6 
5 *430:12 *4525:A1 1.6 
*END

*D_NET *431 0.00249613
*CONN
*I *4476:B I *D sky130_fd_sc_hd__or4bb_4
*I *4475:A1_N I *D sky130_fd_sc_hd__a2bb2o_1
*I *4517:A I *D sky130_fd_sc_hd__or3b_1
*I *5105:A I *D sky130_fd_sc_hd__dlymetal6s4s_1
*I *5104:A I *D sky130_fd_sc_hd__dlygate4sd1_1
*I *4472:X O *D sky130_fd_sc_hd__and3_4
*CAP
1 *4476:B 6.96972e-05
2 *4475:A1_N 2.08101e-05
3 *4517:A 0
4 *5105:A 0
5 *5104:A 2.03181e-05
6 *4472:X 0
7 *431:37 0.000280202
8 *431:12 8.80416e-05
9 *431:8 0.000164267
10 *431:6 0.000286238
11 *4476:B *4476:A 0.00018352
12 *4476:B *4476:D_N 1.34503e-05
13 *4476:B *985:61 0.000337934
14 *5104:A *4518:A2_N 4.99619e-05
15 *431:8 *4473:B1 5.4003e-05
16 *431:8 *432:8 6.63492e-05
17 *431:8 *993:34 0
18 *431:12 *4518:A2_N 6.74079e-05
19 *431:12 *4522:A2 0.000118527
20 *431:12 *5106:A 0
21 *431:12 *432:8 4.31921e-05
22 *431:12 *993:34 0
23 *431:37 *4473:B1 0.000133763
24 *431:37 *4476:A 2.30292e-05
25 *431:37 *4476:D_N 9.27255e-06
26 *431:37 *432:42 5.30673e-05
27 *431:37 *985:51 0.000199833
28 *431:37 *985:61 0.000201508
29 *431:37 *995:110 1.17409e-05
*RES
1 *4472:X *431:6 3.6 
2 *431:6 *431:8 2.145 
3 *431:8 *431:12 4.145 
4 *431:12 *5104:A 2.05 
5 *431:12 *5105:A 1.6 
6 *431:8 *4517:A 3.6 
7 *431:6 *431:37 7.19 
8 *431:37 *4475:A1_N 1.96 
9 *431:37 *4476:B 4.81 
*END

*D_NET *432 0.00371052
*CONN
*I *4476:A I *D sky130_fd_sc_hd__or4bb_4
*I *4475:A2_N I *D sky130_fd_sc_hd__a2bb2o_1
*I *4517:B I *D sky130_fd_sc_hd__or3b_1
*I *4518:A2_N I *D sky130_fd_sc_hd__a2bb2o_1
*I *4473:Y O *D sky130_fd_sc_hd__o21ai_2
*CAP
1 *4476:A 8.71308e-05
2 *4475:A2_N 0
3 *4517:B 0
4 *4518:A2_N 0.000294652
5 *4473:Y 0
6 *432:42 0.000256439
7 *432:8 0.000448487
8 *432:4 0.000323143
9 *4476:A *4476:D_N 0.000320718
10 *4518:A2_N *4518:A1_N 0.000238919
11 *4518:A2_N *4518:B2 0.000199833
12 *4518:A2_N *4522:A2 8.09021e-06
13 *4518:A2_N *5106:A 1.61831e-05
14 *4518:A2_N *985:38 7.26551e-05
15 *4518:A2_N *995:40 8.53113e-06
16 *432:8 *4473:B1 0.000231571
17 *432:8 *985:38 3.95347e-05
18 *432:8 *985:51 0.000189291
19 *432:8 *993:53 0
20 *432:42 *4473:B1 0
21 *432:42 *4476:D_N 5.30673e-05
22 *432:42 *985:51 0.000159305
23 *432:42 *995:110 0.000276441
24 *432:42 *999:29 0
25 *4476:B *4476:A 0.00018352
26 *5104:A *4518:A2_N 4.99619e-05
27 *431:8 *432:8 6.63492e-05
28 *431:12 *4518:A2_N 6.74079e-05
29 *431:12 *432:8 4.31921e-05
30 *431:37 *4476:A 2.30292e-05
31 *431:37 *432:42 5.30673e-05
*RES
1 *4473:Y *432:4 1.6 
2 *432:4 *432:8 7.205 
3 *432:8 *4518:A2_N 10.515 
4 *432:8 *4517:B 3.6 
5 *432:4 *432:42 8.68 
6 *432:42 *4475:A2_N 1.6 
7 *432:42 *4476:A 5.17 
*END

*D_NET *433 0.00132807
*CONN
*I *4519:A3 I *D sky130_fd_sc_hd__a31o_1
*I *4554:B1 I *D sky130_fd_sc_hd__a21oi_2
*I *4474:X O *D sky130_fd_sc_hd__o21a_1
*CAP
1 *4519:A3 9.73191e-06
2 *4554:B1 0.000278387
3 *4474:X 0.00016257
4 *433:8 0.00045069
5 *4519:A3 *4519:B1 4.82863e-05
6 *4519:A3 *995:40 4.82863e-05
7 *4554:B1 *4169:A 0
8 *4554:B1 *4192:B2 0
9 *4554:B1 *4522:B1 0.000120186
10 *4554:B1 *4554:A1 0
11 *4554:B1 *979:36 4.82919e-05
12 *4554:B1 *995:48 5.53249e-06
13 *433:8 *985:38 0
14 *433:8 *985:51 0
15 *433:8 *995:48 0.000156106
*RES
1 *4474:X *433:8 7.02 
2 *433:8 *4554:B1 8.235 
3 *433:8 *4519:A3 4.05 
*END

*D_NET *434 0.000929887
*CONN
*I *4478:A I *D sky130_fd_sc_hd__nand3_1
*I *4479:A2 I *D sky130_fd_sc_hd__a21o_1
*I *4475:X O *D sky130_fd_sc_hd__a2bb2o_1
*CAP
1 *4478:A 0.000185348
2 *4479:A2 0
3 *4475:X 6.24356e-05
4 *434:10 0.000247784
5 *4478:A *4478:B 2.8185e-05
6 *4478:A *4478:C 0.000124007
7 *4478:A *4479:A1 1.34594e-05
8 *4478:A *436:14 4.82919e-05
9 *4478:A *437:6 4.9253e-06
10 *4478:A *438:10 9.52646e-05
11 *434:10 *999:29 0.000120186
*RES
1 *4475:X *434:10 6.98 
2 *434:10 *4479:A2 1.6 
3 *434:10 *4478:A 5.53 
*END

*D_NET *435 0.000759875
*CONN
*I *4478:B I *D sky130_fd_sc_hd__nand3_1
*I *4479:A1 I *D sky130_fd_sc_hd__a21o_1
*I *4476:X O *D sky130_fd_sc_hd__or4bb_4
*CAP
1 *4478:B 0.000161782
2 *4479:A1 6.54487e-05
3 *4476:X 2.77685e-05
4 *435:10 0.000254999
5 *4478:B *4478:C 6.38806e-05
6 *4478:B *436:14 5.83121e-06
7 *4479:A1 *436:14 2.75145e-05
8 *435:10 *997:27 7.23533e-05
9 *435:10 *999:29 3.86529e-05
10 *4478:A *4478:B 2.8185e-05
11 *4478:A *4479:A1 1.34594e-05
*RES
1 *4476:X *435:10 6.47 
2 *435:10 *4479:A1 2.395 
3 *435:10 *4478:B 3.79 
*END

*D_NET *436 0.00303229
*CONN
*I *4478:C I *D sky130_fd_sc_hd__nand3_1
*I *4479:B1 I *D sky130_fd_sc_hd__a21o_1
*I *4477:Y O *D sky130_fd_sc_hd__o21bai_1
*CAP
1 *4478:C 2.55406e-05
2 *4479:B1 0
3 *4477:Y 0.000695926
4 *436:14 0.000721466
5 *436:14 *4422:C 1.88904e-05
6 *436:14 *4422:D 1.08758e-05
7 *436:14 *4990:A 0.000804115
8 *436:14 *997:27 0.000166792
9 *436:14 *999:29 0.00031916
10 *4478:A *4478:C 0.000124007
11 *4478:A *436:14 4.82919e-05
12 *4478:B *4478:C 6.38806e-05
13 *4478:B *436:14 5.83121e-06
14 *4479:A1 *436:14 2.75145e-05
*RES
1 *4477:Y *436:14 17.765 
2 *436:14 *4479:B1 1.6 
3 *436:14 *4478:C 2.74 
*END

*D_NET *437 0.00260939
*CONN
*I *4525:B1_N I *D sky130_fd_sc_hd__a21bo_1
*I *4480:B I *D sky130_fd_sc_hd__nand3_2
*I *4481:A2 I *D sky130_fd_sc_hd__a21o_1
*I *4478:Y O *D sky130_fd_sc_hd__nand3_1
*CAP
1 *4525:B1_N 0.000164936
2 *4480:B 0.000209932
3 *4481:A2 0
4 *4478:Y 0.000511991
5 *437:12 0.000296186
6 *437:6 0.000763181
7 *4480:B *438:18 6.59759e-05
8 *4525:B1_N *438:10 5.36384e-06
9 *437:6 *438:10 6.83267e-05
10 *437:12 *4481:A1 4.61595e-05
11 *437:12 *438:10 9.54399e-05
12 *437:12 *984:59 0
13 *437:12 *1000:89 0.000254644
14 *4478:A *437:6 4.9253e-06
15 *4481:B1 *4480:B 0.000122331
*RES
1 *4478:Y *437:6 7.225 
2 *437:6 *437:12 6.91 
3 *437:12 *4481:A2 1.6 
4 *437:12 *4480:B 5.185 
5 *437:6 *4525:B1_N 3.43 
*END

*D_NET *438 0.00258609
*CONN
*I *4481:A1 I *D sky130_fd_sc_hd__a21o_1
*I *5101:A I *D sky130_fd_sc_hd__buf_2
*I *4480:C I *D sky130_fd_sc_hd__nand3_2
*I *4479:X O *D sky130_fd_sc_hd__a21o_1
*CAP
1 *4481:A1 1.23026e-05
2 *5101:A 5.07782e-05
3 *4480:C 0
4 *4479:X 0.000690057
5 *438:18 0.000301873
6 *438:10 0.000953454
7 *4481:A1 *984:59 2.24423e-05
8 *5101:A *4525:A2 4.85494e-05
9 *438:10 *984:59 3.47837e-05
10 *438:18 *4525:A2 2.56106e-05
11 *4478:A *438:10 9.52646e-05
12 *4480:B *438:18 6.59759e-05
13 *4481:B1 *438:18 6.97118e-05
14 *4525:B1_N *438:10 5.36384e-06
15 *437:6 *438:10 6.83267e-05
16 *437:12 *4481:A1 4.61595e-05
17 *437:12 *438:10 9.54399e-05
*RES
1 *4479:X *438:10 12.075 
2 *438:10 *438:18 6.275 
3 *438:18 *4480:C 1.6 
4 *438:18 *5101:A 2.74 
5 *438:10 *4481:A1 4.215 
*END

*D_NET *439 0.00073998
*CONN
*I *4484:A2 I *D sky130_fd_sc_hd__a21o_1
*I *4483:A I *D sky130_fd_sc_hd__nand3_2
*I *4480:Y O *D sky130_fd_sc_hd__nand3_2
*CAP
1 *4484:A2 9.71884e-06
2 *4483:A 0
3 *4480:Y 0.00030436
4 *439:10 0.000314079
5 *4484:A2 *4483:C 4.82919e-05
6 *4484:A2 *4484:A1 4.82919e-05
7 *439:10 *440:10 0
8 *439:10 *441:10 2.97004e-06
9 *439:10 *979:61 0
10 *439:10 *984:59 0
11 *430:20 *439:10 1.22676e-05
*RES
1 *4480:Y *439:10 10.04 
2 *439:10 *4483:A 1.6 
3 *439:10 *4484:A2 2.05 
*END

*D_NET *440 0.00115614
*CONN
*I *4484:A1 I *D sky130_fd_sc_hd__a21o_1
*I *4483:B I *D sky130_fd_sc_hd__nand3_2
*I *4481:X O *D sky130_fd_sc_hd__a21o_1
*CAP
1 *4484:A1 5.74475e-05
2 *4483:B 0
3 *4481:X 0.000156822
4 *440:10 0.000214269
5 *4484:A1 *4483:C 0.000120819
6 *4484:A1 *781:39 0.000241483
7 *440:10 *984:59 0.000317011
8 *4484:A2 *4484:A1 4.82919e-05
9 *439:10 *440:10 0
*RES
1 *4481:X *440:10 9.275 
2 *440:10 *4483:B 1.6 
3 *440:10 *4484:A1 4.135 
*END

*D_NET *441 0.00148224
*CONN
*I *4484:B1 I *D sky130_fd_sc_hd__a21o_1
*I *4483:C I *D sky130_fd_sc_hd__nand3_2
*I *4482:X O *D sky130_fd_sc_hd__a21bo_1
*CAP
1 *4484:B1 1.00199e-05
2 *4483:C 0.00014132
3 *4482:X 0.000303341
4 *441:10 0.000454681
5 *4483:C *442:6 0.000162311
6 *4483:C *781:39 2.32506e-05
7 *4484:B1 *442:6 2.30292e-05
8 *4484:B1 *781:39 2.75229e-05
9 *441:10 *977:68 0
10 *441:10 *977:83 0
11 *441:10 *984:59 0
12 *441:10 *1008:14 0
13 *4484:A1 *4483:C 0.000120819
14 *4484:A2 *4483:C 4.82919e-05
15 *181:44 *441:10 0.000164686
16 *439:10 *441:10 2.97004e-06
*RES
1 *4482:X *441:10 11.06 
2 *441:10 *4483:C 5.185 
3 *441:10 *4484:B1 2.05 
*END

*D_NET *442 0.00643884
*CONN
*I *4485:C I *D sky130_fd_sc_hd__and3_1
*I *4487:A1 I *D sky130_fd_sc_hd__a21oi_1
*I *4530:A1 I *D sky130_fd_sc_hd__a211oi_4
*I *4486:B I *D sky130_fd_sc_hd__nand3_1
*I *4531:B1 I *D sky130_fd_sc_hd__o211a_1
*I *4483:Y O *D sky130_fd_sc_hd__nand3_2
*CAP
1 *4485:C 0.000172948
2 *4487:A1 0
3 *4530:A1 5.66898e-05
4 *4486:B 6.31312e-05
5 *4531:B1 4.91496e-05
6 *4483:Y 0.000883759
7 *442:41 0.000333362
8 *442:23 0.000119821
9 *442:21 0.000378832
10 *442:6 0.00115133
11 *4485:C *4487:A2 7.20291e-05
12 *4485:C *446:8 1.07797e-05
13 *4486:B *4530:A2 4.47209e-05
14 *4486:B *445:8 2.75145e-05
15 *4531:B1 *4531:A2 5.4155e-06
16 *442:6 *443:10 0.00206045
17 *442:6 *781:39 6.25897e-05
18 *442:6 *977:68 0.000154098
19 *442:21 *4530:C1 0
20 *442:21 *4531:A1 5.83121e-06
21 *442:21 *4531:A2 1.47256e-05
22 *442:21 *4531:C1 0
23 *442:21 *443:10 0
24 *442:21 *487:12 5.23362e-05
25 *442:41 *4487:A2 7.47284e-05
26 *442:41 *4531:C1 0
27 *4483:C *442:6 0.000162311
28 *4484:B1 *442:6 2.30292e-05
29 *4486:A *442:41 0
30 *4487:B1 *4485:C 0.000111571
31 *422:8 *4486:B 0.000237243
32 *422:8 *4530:A1 4.47209e-05
33 *423:12 *442:6 5.73739e-05
34 *424:10 *4485:C 8.34281e-06
35 *425:8 *4485:C 0
36 *425:12 *4485:C 0
*RES
1 *4483:Y *442:6 24.475 
2 *442:6 *4531:B1 2.665 
3 *442:6 *442:21 5.285 
4 *442:21 *442:23 2 
5 *442:23 *4486:B 3.775 
6 *442:23 *4530:A1 2.755 
7 *442:21 *442:41 2.655 
8 *442:41 *4487:A1 3.6 
9 *442:41 *4485:C 6.39 
*END

*D_NET *443 0.00631622
*CONN
*I *4487:A2 I *D sky130_fd_sc_hd__a21oi_1
*I *4485:B I *D sky130_fd_sc_hd__and3_1
*I *4486:C I *D sky130_fd_sc_hd__nand3_1
*I *4484:X O *D sky130_fd_sc_hd__a21o_1
*CAP
1 *4487:A2 0.000191752
2 *4485:B 0
3 *4486:C 0
4 *4484:X 0.00147063
5 *443:23 0.000367753
6 *443:10 0.00164663
7 *4487:A2 *446:8 7.23533e-05
8 *443:10 *4531:C1 0
9 *443:23 *4531:C1 0
10 *4485:C *4487:A2 7.20291e-05
11 *4486:A *4487:A2 0
12 *4486:A *443:23 5.71917e-05
13 *424:10 *4487:A2 0.00017947
14 *424:10 *443:23 0.000123225
15 *442:6 *443:10 0.00206045
16 *442:21 *443:10 0
17 *442:41 *4487:A2 7.47284e-05
*RES
1 *4484:X *443:10 24.735 
2 *443:10 *4486:C 3.6 
3 *443:10 *443:23 5.03 
4 *443:23 *4485:B 1.6 
5 *443:23 *4487:A2 9.365 
*END

*D_NET *444 0.00175752
*CONN
*I *4490:A2 I *D sky130_fd_sc_hd__o211a_1
*I *4489:B1 I *D sky130_fd_sc_hd__a211o_1
*I *4488:B1 I *D sky130_fd_sc_hd__a211oi_1
*I *4485:X O *D sky130_fd_sc_hd__and3_1
*CAP
1 *4490:A2 0.000114494
2 *4489:B1 2.61242e-05
3 *4488:B1 4.59402e-05
4 *4485:X 0.000125208
5 *444:19 0.000213907
6 *444:8 0.000244437
7 *4488:B1 *4488:C1 5.83121e-06
8 *4489:B1 *448:6 4.66108e-05
9 *4490:A2 *4490:A1 9.42224e-05
10 *4490:A2 *446:21 8.53113e-06
11 *444:8 *446:8 0.000249921
12 *444:19 *446:8 5.4003e-05
13 *444:19 *446:21 0.000178255
14 *4488:A2 *444:19 1.26548e-05
15 *4489:A1 *444:19 0.00011852
16 *4490:B1 *4490:A2 3.70572e-05
17 *380:6 *4490:A2 8.49205e-05
18 *398:16 *4490:A2 9.68865e-05
*RES
1 *4485:X *444:8 6.51 
2 *444:8 *4488:B1 4.05 
3 *444:8 *444:19 2.655 
4 *444:19 *4489:B1 4.05 
5 *444:19 *4490:A2 6.9 
*END

*D_NET *445 0.000544074
*CONN
*I *4530:A2 I *D sky130_fd_sc_hd__a211oi_4
*I *4531:C1 I *D sky130_fd_sc_hd__o211a_1
*I *4486:Y O *D sky130_fd_sc_hd__nand3_1
*CAP
1 *4530:A2 3.70735e-05
2 *4531:C1 0.000136392
3 *4486:Y 4.6995e-05
4 *445:8 0.000220461
5 *4486:A *4531:C1 3.09164e-05
6 *4486:B *4530:A2 4.47209e-05
7 *4486:B *445:8 2.75145e-05
8 *442:21 *4531:C1 0
9 *442:41 *4531:C1 0
10 *443:10 *4531:C1 0
11 *443:23 *4531:C1 0
*RES
1 *4486:Y *445:8 2.41 
2 *445:8 *4531:C1 7.745 
3 *445:8 *4530:A2 2.395 
*END

*D_NET *446 0.00174903
*CONN
*I *4490:A1 I *D sky130_fd_sc_hd__o211a_1
*I *4489:C1 I *D sky130_fd_sc_hd__a211o_1
*I *4488:C1 I *D sky130_fd_sc_hd__a211oi_1
*I *4487:Y O *D sky130_fd_sc_hd__a21oi_1
*CAP
1 *4490:A1 0.000121684
2 *4489:C1 0
3 *4488:C1 3.15006e-05
4 *4487:Y 0.000215294
5 *446:21 0.000231497
6 *446:8 0.000356608
7 *4490:A1 *4492:A1 1.65192e-05
8 *446:21 *447:10 0
9 *4485:C *446:8 1.07797e-05
10 *4486:A *446:8 1.22762e-05
11 *4487:A2 *446:8 7.23533e-05
12 *4488:B1 *4488:C1 5.83121e-06
13 *4490:A2 *4490:A1 9.42224e-05
14 *4490:A2 *446:21 8.53113e-06
15 *4491:C *4490:A1 8.97564e-05
16 *398:16 *4490:A1 0
17 *444:8 *446:8 0.000249921
18 *444:19 *446:8 5.4003e-05
19 *444:19 *446:21 0.000178255
*RES
1 *4487:Y *446:8 8.04 
2 *446:8 *4488:C1 4.05 
3 *446:8 *446:21 2.595 
4 *446:21 *4489:C1 3.6 
5 *446:21 *4490:A1 6.45 
*END

*D_NET *447 0.000861173
*CONN
*I *4492:A1 I *D sky130_fd_sc_hd__o21ai_1
*I *4491:B I *D sky130_fd_sc_hd__or3_4
*I *4488:Y O *D sky130_fd_sc_hd__a211oi_1
*CAP
1 *4492:A1 0.000117908
2 *4491:B 0
3 *4488:Y 0.000156116
4 *447:10 0.000274024
5 *4492:A1 *4491:A 7.81954e-05
6 *4492:A1 *849:16 0
7 *447:10 *4491:A 5.53249e-06
8 *4490:A1 *4492:A1 1.65192e-05
9 *4491:C *4492:A1 0.000152821
10 *4491:C *447:10 9.50342e-06
11 *4492:B1 *4492:A1 5.05521e-05
12 *11:9 *447:10 0
13 *446:21 *447:10 0
*RES
1 *4488:Y *447:10 6.03 
2 *447:10 *4491:B 3.6 
3 *447:10 *4492:A1 6.795 
*END

*D_NET *448 0.00196489
*CONN
*I *4534:B1 I *D sky130_fd_sc_hd__o211ai_2
*I *4535:A2 I *D sky130_fd_sc_hd__a211o_1
*I *4489:X O *D sky130_fd_sc_hd__a211o_1
*CAP
1 *4534:B1 3.97415e-05
2 *4535:A2 0.000145005
3 *4489:X 0.000493503
4 *448:6 0.00067825
5 *4534:B1 *849:24 2.75229e-05
6 *4535:A2 *4534:A1 4.91927e-05
7 *4535:A2 *4534:A2 0
8 *4535:A2 *4535:A1 0
9 *4535:A2 *450:25 0
10 *4535:A2 *490:31 4.18603e-06
11 *4535:A2 *493:10 0
12 *448:6 *4534:C1 0.000163204
13 *448:6 *450:10 9.51101e-05
14 *448:6 *849:24 0.000222562
15 *4489:B1 *448:6 4.66108e-05
16 *11:9 *4535:A2 0
*RES
1 *4489:X *448:6 11.02 
2 *448:6 *4535:A2 7.745 
3 *448:6 *4534:B1 2.41 
*END

*D_NET *449 0.000468244
*CONN
*I *4492:A2 I *D sky130_fd_sc_hd__o21ai_1
*I *4491:A I *D sky130_fd_sc_hd__or3_4
*I *4490:X O *D sky130_fd_sc_hd__o211a_1
*CAP
1 *4492:A2 2.6834e-05
2 *4491:A 6.39335e-05
3 *4490:X 3.38751e-05
4 *449:6 0.000124643
5 *4491:A *849:16 3.86529e-05
6 *4492:A1 *4491:A 7.81954e-05
7 *4492:B1 *4492:A2 4.82919e-05
8 *4492:B1 *449:6 4.82863e-05
9 *11:9 *4491:A 0
10 *447:10 *4491:A 5.53249e-06
*RES
1 *4490:X *449:6 2.05 
2 *449:6 *4491:A 7.235 
3 *449:6 *4492:A2 2.05 
*END

*D_NET *450 0.00306616
*CONN
*I *4493:B1 I *D sky130_fd_sc_hd__o211a_1
*I *4494:A2 I *D sky130_fd_sc_hd__a211o_1
*I *4534:C1 I *D sky130_fd_sc_hd__o211ai_2
*I *4535:A1 I *D sky130_fd_sc_hd__a211o_1
*I *4491:X O *D sky130_fd_sc_hd__or3_4
*CAP
1 *4493:B1 0.000119653
2 *4494:A2 0.000130466
3 *4534:C1 2.30828e-05
4 *4535:A1 0.000200898
5 *4491:X 0.0001907
6 *450:36 0.000527901
7 *450:25 0.00035256
8 *450:10 0.000443293
9 *4493:B1 *4493:C1 0
10 *4493:B1 *4495:B 0
11 *4494:A2 *453:8 0.000198939
12 *4534:C1 *849:24 0.000163204
13 *4535:A1 *493:10 0.000124007
14 *450:36 *4578:D 0
15 *4535:A2 *4535:A1 0
16 *4535:A2 *450:25 0
17 *11:9 *4493:B1 5.12859e-05
18 *11:9 *4535:A1 3.68596e-05
19 *11:9 *450:25 3.686e-05
20 *11:9 *450:36 0.000208136
21 *416:24 *450:36 0
22 *448:6 *4534:C1 0.000163204
23 *448:6 *450:10 9.51101e-05
*RES
1 *4491:X *450:10 6.135 
2 *450:10 *4535:A1 7.26 
3 *450:10 *450:25 1.125 
4 *450:25 *4534:C1 5.085 
5 *450:25 *450:36 5.97 
6 *450:36 *4494:A2 6.12 
7 *450:36 *4493:B1 5.49 
*END

*D_NET *451 0.00138742
*CONN
*I *4493:C1 I *D sky130_fd_sc_hd__o211a_1
*I *4494:A1 I *D sky130_fd_sc_hd__a211o_1
*I *4492:Y O *D sky130_fd_sc_hd__o21ai_1
*CAP
1 *4493:C1 0.000121906
2 *4494:A1 0
3 *4492:Y 0.000143661
4 *451:8 0.000265567
5 *4493:C1 *849:16 0.000154481
6 *451:8 *849:16 0.000323188
7 *4493:A1 *4493:C1 0.000239813
8 *4493:A2 *4493:C1 0.000138808
9 *4493:B1 *4493:C1 0
10 *11:9 *4493:C1 0
11 *11:9 *451:8 0
*RES
1 *4492:Y *451:8 7.275 
2 *451:8 *4494:A1 3.6 
3 *451:8 *4493:C1 7.665 
*END

*D_NET *452 0.00193374
*CONN
*I *4537:B1 I *D sky130_fd_sc_hd__a21o_1
*I *4578:A_N I *D sky130_fd_sc_hd__and4b_1
*I *4579:A1 I *D sky130_fd_sc_hd__a21bo_1
*I *4495:A_N I *D sky130_fd_sc_hd__and2b_1
*I *4493:X O *D sky130_fd_sc_hd__o211a_1
*CAP
1 *4537:B1 0.000114347
2 *4578:A_N 1.45426e-05
3 *4579:A1 0.000132001
4 *4495:A_N 0
5 *4493:X 0.000135063
6 *452:17 0.000320877
7 *452:15 0.000314016
8 *452:6 0.000160398
9 *4537:B1 *4538:A 0
10 *4578:A_N *4578:D 4.82863e-05
11 *4578:A_N *493:23 2.49909e-05
12 *4579:A1 *4536:A 0
13 *4579:A1 *492:19 0
14 *4579:A1 *493:23 0.000116158
15 *452:6 *772:118 7.48616e-05
16 *452:15 *772:118 1.4389e-05
17 *452:17 *4538:A 0
18 *416:24 *4537:B1 0.000125626
19 *416:24 *4579:A1 0.000151772
20 *416:24 *452:17 0.000186407
*RES
1 *4493:X *452:6 3.775 
2 *452:6 *4495:A_N 1.6 
3 *452:6 *452:15 2.45 
4 *452:15 *452:17 3.93 
5 *452:17 *4579:A1 6.63 
6 *452:17 *4578:A_N 4.05 
7 *452:15 *4537:B1 6.255 
*END

*D_NET *453 0.00187122
*CONN
*I *4495:B I *D sky130_fd_sc_hd__and2b_1
*I *4578:D I *D sky130_fd_sc_hd__and4b_1
*I *4494:X O *D sky130_fd_sc_hd__a211o_1
*CAP
1 *4495:B 0.000116857
2 *4578:D 0.000254794
3 *4494:X 0.000273765
4 *453:8 0.000645417
5 *4495:B *454:10 5.53249e-06
6 *4578:D *4536:A 5.79969e-05
7 *4578:D *4536:B 2.30292e-05
8 *4578:D *493:23 2.59926e-05
9 *4493:B1 *4495:B 0
10 *4494:A2 *453:8 0.000198939
11 *4578:A_N *4578:D 4.82863e-05
12 *416:24 *4495:B 0.000130072
13 *416:24 *4578:D 9.05377e-05
14 *450:36 *4578:D 0
*RES
1 *4494:X *453:8 8.19 
2 *453:8 *4578:D 8.44875 
3 *453:8 *4495:B 6.255 
*END

*D_NET *454 0.00166745
*CONN
*I *4537:A2 I *D sky130_fd_sc_hd__a21o_1
*I *4496:B I *D sky130_fd_sc_hd__xor2_1
*I *4495:X O *D sky130_fd_sc_hd__and2b_1
*CAP
1 *4537:A2 4.71799e-05
2 *4496:B 0.000318991
3 *4495:X 0.000116497
4 *454:10 0.000482667
5 *4496:B *772:16 2.03321e-05
6 *454:10 *772:16 0
7 *4495:B *454:10 5.53249e-06
8 *416:10 *4496:B 3.25831e-05
9 *416:16 *4496:B 0.00057009
10 *416:16 *4537:A2 7.35813e-05
11 *416:24 *4496:B 0
12 *416:24 *454:10 0
*RES
1 *4495:X *454:10 7.49 
2 *454:10 *4496:B 13.31 
3 *454:10 *4537:A2 2.74 
*END

*D_NET *455 0.000816121
*CONN
*I *4498:B I *D sky130_fd_sc_hd__or2_1
*I *4497:B I *D sky130_fd_sc_hd__and2_1
*I *4496:X O *D sky130_fd_sc_hd__xor2_1
*CAP
1 *4498:B 0.000108444
2 *4497:B 0
3 *4496:X 0.000172634
4 *455:8 0.000281078
5 *4498:B *4497:A 0.00020511
6 *4498:B *4504:B1 1.08758e-05
7 *455:8 *4497:A 3.25635e-05
8 *455:8 *4504:B1 5.4155e-06
*RES
1 *4496:X *455:8 4.48 
2 *455:8 *4497:B 1.6 
3 *455:8 *4498:B 8.03 
*END

*D_NET *456 0.000358949
*CONN
*I *4499:A_N I *D sky130_fd_sc_hd__nand2b_1
*I *4504:B1 I *D sky130_fd_sc_hd__a21oi_2
*I *4497:X O *D sky130_fd_sc_hd__and2_1
*CAP
1 *4499:A_N 0.000103588
2 *4504:B1 5.81612e-05
3 *4497:X 0
4 *456:4 0.000161749
5 *4499:A_N *4499:B 0
6 *4504:B1 *4497:A 1.91597e-05
7 *4498:B *4504:B1 1.08758e-05
8 *455:8 *4504:B1 5.4155e-06
*RES
1 *4497:X *456:4 1.6 
2 *456:4 *4504:B1 2.665 
3 *456:4 *4499:A_N 7.235 
*END

*D_NET *457 0.000796531
*CONN
*I *4499:B I *D sky130_fd_sc_hd__nand2b_1
*I *4504:A1 I *D sky130_fd_sc_hd__a21oi_2
*I *4498:X O *D sky130_fd_sc_hd__or2_1
*CAP
1 *4499:B 0.00016897
2 *4504:A1 0
3 *4498:X 0.00012486
4 *457:10 0.00029383
5 *4499:B *4501:A 5.30673e-05
6 *4499:B *4504:A2 0.000105841
7 *4499:B *827:22 0
8 *457:10 *4497:A 0
9 *457:10 *827:22 4.99619e-05
10 *4499:A_N *4499:B 0
*RES
1 *4498:X *457:10 5.43 
2 *457:10 *4504:A1 3.6 
3 *457:10 *4499:B 7.2525 
*END

*D_NET *458 0.000345062
*CONN
*I *4501:A I *D sky130_fd_sc_hd__xnor2_1
*I *4499:Y O *D sky130_fd_sc_hd__nand2b_1
*CAP
1 *4501:A 0.000145997
2 *4499:Y 0.000145997
3 *4501:A *4504:A2 0
4 *4499:B *4501:A 5.30673e-05
*RES
1 *4499:Y *4501:A 9.375 
*END

*D_NET *459 0.00226613
*CONN
*I *4504:A2 I *D sky130_fd_sc_hd__a21oi_2
*I *4501:B I *D sky130_fd_sc_hd__xnor2_1
*I *4500:Y O *D sky130_fd_sc_hd__o21bai_2
*CAP
1 *4504:A2 0.000237115
2 *4501:B 0
3 *4500:Y 0.000544988
4 *459:20 0.000782103
5 *4504:A2 *4502:A1 4.82863e-05
6 *4504:A2 *827:22 0
7 *4504:A2 *966:100 0.000181152
8 *459:20 *4236:B1 0
9 *459:20 *4503:A 1.22676e-05
10 *459:20 *966:100 0
11 *4453:B *459:20 0.00012657
12 *4453:C *459:20 1.61831e-05
13 *4499:B *4504:A2 0.000105841
14 *4500:B1_N *459:20 0.000183943
15 *4501:A *4504:A2 0
16 *410:26 *459:20 2.76781e-05
17 *411:17 *459:20 0
18 *412:37 *459:20 0
*RES
1 *4500:Y *459:20 15.65 
2 *459:20 *4501:B 1.6 
3 *459:20 *4504:A2 11.27 
*END

*D_NET *460 0.00125361
*CONN
*I *4502:A1 I *D sky130_fd_sc_hd__mux2_1
*I *4501:Y O *D sky130_fd_sc_hd__xnor2_1
*CAP
1 *4502:A1 0.000348677
2 *4501:Y 0.000348677
3 *4502:A1 *4236:B1 0
4 *4502:A1 *4502:S 0.000160635
5 *4502:A1 *827:14 0.000115837
6 *4502:A1 *827:22 0.000118288
7 *4502:A1 *966:100 0.000113205
8 *4504:A2 *4502:A1 4.82863e-05
*RES
1 *4501:Y *4502:A1 14.535 
*END

*D_NET *461 0.00037796
*CONN
*I *4503:B I *D sky130_fd_sc_hd__and2_1
*I *4502:X O *D sky130_fd_sc_hd__mux2_1
*CAP
1 *4503:B 0.000183151
2 *4502:X 0.000183151
3 *4503:B *4502:S 1.16578e-05
*RES
1 *4502:X *4503:B 5.99 
*END

*D_NET *462 0.0029774
*CONN
*I *4542:B1 I *D sky130_fd_sc_hd__o21a_1
*I *4584:A1 I *D sky130_fd_sc_hd__a21o_1
*I *4585:A1 I *D sky130_fd_sc_hd__a211o_1
*I *4543:A I *D sky130_fd_sc_hd__nor3_1
*I *4504:Y O *D sky130_fd_sc_hd__a21oi_2
*CAP
1 *4542:B1 3.14568e-05
2 *4584:A1 0
3 *4585:A1 0.000135533
4 *4543:A 0
5 *4504:Y 0.000395304
6 *462:19 0.000288838
7 *462:15 0.00030484
8 *462:8 0.000515382
9 *4542:B1 *4543:C 0
10 *4542:B1 *4544:A1 1.08758e-05
11 *4542:B1 *498:14 2.75229e-05
12 *4542:B1 *836:65 1.85674e-05
13 *4585:A1 *4584:A2 5.56629e-05
14 *4585:A1 *4585:B1 0.000103192
15 *4585:A1 *4586:A 7.75867e-05
16 *4585:A1 *499:8 2.68721e-05
17 *4585:A1 *772:118 9.27495e-05
18 *4585:A1 *968:103 6.61989e-05
19 *4585:A1 *968:111 8.29874e-06
20 *462:8 *966:100 3.85943e-05
21 *462:15 *4543:B 2.05056e-05
22 *462:15 *4543:C 8.8266e-05
23 *462:15 *498:14 4.21973e-05
24 *462:15 *966:100 1.33293e-05
25 *462:19 *4544:A1 0.000117832
26 *462:19 *4584:A2 0.000175901
27 *462:19 *499:8 4.05358e-05
28 *462:19 *499:30 0.00013791
29 *462:19 *968:103 0.000143443
*RES
1 *4504:Y *462:8 6.205 
2 *462:8 *4543:A 1.6 
3 *462:8 *462:15 2.175 
4 *462:15 *462:19 7.205 
5 *462:19 *4585:A1 8.1 
6 *462:19 *4584:A1 3.6 
7 *462:15 *4542:B1 2.41 
*END

*D_NET *463 0.0026324
*CONN
*I *4509:A I *D sky130_fd_sc_hd__and2_1
*I *4510:A I *D sky130_fd_sc_hd__xor2_1
*I *4505:X O *D sky130_fd_sc_hd__a31o_1
*CAP
1 *4509:A 8.3407e-05
2 *4510:A 0
3 *4505:X 0.00094376
4 *463:16 0.00102717
5 *4509:A *4509:B 0.000163204
6 *463:16 *4467:A 0.000124895
7 *463:16 *4467:B 1.91597e-05
8 *463:16 *984:59 5.20968e-05
9 *463:16 *1000:89 3.89528e-05
10 *4471:A *463:16 6.47326e-05
11 *4471:B *463:16 4.82919e-05
12 *430:12 *463:16 6.67382e-05
*RES
1 *4505:X *463:16 20.315 
2 *463:16 *4510:A 1.6 
3 *463:16 *4509:A 3.43 
*END

*D_NET *464 0.000648195
*CONN
*I *4508:A I *D sky130_fd_sc_hd__nor2_1
*I *4506:X O *D sky130_fd_sc_hd__o2bb2a_1
*CAP
1 *4508:A 0.00021761
2 *4506:X 0.00021761
3 *4508:A *4506:B1 4.82863e-05
4 *4508:A *4507:B 1.9415e-05
5 *4508:A *4507:C 7.4725e-05
6 *4508:A *4507:D 2.05864e-05
7 *4508:A *4508:B 0
8 *4508:A *465:8 4.99619e-05
*RES
1 *4506:X *4508:A 7.13 
*END

*D_NET *465 0.00150963
*CONN
*I *4589:A1 I *D sky130_fd_sc_hd__a21o_1
*I *4553:A I *D sky130_fd_sc_hd__xnor2_1
*I *4508:B I *D sky130_fd_sc_hd__nor2_1
*I *4507:X O *D sky130_fd_sc_hd__and4b_1
*CAP
1 *4589:A1 0
2 *4553:A 0.000121474
3 *4508:B 1.77753e-05
4 *4507:X 8.9033e-05
5 *465:23 0.000407599
6 *465:8 0.000392933
7 *4553:A *4553:B 0.000100314
8 *4553:A *4589:B1 8.65905e-05
9 *4553:A *478:12 1.33293e-05
10 *4553:A *545:16 0.000128906
11 *465:8 *466:12 4.05674e-06
12 *465:23 *4589:B1 0
13 *465:23 *466:12 1.7386e-05
14 *465:23 *479:18 7.07722e-05
15 *465:23 *509:10 9.50342e-06
16 *465:23 *796:25 0
17 *4508:A *4508:B 0
18 *4508:A *465:8 4.99619e-05
*RES
1 *4507:X *465:8 3.1 
2 *465:8 *4508:B 1.96 
3 *465:8 *465:23 8.725 
4 *465:23 *4553:A 4.84 
5 *465:23 *4589:A1 1.6 
*END

*D_NET *466 0.000758412
*CONN
*I *4509:B I *D sky130_fd_sc_hd__and2_1
*I *4510:B I *D sky130_fd_sc_hd__xor2_1
*I *4508:Y O *D sky130_fd_sc_hd__nor2_1
*CAP
1 *4509:B 9.92694e-05
2 *4510:B 0
3 *4508:Y 0.000124328
4 *466:12 0.000223597
5 *4509:B *468:10 0.00012657
6 *466:12 *796:36 0
7 *4509:A *4509:B 0.000163204
8 *465:8 *466:12 4.05674e-06
9 *465:23 *466:12 1.7386e-05
*RES
1 *4508:Y *466:12 7.43 
2 *466:12 *4510:B 1.6 
3 *466:12 *4509:B 4.135 
*END

*D_NET *467 0.000240228
*CONN
*I *4546:B1 I *D sky130_fd_sc_hd__a21oi_1
*I *4509:X O *D sky130_fd_sc_hd__and2_1
*CAP
1 *4546:B1 9.29868e-05
2 *4509:X 9.29868e-05
3 *4546:B1 *468:10 5.42543e-05
*RES
1 *4509:X *4546:B1 8.775 
*END

*D_NET *468 0.00119512
*CONN
*I *4511:B I *D sky130_fd_sc_hd__xor2_1
*I *4546:A2 I *D sky130_fd_sc_hd__a21oi_1
*I *4510:X O *D sky130_fd_sc_hd__xor2_1
*CAP
1 *4511:B 8.6145e-05
2 *4546:A2 0
3 *4510:X 0.000327465
4 *468:10 0.00041361
5 *4509:B *468:10 0.00012657
6 *4546:A1 *4511:B 0.000177568
7 *4546:A1 *468:10 9.50342e-06
8 *4546:B1 *468:10 5.42543e-05
*RES
1 *4510:X *468:10 9.21 
2 *468:10 *4546:A2 3.6 
3 *468:10 *4511:B 5.745 
*END

*D_NET *469 0.00298557
*CONN
*I *4569:A1 I *D sky130_fd_sc_hd__a21boi_1
*I *4529:B1 I *D sky130_fd_sc_hd__a21oi_1
*I *4528:A I *D sky130_fd_sc_hd__and3_4
*I *4511:X O *D sky130_fd_sc_hd__xor2_1
*CAP
1 *4569:A1 9.82587e-05
2 *4529:B1 0
3 *4528:A 0.000508627
4 *4511:X 0.000346652
5 *469:19 0.00012865
6 *469:6 0.000885671
7 *4528:A *487:12 0.000277223
8 *4528:A *526:6 0.000250798
9 *4569:A1 *4528:B 0.000149765
10 *4569:A1 *4529:A1 8.65905e-05
11 *4569:A1 *4529:A2 0.000198051
12 *4569:A1 *487:12 4.36241e-05
13 *469:19 *487:12 1.16578e-05
*RES
1 *4511:X *469:6 6.88 
2 *469:6 *4528:A 8.875 
3 *469:6 *469:19 0.81 
4 *469:19 *4529:B1 1.6 
5 *469:19 *4569:A1 4.825 
*END

*D_NET *470 0.000536867
*CONN
*I *4516:A I *D sky130_fd_sc_hd__xnor2_1
*I *4512:Y O *D sky130_fd_sc_hd__nand2_1
*CAP
1 *4516:A 7.06802e-05
2 *4512:Y 7.06802e-05
3 *4516:A *4512:A 8.65961e-05
4 *4516:A *4516:B 2.49909e-05
5 *4516:A *480:18 0.000236355
6 *4516:A *504:20 4.75643e-05
*RES
1 *4512:Y *4516:A 5.735 
*END

*D_NET *471 0.00108016
*CONN
*I *4547:B1 I *D sky130_fd_sc_hd__a31o_1
*I *4515:A_N I *D sky130_fd_sc_hd__and2b_1
*I *4513:X O *D sky130_fd_sc_hd__and4_1
*CAP
1 *4547:B1 0
2 *4515:A_N 5.99948e-05
3 *4513:X 0.00019194
4 *471:12 0.000251935
5 *4515:A_N *511:16 0.000237249
6 *4515:A_N *979:36 2.75229e-05
7 *4515:A_N *998:76 1.12578e-05
8 *4515:A_N *998:82 0.000167726
9 *471:12 *4514:A1 8.53113e-06
10 *471:12 *472:10 0
11 *471:12 *994:52 0.000124007
12 *471:12 *1000:43 0
*RES
1 *4513:X *471:12 8.12 
2 *471:12 *4515:A_N 4.135 
3 *471:12 *4547:B1 1.6 
*END

*D_NET *472 0.000728898
*CONN
*I *4515:B I *D sky130_fd_sc_hd__and2b_1
*I *4547:A3 I *D sky130_fd_sc_hd__a31o_1
*I *4514:X O *D sky130_fd_sc_hd__a22o_1
*CAP
1 *4515:B 0.000101047
2 *4547:A3 2.22788e-05
3 *4514:X 0.000120178
4 *472:10 0.000243504
5 *4515:B *998:76 0
6 *4515:B *998:82 0.000190633
7 *4547:A3 *998:82 4.82863e-05
8 *472:10 *978:96 0
9 *472:10 *979:42 2.97004e-06
10 *471:12 *472:10 0
*RES
1 *4514:X *472:10 7.235 
2 *472:10 *4547:A3 2.05 
3 *472:10 *4515:B 3.79 
*END

*D_NET *473 0.000373888
*CONN
*I *4516:B I *D sky130_fd_sc_hd__xnor2_1
*I *4515:X O *D sky130_fd_sc_hd__and2b_1
*CAP
1 *4516:B 9.30638e-05
2 *4515:X 9.30638e-05
3 *4516:B *504:20 4.66108e-05
4 *4516:B *978:96 0.000116158
5 *4516:A *4516:B 2.49909e-05
6 *161:52 *4516:B 0
*RES
1 *4515:X *4516:B 9.03 
*END

*D_NET *474 0.00536493
*CONN
*I *4524:B1 I *D sky130_fd_sc_hd__a21oi_1
*I *4523:A I *D sky130_fd_sc_hd__and3_1
*I *4564:A1 I *D sky130_fd_sc_hd__a21oi_1
*I *4516:Y O *D sky130_fd_sc_hd__xnor2_1
*CAP
1 *4524:B1 0.00023032
2 *4523:A 7.51891e-05
3 *4564:A1 0
4 *4516:Y 0.0012024
5 *474:25 0.00042696
6 *474:14 0.00132385
7 *4523:A *4523:C 9.16333e-06
8 *4523:A *479:18 4.47125e-05
9 *4523:A *479:27 4.66108e-05
10 *4524:B1 *4524:A1 1.61831e-05
11 *4524:B1 *4524:A2 0.000162311
12 *4524:B1 *479:27 0.000123091
13 *4524:B1 *481:12 0.000241483
14 *4524:B1 *482:12 1.45722e-05
15 *474:14 *4551:B 0.000188727
16 *474:14 *478:16 0.000105849
17 *474:14 *480:18 0.000375362
18 *474:14 *504:20 0.000526262
19 *474:25 *478:16 2.97561e-05
20 *474:25 *479:33 0
21 *474:25 *480:18 4.38051e-05
22 *474:25 *480:27 0.000178314
*RES
1 *4516:Y *474:14 22.185 
2 *474:14 *4564:A1 3.6 
3 *474:14 *474:25 4.655 
4 *474:25 *4523:A 3.355 
5 *474:25 *4524:B1 7.495 
*END

*D_NET *475 0.000625034
*CONN
*I *4522:A2 I *D sky130_fd_sc_hd__a21o_1
*I *4517:X O *D sky130_fd_sc_hd__or3b_1
*CAP
1 *4522:A2 0.000222297
2 *4517:X 0.000222297
3 *4522:A2 *4422:B 4.82919e-05
4 *4522:A2 *4978:A 5.53249e-06
5 *4522:A2 *5106:A 0
6 *4522:A2 *993:19 0
7 *4522:A2 *993:34 0
8 *4522:A2 *995:40 0
9 *4518:A2_N *4522:A2 8.09021e-06
10 *431:12 *4522:A2 0.000118527
*RES
1 *4517:X *4522:A2 11.07 
*END

*D_NET *476 0.00103144
*CONN
*I *4522:A1 I *D sky130_fd_sc_hd__a21o_1
*I *4518:X O *D sky130_fd_sc_hd__a2bb2o_1
*CAP
1 *4522:A1 0.000288253
2 *4518:X 0.000288253
3 *4522:A1 *480:18 0.000389572
4 *4522:A1 *993:19 3.86607e-05
5 *4522:A1 *999:29 2.67022e-05
*RES
1 *4518:X *4522:A1 11.625 
*END

*D_NET *477 0.000591856
*CONN
*I *4522:B1 I *D sky130_fd_sc_hd__a21o_1
*I *4519:X O *D sky130_fd_sc_hd__a31o_1
*CAP
1 *4522:B1 0.000193821
2 *4519:X 0.000193821
3 *4522:B1 *4554:A1 0
4 *4522:B1 *480:18 8.40269e-05
5 *4554:B1 *4522:B1 0.000120186
*RES
1 *4519:X *4522:B1 10.755 
*END

*D_NET *478 0.00895793
*CONN
*I *4564:B1 I *D sky130_fd_sc_hd__a21oi_1
*I *4555:A I *D sky130_fd_sc_hd__nor2_2
*I *4657:A I *D sky130_fd_sc_hd__and2_1
*I *4658:A I *D sky130_fd_sc_hd__nor3_1
*I *4520:X O *D sky130_fd_sc_hd__and2_1
*CAP
1 *4564:B1 0
2 *4555:A 0
3 *4657:A 0
4 *4658:A 0.000185483
5 *4520:X 0.00197196
6 *478:22 0.000919725
7 *478:16 0.00103492
8 *478:12 0.00227264
9 *4658:A *4658:B 0.00012657
10 *4658:A *4658:C 2.30292e-05
11 *4658:A *580:20 1.61831e-05
12 *4658:A *580:35 1.66733e-05
13 *4658:A *611:10 3.23663e-05
14 *4658:A *612:10 4.99619e-05
15 *478:12 *4521:A 2.75229e-05
16 *478:12 *4553:B 0.000164352
17 *478:12 *479:18 0.000450243
18 *478:12 *510:6 0.000360737
19 *478:12 *521:6 1.16578e-05
20 *478:12 *545:16 0.000382933
21 *478:12 *984:59 0.000153474
22 *478:12 *985:67 5.05437e-05
23 *478:16 *4563:B 0.000105068
24 *478:16 *479:33 0
25 *478:22 *4563:B 4.39734e-05
26 *478:22 *4626:B 6.73751e-05
27 *478:22 *512:10 0
28 *478:22 *512:12 0
29 *478:22 *556:18 6.28843e-05
30 *478:22 *580:20 8.65961e-05
31 *4553:A *478:12 1.33293e-05
32 *428:10 *478:12 0.000192125
33 *474:14 *478:16 0.000105849
34 *474:25 *478:16 2.97561e-05
*RES
1 *4520:X *478:12 31.075 
2 *478:12 *478:16 7.97 
3 *478:16 *478:22 15.14 
4 *478:22 *4658:A 5.44 
5 *478:22 *4657:A 1.6 
6 *478:16 *4555:A 3.6 
7 *478:12 *4564:B1 1.6 
*END

*D_NET *479 0.00757093
*CONN
*I *4524:A1 I *D sky130_fd_sc_hd__a21oi_1
*I *4627:B1 I *D sky130_fd_sc_hd__o21ai_1
*I *4602:B1 I *D sky130_fd_sc_hd__o21ai_1
*I *4523:B I *D sky130_fd_sc_hd__and3_1
*I *4521:Y O *D sky130_fd_sc_hd__nand2_1
*CAP
1 *4524:A1 9.41628e-05
2 *4627:B1 0.000319874
3 *4602:B1 0
4 *4523:B 0
5 *4521:Y 0.00201438
6 *479:33 0.000787458
7 *479:27 0.000797179
8 *479:18 0.00224981
9 *4524:A1 *4524:A2 5.05521e-05
10 *4627:B1 *4627:A1 0
11 *4627:B1 *557:12 0
12 *4627:B1 *558:12 7.35729e-05
13 *479:18 *4521:A 4.9253e-06
14 *479:18 *509:10 3.09233e-05
15 *479:18 *796:25 0
16 *479:18 *984:59 0.000252707
17 *479:27 *4524:A2 5.05437e-05
18 *479:33 *4563:A 6.23206e-05
19 *479:33 *4563:B 0
20 *479:33 *4627:A1 3.09164e-05
21 *479:33 *520:12 0
22 *4523:A *479:18 4.47125e-05
23 *4523:A *479:27 4.66108e-05
24 *4524:B1 *4524:A1 1.61831e-05
25 *4524:B1 *479:27 0.000123091
26 *465:23 *479:18 7.07722e-05
27 *474:25 *479:33 0
28 *478:12 *479:18 0.000450243
29 *478:16 *479:33 0
*RES
1 *4521:Y *479:18 34.385 
2 *479:18 *4523:B 1.6 
3 *479:18 *479:27 4.26 
4 *479:27 *479:33 12.01 
5 *479:33 *4602:B1 1.6 
6 *479:33 *4627:B1 10.925 
7 *479:27 *4524:A1 3.355 
*END

*D_NET *480 0.00772854
*CONN
*I *5110:A I *D sky130_fd_sc_hd__dlymetal6s2s_1
*I *4523:C I *D sky130_fd_sc_hd__and3_1
*I *4564:A2 I *D sky130_fd_sc_hd__a21oi_1
*I *4522:X O *D sky130_fd_sc_hd__a21o_1
*CAP
1 *5110:A 0.000185153
2 *4523:C 1.16779e-05
3 *4564:A2 0
4 *4522:X 0.00251089
5 *480:27 0.000373339
6 *480:18 0.0026874
7 *5110:A *481:12 0
8 *480:18 *4512:B 4.41506e-05
9 *480:18 *4551:A 0.000200615
10 *480:18 *4551:B 4.60584e-05
11 *480:18 *504:20 0.000352655
12 *4516:A *480:18 0.000236355
13 *4522:A1 *480:18 0.000389572
14 *4522:B1 *480:18 8.40269e-05
15 *4523:A *4523:C 9.16333e-06
16 *474:14 *480:18 0.000375362
17 *474:25 *480:18 4.38051e-05
18 *474:25 *480:27 0.000178314
*RES
1 *4522:X *480:18 42.495 
2 *480:18 *4564:A2 3.6 
3 *480:18 *480:27 2.655 
4 *480:27 *4523:C 3.765 
5 *480:27 *5110:A 6.375 
*END

*D_NET *481 0.00196989
*CONN
*I *4527:A1 I *D sky130_fd_sc_hd__o21bai_1
*I *4526:A I *D sky130_fd_sc_hd__or3b_4
*I *4523:X O *D sky130_fd_sc_hd__and3_1
*CAP
1 *4527:A1 0.000123775
2 *4526:A 0
3 *4523:X 0.000492964
4 *481:12 0.000616738
5 *4527:A1 *4526:B 0.000237243
6 *4527:A1 *4527:B1_N 0.000160641
7 *4527:A1 *484:10 1.34594e-05
8 *4527:A1 *485:12 5.30673e-05
9 *481:12 *5109:A 0
10 *481:12 *482:12 0
11 *481:12 *484:10 3.05238e-05
12 *4524:B1 *481:12 0.000241483
13 *5110:A *481:12 0
*RES
1 *4523:X *481:12 13.49 
2 *481:12 *4526:A 1.6 
3 *481:12 *4527:A1 5.17 
*END

*D_NET *482 0.00116575
*CONN
*I *4527:A2 I *D sky130_fd_sc_hd__o21bai_1
*I *4526:B I *D sky130_fd_sc_hd__or3b_4
*I *4524:Y O *D sky130_fd_sc_hd__a21oi_1
*CAP
1 *4527:A2 0
2 *4526:B 7.85362e-05
3 *4524:Y 0.000329644
4 *482:12 0.00040818
5 *4526:B *484:10 5.05437e-05
6 *482:12 *4568:A 0
7 *482:12 *5109:A 4.70343e-05
8 *482:12 *484:10 0
9 *4524:B1 *482:12 1.45722e-05
10 *4527:A1 *4526:B 0.000237243
11 *11:9 *482:12 0
12 *481:12 *482:12 0
*RES
1 *4524:Y *482:12 11.1912 
2 *482:12 *4526:B 3.775 
3 *482:12 *4527:A2 1.6 
*END

*D_NET *483 0.00322071
*CONN
*I *4527:B1_N I *D sky130_fd_sc_hd__o21bai_1
*I *4526:C_N I *D sky130_fd_sc_hd__or3b_4
*I *4525:X O *D sky130_fd_sc_hd__a21bo_1
*CAP
1 *4527:B1_N 0.000206173
2 *4526:C_N 0
3 *4525:X 0.00130467
4 *483:6 0.00151084
5 *4527:B1_N *484:10 3.83895e-05
6 *4527:A1 *4527:B1_N 0.000160641
*RES
1 *4525:X *483:6 20.68 
2 *483:6 *4526:C_N 1.6 
3 *483:6 *4527:B1_N 5.17 
*END

*D_NET *484 0.00242238
*CONN
*I *4528:B I *D sky130_fd_sc_hd__and3_4
*I *4529:A1 I *D sky130_fd_sc_hd__a21oi_1
*I *4569:B1_N I *D sky130_fd_sc_hd__a21boi_1
*I *4526:X O *D sky130_fd_sc_hd__or3b_4
*CAP
1 *4528:B 0.000433907
2 *4529:A1 5.74818e-05
3 *4569:B1_N 0
4 *4526:X 0.00032912
5 *484:21 0.000540036
6 *484:10 0.000377767
7 *4528:B *4529:A2 2.30292e-05
8 *4528:B *485:20 0.000252798
9 *484:10 *487:12 1.22762e-05
10 *484:21 *487:12 2.66935e-05
11 *4526:B *484:10 5.05437e-05
12 *4527:A1 *484:10 1.34594e-05
13 *4527:B1_N *484:10 3.83895e-05
14 *4569:A1 *4528:B 0.000149765
15 *4569:A1 *4529:A1 8.65905e-05
16 *481:12 *484:10 3.05238e-05
17 *482:12 *484:10 0
*RES
1 *4526:X *484:10 8.43 
2 *484:10 *4569:B1_N 3.6 
3 *484:10 *484:21 2.87 
4 *484:21 *4529:A1 2.395 
5 *484:21 *4528:B 7.585 
*END

*D_NET *485 0.00255937
*CONN
*I *4528:C I *D sky130_fd_sc_hd__and3_4
*I *4569:A2 I *D sky130_fd_sc_hd__a21boi_1
*I *4529:A2 I *D sky130_fd_sc_hd__a21oi_1
*I *4527:Y O *D sky130_fd_sc_hd__o21bai_1
*CAP
1 *4528:C 0
2 *4569:A2 0
3 *4529:A2 4.50092e-05
4 *4527:Y 0.000497707
5 *485:20 0.00014608
6 *485:12 0.000598778
7 *4529:A2 *487:12 6.52265e-05
8 *4529:A2 *526:6 0.000124007
9 *485:12 *486:10 7.30547e-05
10 *485:12 *525:12 0
11 *485:20 *526:6 0.000460921
12 *4527:A1 *485:12 5.30673e-05
13 *4528:B *4529:A2 2.30292e-05
14 *4528:B *485:20 0.000252798
15 *4569:A1 *4529:A2 0.000198051
16 *11:9 *485:12 2.16389e-05
*RES
1 *4527:Y *485:12 11.825 
2 *485:12 *485:20 4.635 
3 *485:20 *4529:A2 3.775 
4 *485:20 *4569:A2 1.6 
5 *485:12 *4528:C 1.6 
*END

*D_NET *486 0.00269558
*CONN
*I *4530:B1 I *D sky130_fd_sc_hd__a211oi_4
*I *4531:A2 I *D sky130_fd_sc_hd__o211a_1
*I *4528:X O *D sky130_fd_sc_hd__and3_4
*CAP
1 *4530:B1 0.000116135
2 *4531:A2 0.000204448
3 *4528:X 0.000331397
4 *486:10 0.000651979
5 *4530:B1 *488:8 4.82863e-05
6 *4530:B1 *489:10 0
7 *4531:A2 *4530:C1 0.000314745
8 *4531:A2 *4531:A1 4.66108e-05
9 *4531:A2 *489:10 0.0004262
10 *486:10 *526:6 6.97118e-05
11 *4531:B1 *4531:A2 5.4155e-06
12 *4533:C1 *4530:B1 3.09164e-05
13 *11:9 *4530:B1 8.26536e-05
14 *11:9 *486:10 0.000249292
15 *422:8 *4530:B1 3.001e-05
16 *442:21 *4531:A2 1.47256e-05
17 *485:12 *486:10 7.30547e-05
*RES
1 *4528:X *486:10 9.945 
2 *486:10 *4531:A2 9.24 
3 *486:10 *4530:B1 4.6325 
*END

*D_NET *487 0.00210161
*CONN
*I *4530:C1 I *D sky130_fd_sc_hd__a211oi_4
*I *4531:A1 I *D sky130_fd_sc_hd__o211a_1
*I *4529:Y O *D sky130_fd_sc_hd__a21oi_1
*CAP
1 *4530:C1 0.000219549
2 *4531:A1 2.20877e-05
3 *4529:Y 0.000327657
4 *487:12 0.000569295
5 *487:12 *526:6 4.82863e-05
6 *4528:A *487:12 0.000277223
7 *4529:A2 *487:12 6.52265e-05
8 *4531:A2 *4530:C1 0.000314745
9 *4531:A2 *4531:A1 4.66108e-05
10 *4569:A1 *487:12 4.36241e-05
11 *11:9 *4530:C1 5.85071e-05
12 *442:21 *4530:C1 0
13 *442:21 *4531:A1 5.83121e-06
14 *442:21 *487:12 5.23362e-05
15 *469:19 *487:12 1.16578e-05
16 *484:10 *487:12 1.22762e-05
17 *484:21 *487:12 2.66935e-05
*RES
1 *4529:Y *487:12 12.815 
2 *487:12 *4531:A1 2.05 
3 *487:12 *4530:C1 10.355 
*END

*D_NET *488 0.00227647
*CONN
*I *4576:A1 I *D sky130_fd_sc_hd__o21ai_1
*I *4574:A I *D sky130_fd_sc_hd__or3_1
*I *4575:A1 I *D sky130_fd_sc_hd__o21a_1
*I *4532:B1 I *D sky130_fd_sc_hd__a211oi_2
*I *4533:A1 I *D sky130_fd_sc_hd__o211a_1
*I *4530:Y O *D sky130_fd_sc_hd__a211oi_4
*CAP
1 *4576:A1 1.49415e-05
2 *4574:A 4.58659e-05
3 *4575:A1 0
4 *4532:B1 0
5 *4533:A1 1.55252e-05
6 *4530:Y 0.000130243
7 *488:36 0.000125389
8 *488:30 0.000163699
9 *488:23 0.00017357
10 *488:8 0.000250104
11 *4533:A1 *4532:C1 2.07184e-05
12 *4533:A1 *489:10 3.09164e-05
13 *4574:A *4574:B 9.21168e-05
14 *4574:A *4574:C 0.000114912
15 *4574:A *490:15 2.30292e-05
16 *4574:A *530:19 0.00012657
17 *4574:A *532:8 8.8266e-05
18 *4576:A1 *530:19 1.37328e-05
19 *488:8 *4533:A2 4.82863e-05
20 *488:23 *4532:C1 0.000226536
21 *488:30 *4532:C1 8.40213e-05
22 *488:30 *490:8 8.82557e-05
23 *488:36 *490:8 4.99619e-05
24 *488:36 *490:15 0.000124007
25 *488:36 *530:19 3.40537e-05
26 *4530:B1 *488:8 4.82863e-05
27 *4532:A1 *4533:A1 3.05295e-05
28 *4532:A1 *488:23 7.4538e-05
29 *422:8 *488:8 3.83995e-05
*RES
1 *4530:Y *488:8 5.775 
2 *488:8 *4533:A1 4.215 
3 *488:8 *488:23 4.775 
4 *488:23 *4532:B1 1.6 
5 *488:23 *488:30 1.83 
6 *488:30 *488:36 2.205 
7 *488:36 *4575:A1 1.6 
8 *488:36 *4574:A 4.12 
9 *488:30 *4576:A1 1.96 
*END

*D_NET *489 0.00247301
*CONN
*I *4532:C1 I *D sky130_fd_sc_hd__a211oi_2
*I *4533:A2 I *D sky130_fd_sc_hd__o211a_1
*I *4531:X O *D sky130_fd_sc_hd__o211a_1
*CAP
1 *4532:C1 0.000163252
2 *4533:A2 6.55581e-05
3 *4531:X 0.000570808
4 *489:10 0.000799618
5 *4532:C1 *490:31 1.94805e-05
6 *4532:C1 *491:10 0
7 *4532:C1 *530:10 0
8 *489:10 *530:10 0
9 *4530:B1 *489:10 0
10 *4531:A2 *489:10 0.0004262
11 *4532:A1 *4532:C1 8.08153e-06
12 *4533:A1 *4532:C1 2.07184e-05
13 *4533:A1 *489:10 3.09164e-05
14 *422:8 *4533:A2 9.53428e-06
15 *488:8 *4533:A2 4.82863e-05
16 *488:23 *4532:C1 0.000226536
17 *488:30 *4532:C1 8.40213e-05
*RES
1 *4531:X *489:10 11.205 
2 *489:10 *4533:A2 4.755 
3 *489:10 *4532:C1 7.23 
*END

*D_NET *490 0.00258233
*CONN
*I *4534:A1 I *D sky130_fd_sc_hd__o211ai_2
*I *4535:B1 I *D sky130_fd_sc_hd__a211o_1
*I *4574:B I *D sky130_fd_sc_hd__or3_1
*I *4575:A2 I *D sky130_fd_sc_hd__o21a_1
*I *4576:A2 I *D sky130_fd_sc_hd__o21ai_1
*I *4532:Y O *D sky130_fd_sc_hd__a211oi_2
*CAP
1 *4534:A1 0.000168083
2 *4535:B1 0
3 *4574:B 0.00012237
4 *4575:A2 0
5 *4576:A2 0
6 *4532:Y 0
7 *490:31 0.000354269
8 *490:15 0.000223107
9 *490:8 0.00025641
10 *490:4 0.000341858
11 *4534:A1 *4534:A2 0.000129735
12 *4534:A1 *491:10 9.50342e-06
13 *4534:A1 *492:10 4.92935e-05
14 *4534:A1 *849:24 1.90762e-05
15 *4574:B *532:8 4.99619e-05
16 *490:31 *491:10 0.000408437
17 *4532:C1 *490:31 1.94805e-05
18 *4535:A2 *4534:A1 4.91927e-05
19 *4535:A2 *490:31 4.18603e-06
20 *4574:A *4574:B 9.21168e-05
21 *4574:A *490:15 2.30292e-05
22 *488:30 *490:8 8.82557e-05
23 *488:36 *490:8 4.99619e-05
24 *488:36 *490:15 0.000124007
*RES
1 *4532:Y *490:4 1.6 
2 *490:4 *490:8 2.19 
3 *490:8 *4576:A2 1.6 
4 *490:8 *490:15 1.485 
5 *490:15 *4575:A2 1.6 
6 *490:15 *4574:B 3.43 
7 *490:4 *490:31 6.695 
8 *490:31 *4535:B1 3.6 
9 *490:31 *4534:A1 7.065 
*END

*D_NET *491 0.00143682
*CONN
*I *4534:A2 I *D sky130_fd_sc_hd__o211ai_2
*I *4535:C1 I *D sky130_fd_sc_hd__a211o_1
*I *4533:X O *D sky130_fd_sc_hd__o211a_1
*CAP
1 *4534:A2 6.36851e-05
2 *4535:C1 0
3 *4533:X 0.000349445
4 *491:10 0.00041313
5 *4534:A2 *493:10 6.28843e-05
6 *491:10 *4577:B 0
7 *491:10 *530:10 0
8 *4532:C1 *491:10 0
9 *4534:A1 *4534:A2 0.000129735
10 *4534:A1 *491:10 9.50342e-06
11 *4535:A2 *4534:A2 0
12 *490:31 *491:10 0.000408437
*RES
1 *4533:X *491:10 10.11 
2 *491:10 *4535:C1 3.6 
3 *491:10 *4534:A2 5.49 
*END

*D_NET *492 0.0014915
*CONN
*I *4536:A I *D sky130_fd_sc_hd__nand2_1
*I *4578:C I *D sky130_fd_sc_hd__and4b_1
*I *4579:A2 I *D sky130_fd_sc_hd__a21bo_1
*I *4534:Y O *D sky130_fd_sc_hd__o211ai_2
*CAP
1 *4536:A 0.00013152
2 *4578:C 3.38751e-05
3 *4579:A2 0
4 *4534:Y 0.000177042
5 *492:19 0.000272494
6 *492:10 0.000284141
7 *4536:A *4536:B 0.000162311
8 *4536:A *4538:A 3.72916e-05
9 *4578:C *4536:B 4.82863e-05
10 *492:10 *493:10 0
11 *492:10 *493:23 0
12 *492:10 *849:24 0.000237243
13 *492:19 *493:23 0
14 *4534:A1 *492:10 4.92935e-05
15 *4578:D *4536:A 5.79969e-05
16 *4579:A1 *4536:A 0
17 *4579:A1 *492:19 0
*RES
1 *4534:Y *492:10 7.41 
2 *492:10 *4579:A2 3.6 
3 *492:10 *492:19 1.635 
4 *492:19 *4578:C 4.05 
5 *492:19 *4536:A 6.15 
*END

*D_NET *493 0.00225307
*CONN
*I *4536:B I *D sky130_fd_sc_hd__nand2_1
*I *4578:B I *D sky130_fd_sc_hd__and4b_1
*I *4579:B1_N I *D sky130_fd_sc_hd__a21bo_1
*I *4535:X O *D sky130_fd_sc_hd__a211o_1
*CAP
1 *4536:B 0.000116909
2 *4578:B 0
3 *4579:B1_N 0
4 *4535:X 0.000453445
5 *493:23 0.000261586
6 *493:10 0.000598121
7 *4536:B *4538:A 1.33293e-05
8 *4536:B *535:12 0.00012657
9 *4534:A2 *493:10 6.28843e-05
10 *4535:A1 *493:10 0.000124007
11 *4535:A2 *493:10 0
12 *4536:A *4536:B 0.000162311
13 *4578:A_N *493:23 2.49909e-05
14 *4578:C *4536:B 4.82863e-05
15 *4578:D *4536:B 2.30292e-05
16 *4578:D *493:23 2.59926e-05
17 *4579:A1 *493:23 0.000116158
18 *416:24 *493:23 9.54469e-05
19 *492:10 *493:10 0
20 *492:10 *493:23 0
21 *492:19 *493:23 0
*RES
1 *4535:X *493:10 9.885 
2 *493:10 *4579:B1_N 3.6 
3 *493:10 *493:23 4.775 
4 *493:23 *4578:B 1.6 
5 *493:23 *4536:B 4.84 
*END

*D_NET *494 0.000929333
*CONN
*I *4538:A I *D sky130_fd_sc_hd__xnor2_1
*I *4536:Y O *D sky130_fd_sc_hd__nand2_1
*CAP
1 *4538:A 0.000439356
2 *4536:Y 0.000439356
3 *4536:A *4538:A 3.72916e-05
4 *4536:B *4538:A 1.33293e-05
5 *4537:B1 *4538:A 0
6 *452:17 *4538:A 0
*RES
1 *4536:Y *4538:A 14.055 
*END

*D_NET *495 0.000105481
*CONN
*I *4538:B I *D sky130_fd_sc_hd__xnor2_1
*I *4537:X O *D sky130_fd_sc_hd__a21o_1
*CAP
1 *4538:B 5.27404e-05
2 *4537:X 5.27404e-05
*RES
1 *4537:X *4538:B 3.995 
*END

*D_NET *496 0.00151416
*CONN
*I *4539:B I *D sky130_fd_sc_hd__nand2_1
*I *4541:B I *D sky130_fd_sc_hd__nor2_1
*I *4538:Y O *D sky130_fd_sc_hd__xnor2_1
*CAP
1 *4539:B 0
2 *4541:B 0.000108877
3 *4538:Y 0.000502547
4 *496:12 0.000611424
5 *4541:B *4539:A 4.78882e-05
6 *4541:B *497:19 8.73389e-06
7 *496:12 *4584:A2 0.000116165
8 *496:12 *968:103 0.00011852
*RES
1 *4538:Y *496:12 11.915 
2 *496:12 *4541:B 3.46 
3 *496:12 *4539:B 1.6 
*END

*D_NET *497 0.00194677
*CONN
*I *4540:A I *D sky130_fd_sc_hd__inv_2
*I *4585:A2 I *D sky130_fd_sc_hd__a211o_1
*I *4584:A2 I *D sky130_fd_sc_hd__a21o_1
*I *4539:Y O *D sky130_fd_sc_hd__nand2_1
*CAP
1 *4540:A 0.000101384
2 *4585:A2 0.000245717
3 *4584:A2 5.89621e-05
4 *4539:Y 0
5 *497:19 0.000525587
6 *497:4 0.000237449
7 *4540:A *4544:B1 1.71013e-05
8 *4540:A *499:30 3.69251e-05
9 *4584:A2 *968:103 8.48354e-05
10 *4585:A2 *4585:B1 8.38856e-05
11 *4585:A2 *4586:B 0
12 *4585:A2 *499:8 4.91189e-05
13 *4585:A2 *499:30 4.99874e-05
14 *4585:A2 *542:10 0
15 *497:19 *4539:A 6.97202e-05
16 *497:19 *828:12 2.96334e-05
17 *4541:B *497:19 8.73389e-06
18 *4585:A1 *4584:A2 5.56629e-05
19 *462:19 *4584:A2 0.000175901
20 *496:12 *4584:A2 0.000116165
*RES
1 *4539:Y *497:4 1.6 
2 *497:4 *4584:A2 8.255 
3 *497:4 *497:19 4.175 
4 *497:19 *4585:A2 8.55 
5 *497:19 *4540:A 5.235 
*END

*D_NET *498 0.00109768
*CONN
*I *4542:A1 I *D sky130_fd_sc_hd__o21a_1
*I *4543:B I *D sky130_fd_sc_hd__nor3_1
*I *4540:Y O *D sky130_fd_sc_hd__inv_2
*CAP
1 *4542:A1 0
2 *4543:B 1.59296e-05
3 *4540:Y 0.000192999
4 *498:14 0.000208929
5 *4543:B *4543:C 0.000136552
6 *498:14 *4543:C 4.82919e-05
7 *498:14 *4544:A1 2.03356e-05
8 *498:14 *4545:B1 3.09164e-05
9 *498:14 *4545:C1 0.000117832
10 *498:14 *499:30 0.000113237
11 *498:14 *836:46 1.1561e-05
12 *498:14 *836:65 4.41506e-05
13 *498:14 *838:122 5.36384e-06
14 *498:14 *966:100 6.1357e-05
15 *4542:B1 *498:14 2.75229e-05
16 *4895:D *498:14 0
17 *462:15 *4543:B 2.05056e-05
18 *462:15 *498:14 4.21973e-05
*RES
1 *4540:Y *498:14 10.205 
2 *498:14 *4543:B 2.395 
3 *498:14 *4542:A1 1.6 
*END

*D_NET *499 0.0023451
*CONN
*I *4542:A2 I *D sky130_fd_sc_hd__o21a_1
*I *4543:C I *D sky130_fd_sc_hd__nor3_1
*I *4584:B1 I *D sky130_fd_sc_hd__a21o_1
*I *4585:B1 I *D sky130_fd_sc_hd__a211o_1
*I *4541:Y O *D sky130_fd_sc_hd__nor2_1
*CAP
1 *4542:A2 0
2 *4543:C 7.127e-05
3 *4584:B1 0
4 *4585:B1 7.43009e-05
5 *4541:Y 0
6 *499:30 0.000281171
7 *499:8 0.000114136
8 *499:6 0.000249735
9 *4543:C *966:100 0.000162311
10 *4585:B1 *540:12 9.50342e-06
11 *4585:B1 *968:111 0
12 *499:30 *4544:A1 0.000116158
13 *499:30 *4544:B1 0.00018471
14 *499:30 *836:46 4.21314e-05
15 *499:30 *966:100 0.000124895
16 *499:30 *968:103 0
17 *4540:A *499:30 3.69251e-05
18 *4542:B1 *4543:C 0
19 *4543:B *4543:C 0.000136552
20 *4585:A1 *4585:B1 0.000103192
21 *4585:A1 *499:8 2.68721e-05
22 *4585:A2 *4585:B1 8.38856e-05
23 *4585:A2 *499:8 4.91189e-05
24 *4585:A2 *499:30 4.99874e-05
25 *462:15 *4543:C 8.8266e-05
26 *462:19 *499:8 4.05358e-05
27 *462:19 *499:30 0.00013791
28 *498:14 *4543:C 4.82919e-05
29 *498:14 *499:30 0.000113237
*RES
1 *4541:Y *499:6 3.6 
2 *499:6 *499:8 1.38 
3 *499:8 *4585:B1 6 
4 *499:8 *4584:B1 3.6 
5 *499:6 *499:30 8.345 
6 *499:30 *4543:C 4.495 
7 *499:30 *4542:A2 1.6 
*END

*D_NET *500 0.000485264
*CONN
*I *4544:A1 I *D sky130_fd_sc_hd__o21ai_1
*I *4542:X O *D sky130_fd_sc_hd__o21a_1
*CAP
1 *4544:A1 0.000104593
2 *4542:X 0.000104593
3 *4544:A1 *836:65 1.08758e-05
4 *4542:B1 *4544:A1 1.08758e-05
5 *462:19 *4544:A1 0.000117832
6 *498:14 *4544:A1 2.03356e-05
7 *499:30 *4544:A1 0.000116158
*RES
1 *4542:X *4544:A1 9.375 
*END

*D_NET *501 0.000550155
*CONN
*I *4544:A2 I *D sky130_fd_sc_hd__o21ai_1
*I *4543:Y O *D sky130_fd_sc_hd__nor3_1
*CAP
1 *4544:A2 0.000198087
2 *4543:Y 0.000198087
3 *4544:A2 *827:22 0
4 *4544:A2 *838:118 0
5 *4544:A2 *838:122 5.85354e-05
6 *4544:A2 *968:103 9.54469e-05
*RES
1 *4543:Y *4544:A2 10.515 
*END

*D_NET *502 0.000312015
*CONN
*I *4545:C1 I *D sky130_fd_sc_hd__o211a_1
*I *4544:Y O *D sky130_fd_sc_hd__o21ai_1
*CAP
1 *4545:C1 3.46078e-05
2 *4544:Y 3.46078e-05
3 *4545:C1 *4544:B1 0.000115464
4 *4545:C1 *836:46 9.50342e-06
5 *498:14 *4545:C1 0.000117832
*RES
1 *4544:Y *4545:C1 8.58 
*END

*D_NET *503 0.00366817
*CONN
*I *4572:A_N I *D sky130_fd_sc_hd__nand2b_1
*I *4573:A I *D sky130_fd_sc_hd__xnor2_1
*I *4546:Y O *D sky130_fd_sc_hd__a21oi_1
*CAP
1 *4572:A_N 0.000254368
2 *4573:A 0
3 *4546:Y 0.0014812
4 *503:12 0.00173557
5 *4572:A_N *4573:B 0
6 *4572:A_N *525:12 0
7 *4572:A_N *527:12 0.000118063
8 *4462:B *503:12 0
9 *4546:A1 *503:12 7.89689e-05
*RES
1 *4546:Y *503:12 28.1 
2 *503:12 *4573:A 1.6 
3 *503:12 *4572:A_N 9.665 
*END

*D_NET *504 0.002463
*CONN
*I *4551:A I *D sky130_fd_sc_hd__and2_1
*I *4552:A I *D sky130_fd_sc_hd__xor2_1
*I *4547:X O *D sky130_fd_sc_hd__a31o_1
*CAP
1 *4551:A 2.8951e-05
2 *4552:A 0
3 *4547:X 0.000411767
4 *504:20 0.000440718
5 *4551:A *4551:B 0.000188957
6 *504:20 *4512:A 8.8266e-05
7 *504:20 *4512:B 8.23457e-05
8 *504:20 *4551:B 4.82919e-05
9 *504:20 *978:96 0
10 *504:20 *979:42 0
11 *4516:A *504:20 4.75643e-05
12 *4516:B *504:20 4.66108e-05
13 *474:14 *504:20 0.000526262
14 *480:18 *4551:A 0.000200615
15 *480:18 *504:20 0.000352655
*RES
1 *4547:X *504:20 16.385 
2 *504:20 *4552:A 1.6 
3 *504:20 *4551:A 3.43 
*END

*D_NET *505 0.000255681
*CONN
*I *4550:A I *D sky130_fd_sc_hd__nor2_1
*I *4548:X O *D sky130_fd_sc_hd__o2bb2a_1
*CAP
1 *4550:A 4.90956e-05
2 *4548:X 4.90956e-05
3 *4550:A *511:16 4.99619e-05
4 *4550:A *977:31 9.72742e-06
5 *4550:A *977:46 9.78003e-05
*RES
1 *4548:X *4550:A 4.61 
*END

*D_NET *506 0.00204302
*CONN
*I *4595:A I *D sky130_fd_sc_hd__nand2_1
*I *4596:A I *D sky130_fd_sc_hd__xnor2_1
*I *4550:B I *D sky130_fd_sc_hd__nor2_1
*I *4549:X O *D sky130_fd_sc_hd__and4b_1
*CAP
1 *4595:A 0
2 *4596:A 0.000166943
3 *4550:B 0.00012056
4 *4549:X 2.77576e-05
5 *506:23 0.000382116
6 *506:6 0.00036349
7 *4550:B *796:25 0
8 *4550:B *977:46 3.09233e-05
9 *4550:B *998:92 0
10 *4596:A *4596:B 0.000134434
11 *506:6 *519:22 7.17415e-05
12 *506:6 *546:10 0.000163199
13 *506:23 *519:22 0.000464696
14 *506:23 *546:10 0.000117162
*RES
1 *4549:X *506:6 3.085 
2 *506:6 *4550:B 7.49 
3 *506:6 *506:23 5.655 
4 *506:23 *4596:A 4.495 
5 *506:23 *4595:A 1.6 
*END

*D_NET *507 0.00176168
*CONN
*I *4551:B I *D sky130_fd_sc_hd__and2_1
*I *4552:B I *D sky130_fd_sc_hd__xor2_1
*I *4550:Y O *D sky130_fd_sc_hd__nor2_1
*CAP
1 *4551:B 7.49607e-05
2 *4552:B 0
3 *4550:Y 0.000303645
4 *507:12 0.000378605
5 *507:12 *509:10 0
6 *507:12 *511:16 0.000236355
7 *507:12 *796:25 0.000296081
8 *4551:A *4551:B 0.000188957
9 *474:14 *4551:B 0.000188727
10 *480:18 *4551:B 4.60584e-05
11 *504:20 *4551:B 4.82919e-05
*RES
1 *4550:Y *507:12 11.195 
2 *507:12 *4552:B 1.6 
3 *507:12 *4551:B 4.825 
*END

*D_NET *508 0.000391495
*CONN
*I *4589:B1 I *D sky130_fd_sc_hd__a21o_1
*I *4551:X O *D sky130_fd_sc_hd__and2_1
*CAP
1 *4589:B1 0.000109157
2 *4551:X 0.000109157
3 *4589:B1 *4553:B 8.65905e-05
4 *4589:B1 *509:10 0
5 *4553:A *4589:B1 8.65905e-05
6 *465:23 *4589:B1 0
*RES
1 *4551:X *4589:B1 9.375 
*END

*D_NET *509 0.000886564
*CONN
*I *4553:B I *D sky130_fd_sc_hd__xnor2_1
*I *4589:A2 I *D sky130_fd_sc_hd__a21o_1
*I *4552:X O *D sky130_fd_sc_hd__xor2_1
*CAP
1 *4553:B 7.99214e-05
2 *4589:A2 0
3 *4552:X 0.000167519
4 *509:10 0.000247441
5 *509:10 *796:25 0
6 *4553:A *4553:B 0.000100314
7 *4589:B1 *4553:B 8.65905e-05
8 *4589:B1 *509:10 0
9 *465:23 *509:10 9.50342e-06
10 *478:12 *4553:B 0.000164352
11 *479:18 *509:10 3.09233e-05
12 *507:12 *509:10 0
*RES
1 *4552:X *509:10 8 
2 *509:10 *4589:A2 1.6 
3 *509:10 *4553:B 4.48 
*END

*D_NET *510 0.00437162
*CONN
*I *4568:A I *D sky130_fd_sc_hd__xnor2_1
*I *4607:A1 I *D sky130_fd_sc_hd__o21ai_1
*I *4553:Y O *D sky130_fd_sc_hd__xnor2_1
*CAP
1 *4568:A 0.000249532
2 *4607:A1 0.000103485
3 *4553:Y 0.00088991
4 *510:6 0.00124293
5 *4568:A *4567:B 0.00011852
6 *4568:A *4568:B 4.99619e-05
7 *4607:A1 *4565:A_N 4.66108e-05
8 *4607:A1 *4567:A 4.787e-05
9 *4607:A1 *4607:A2 0.00023468
10 *4607:A1 *4607:B1 4.37709e-05
11 *4607:A1 *520:23 2.67569e-05
12 *4607:A1 *521:10 8.09753e-05
13 *4607:A1 *545:16 2.7441e-05
14 *510:6 *521:6 0.000736873
15 *510:6 *521:10 1.12578e-05
16 *11:9 *4568:A 0.000100308
17 *478:12 *510:6 0.000360737
18 *482:12 *4568:A 0
*RES
1 *4553:Y *510:6 14.125 
2 *510:6 *4607:A1 5.095 
3 *510:6 *4568:A 10.505 
*END

*D_NET *511 0.00842314
*CONN
*I *4627:A1 I *D sky130_fd_sc_hd__o21ai_1
*I *4602:A1 I *D sky130_fd_sc_hd__o21ai_1
*I *4555:B I *D sky130_fd_sc_hd__nor2_2
*I *4554:Y O *D sky130_fd_sc_hd__a21oi_2
*CAP
1 *4627:A1 0.000252037
2 *4602:A1 0
3 *4555:B 0
4 *4554:Y 0.00275455
5 *511:23 0.000311192
6 *511:16 0.0028137
7 *4627:A1 *4563:A 2.86623e-05
8 *4627:A1 *4602:A2 1.47347e-05
9 *4627:A1 *4627:A2 4.99619e-05
10 *4627:A1 *512:10 0.000173965
11 *4627:A1 *512:12 4.43871e-06
12 *4627:A1 *557:12 2.75229e-05
13 *4627:A1 *558:12 3.64998e-06
14 *511:16 *4554:A2 0.000162575
15 *511:16 *519:22 0.000337391
16 *511:16 *977:46 6.26945e-05
17 *511:16 *979:36 0.000500662
18 *511:16 *998:82 0.000262227
19 *511:16 *998:84 2.66935e-05
20 *511:16 *998:92 1.43521e-05
21 *511:23 *4602:A2 1.34594e-05
22 *511:23 *512:8 5.05437e-05
23 *511:23 *519:22 3.64998e-06
24 *4515:A_N *511:16 0.000237249
25 *4550:A *511:16 4.99619e-05
26 *4627:B1 *4627:A1 0
27 *479:33 *4627:A1 3.09164e-05
28 *507:12 *511:16 0.000236355
*RES
1 *4554:Y *511:16 45.245 
2 *511:16 *4555:B 1.6 
3 *511:16 *511:23 1.14 
4 *511:23 *4602:A1 1.6 
5 *511:23 *4627:A1 11.03 
*END

*D_NET *512 0.00277786
*CONN
*I *4563:A I *D sky130_fd_sc_hd__xnor2_1
*I *4601:A I *D sky130_fd_sc_hd__xnor2_1
*I *4626:A I *D sky130_fd_sc_hd__xor2_1
*I *4658:B I *D sky130_fd_sc_hd__nor3_1
*I *4555:Y O *D sky130_fd_sc_hd__nor2_2
*CAP
1 *4563:A 0.000133542
2 *4601:A 3.64111e-05
3 *4626:A 2.43002e-05
4 *4658:B 0.00014412
5 *4555:Y 1.71225e-05
6 *512:12 0.000548251
7 *512:10 0.00057824
8 *512:8 0.000312663
9 *4563:A *4563:B 7.96996e-05
10 *4601:A *4627:A2 8.65905e-05
11 *4626:A *591:6 2.75145e-05
12 *4658:B *4626:B 7.89767e-05
13 *4658:B *4658:C 8.65961e-05
14 *4658:B *611:10 2.30292e-05
15 *512:8 *4602:A2 8.65905e-05
16 *512:10 *4563:B 1.22762e-05
17 *512:12 *4626:B 1.34361e-05
18 *512:12 *556:18 4.19967e-05
19 *512:12 *582:12 0
20 *4627:A1 *4563:A 2.86623e-05
21 *4627:A1 *512:10 0.000173965
22 *4627:A1 *512:12 4.43871e-06
23 *4658:A *4658:B 0.00012657
24 *478:22 *512:10 0
25 *478:22 *512:12 0
26 *479:33 *4563:A 6.23206e-05
27 *511:23 *512:8 5.05437e-05
*RES
1 *4555:Y *512:8 4.395 
2 *512:8 *512:10 3.675 
3 *512:10 *512:12 6.48 
4 *512:12 *4658:B 6.885 
5 *512:12 *4626:A 4.05 
6 *512:10 *4601:A 4.395 
7 *512:8 *4563:A 6.795 
*END

*D_NET *513 0.000687524
*CONN
*I *4560:C I *D sky130_fd_sc_hd__nand4_1
*I *4561:B1 I *D sky130_fd_sc_hd__a22o_1
*I *4556:X O *D sky130_fd_sc_hd__a22o_1
*CAP
1 *4560:C 9.621e-05
2 *4561:B1 1.58461e-05
3 *4556:X 6.54034e-05
4 *513:8 0.00017746
5 *4560:C *4561:A2 0
6 *4560:C *4562:B 9.52367e-05
7 *4560:C *978:20 2.05056e-05
8 *4560:C *996:19 1.12578e-05
9 *4560:C *996:28 9.52646e-05
10 *4561:B1 *4561:A2 5.4155e-06
11 *4561:B1 *978:20 0
12 *513:8 *978:20 0.000104924
*RES
1 *4556:X *513:8 3.1 
2 *513:8 *4561:B1 1.96 
3 *513:8 *4560:C 4.135 
*END

*D_NET *514 0.000892432
*CONN
*I *4660:B1 I *D sky130_fd_sc_hd__a21oi_2
*I *4630:B1 I *D sky130_fd_sc_hd__a31o_1
*I *4557:X O *D sky130_fd_sc_hd__and3_1
*CAP
1 *4660:B1 0.000229121
2 *4630:B1 0
3 *4557:X 9.64639e-05
4 *514:8 0.000325585
5 *4660:B1 *4630:A3 4.08514e-05
6 *4660:B1 *4660:A1 0
7 *4660:B1 *585:10 3.64998e-06
8 *4660:B1 *977:31 0
9 *4660:B1 *978:73 4.82863e-05
10 *4660:B1 *994:63 1.22676e-05
11 *4660:B1 *994:69 4.40899e-05
12 *514:8 *978:73 9.21168e-05
*RES
1 *4557:X *514:8 3.445 
2 *514:8 *4630:B1 1.6 
3 *514:8 *4660:B1 9.575 
*END

*D_NET *515 0.00103158
*CONN
*I *4598:A I *D sky130_fd_sc_hd__and2_1
*I *4624:B1 I *D sky130_fd_sc_hd__a22oi_1
*I *4558:Y O *D sky130_fd_sc_hd__nand3_1
*CAP
1 *4598:A 9.43274e-05
2 *4624:B1 2.84266e-05
3 *4558:Y 6.09795e-05
4 *515:6 0.000183733
5 *4598:A *4598:B 7.09999e-05
6 *4624:B1 *4624:A1 9.53428e-06
7 *4624:B1 *992:62 1.66023e-05
8 *515:6 *4624:A1 1.83847e-05
9 *515:6 *983:10 0.000122331
10 *515:6 *983:54 0.000189845
11 *515:6 *992:62 0.000235162
12 *515:6 *992:79 1.25159e-06
*RES
1 *4558:Y *515:6 4.465 
2 *515:6 *4624:B1 2.215 
3 *515:6 *4598:A 7.235 
*END

*D_NET *516 0.00231917
*CONN
*I *4590:A I *D sky130_fd_sc_hd__nand2_1
*I *4560:D I *D sky130_fd_sc_hd__nand4_1
*I *4561:B2 I *D sky130_fd_sc_hd__a22o_1
*I *4559:Y O *D sky130_fd_sc_hd__nand4_1
*CAP
1 *4590:A 0.000338032
2 *4560:D 0
3 *4561:B2 8.00157e-05
4 *4559:Y 7.91278e-05
5 *516:23 0.000598529
6 *516:6 0.00041964
7 *4561:B2 *4556:A1 0
8 *4561:B2 *978:28 1.22762e-05
9 *4561:B2 *994:30 0
10 *4561:B2 *994:43 0
11 *4590:A *4560:A 0
12 *4590:A *4562:B 0.000102616
13 *4590:A *4590:B 2.14672e-05
14 *4590:A *517:8 0.000203051
15 *4590:A *519:22 4.21973e-05
16 *4590:A *546:10 2.75229e-05
17 *4590:A *978:28 0
18 *516:6 *4599:B 0.00012657
19 *516:23 *4560:A 0
20 *516:23 *4599:B 0.000268129
21 *516:23 *4968:A 0
22 *516:23 *978:28 0
23 *516:23 *996:49 0
*RES
1 *4559:Y *516:6 2.74 
2 *516:6 *4561:B2 6.98 
3 *516:6 *516:23 5.9 
4 *516:23 *4560:D 3.6 
5 *516:23 *4590:A 9.105 
*END

*D_NET *517 0.000522077
*CONN
*I *4590:B I *D sky130_fd_sc_hd__nand2_1
*I *4562:A I *D sky130_fd_sc_hd__nand2_1
*I *4560:Y O *D sky130_fd_sc_hd__nand4_1
*CAP
1 *4590:B 1.10421e-05
2 *4562:A 0
3 *4560:Y 4.94569e-05
4 *517:8 6.0499e-05
5 *4590:B *519:22 4.82919e-05
6 *517:8 *4562:B 0.00010427
7 *517:8 *519:22 1.47256e-05
8 *517:8 *996:49 9.27255e-06
9 *4590:A *4590:B 2.14672e-05
10 *4590:A *517:8 0.000203051
*RES
1 *4560:Y *517:8 3.7 
2 *517:8 *4562:A 1.6 
3 *517:8 *4590:B 2.05 
*END

*D_NET *518 0.000563877
*CONN
*I *4562:B I *D sky130_fd_sc_hd__nand2_1
*I *4561:X O *D sky130_fd_sc_hd__a22o_1
*CAP
1 *4562:B 8.36955e-05
2 *4561:X 8.36955e-05
3 *4562:B *996:28 1.82667e-05
4 *4562:B *996:49 7.60965e-05
5 *4560:C *4562:B 9.52367e-05
6 *4590:A *4562:B 0.000102616
7 *517:8 *4562:B 0.00010427
*RES
1 *4561:X *4562:B 6.2 
*END

*D_NET *519 0.00667247
*CONN
*I *4602:A2 I *D sky130_fd_sc_hd__o21ai_1
*I *4563:B I *D sky130_fd_sc_hd__xnor2_1
*I *4562:Y O *D sky130_fd_sc_hd__nand2_1
*CAP
1 *4602:A2 0.000106919
2 *4563:B 0.000104468
3 *4562:Y 0.00190637
4 *519:22 0.00211776
5 *519:22 *4549:A_N 7.23635e-05
6 *519:22 *4549:D 2.05864e-05
7 *519:22 *4632:A_N 0.000130445
8 *519:22 *546:10 6.48624e-05
9 *519:22 *550:12 1.0183e-05
10 *519:22 *796:25 0
11 *519:22 *996:49 4.82863e-05
12 *519:22 *998:92 3.58657e-05
13 *519:22 *998:98 2.49909e-05
14 *519:22 *1000:43 8.40213e-05
15 *519:22 *1000:124 0.000606851
16 *4563:A *4563:B 7.96996e-05
17 *4590:A *519:22 4.21973e-05
18 *4590:B *519:22 4.82919e-05
19 *4627:A1 *4602:A2 1.47347e-05
20 *478:16 *4563:B 0.000105068
21 *478:22 *4563:B 4.39734e-05
22 *479:33 *4563:B 0
23 *506:6 *519:22 7.17415e-05
24 *506:23 *519:22 0.000464696
25 *511:16 *519:22 0.000337391
26 *511:23 *4602:A2 1.34594e-05
27 *511:23 *519:22 3.64998e-06
28 *512:8 *4602:A2 8.65905e-05
29 *512:10 *4563:B 1.22762e-05
30 *517:8 *519:22 1.47256e-05
*RES
1 *4562:Y *519:22 36.92 
2 *519:22 *4563:B 8.51 
3 *519:22 *4602:A2 3.085 
*END

*D_NET *520 0.00196761
*CONN
*I *4567:A I *D sky130_fd_sc_hd__xnor2_1
*I *4565:B I *D sky130_fd_sc_hd__nand2b_1
*I *4566:A_N I *D sky130_fd_sc_hd__and2b_1
*I *4563:Y O *D sky130_fd_sc_hd__xnor2_1
*CAP
1 *4567:A 0.000130482
2 *4565:B 0
3 *4566:A_N 0
4 *4563:Y 0.000454585
5 *520:23 0.000201595
6 *520:12 0.000525698
7 *4567:A *545:16 2.27789e-05
8 *520:23 *4565:A_N 3.66286e-05
9 *520:23 *4607:B1 0
10 *520:23 *521:6 4.58257e-05
11 *520:23 *521:10 8.8266e-05
12 *520:23 *545:16 0.000275803
13 *4607:A1 *4567:A 4.787e-05
14 *4607:A1 *520:23 2.67569e-05
15 *11:9 *4567:A 0.000111324
16 *11:9 *520:12 0
17 *479:33 *520:12 0
*RES
1 *4563:Y *520:12 12.23 
2 *520:12 *4566:A_N 1.6 
3 *520:12 *520:23 2.98875 
4 *520:23 *4565:B 1.6 
5 *520:23 *4567:A 8.44625 
*END

*D_NET *521 0.00225929
*CONN
*I *4566:B I *D sky130_fd_sc_hd__and2b_1
*I *4565:A_N I *D sky130_fd_sc_hd__nand2b_1
*I *4567:B I *D sky130_fd_sc_hd__xnor2_1
*I *4564:Y O *D sky130_fd_sc_hd__a21oi_1
*CAP
1 *4566:B 0
2 *4565:A_N 1.10148e-05
3 *4567:B 0.00015919
4 *4564:Y 0.000138252
5 *521:10 0.00021168
6 *521:6 0.000179727
7 *521:6 *545:16 0.00020144
8 *4568:A *4567:B 0.00011852
9 *4607:A1 *4565:A_N 4.66108e-05
10 *4607:A1 *521:10 8.09753e-05
11 *11:9 *4567:B 0.000181376
12 *478:12 *521:6 1.16578e-05
13 *510:6 *521:6 0.000736873
14 *510:6 *521:10 1.12578e-05
15 *520:23 *4565:A_N 3.66286e-05
16 *520:23 *521:6 4.58257e-05
17 *520:23 *521:10 8.8266e-05
*RES
1 *4564:Y *521:6 8.26 
2 *521:6 *521:10 1.41 
3 *521:10 *4567:B 8.54 
4 *521:10 *4565:A_N 2.05 
5 *521:6 *4566:B 1.6 
*END

*D_NET *522 0.000364429
*CONN
*I *4607:B1 I *D sky130_fd_sc_hd__o21ai_1
*I *4565:Y O *D sky130_fd_sc_hd__nand2b_1
*CAP
1 *4607:B1 5.9246e-05
2 *4565:Y 5.9246e-05
3 *4607:B1 *4607:A2 1.61831e-05
4 *4607:B1 *545:16 0.000164874
5 *4607:B1 *563:8 2.11084e-05
6 *4607:A1 *4607:B1 4.37709e-05
7 *520:23 *4607:B1 0
*RES
1 *4565:Y *4607:B1 5.3 
*END

*D_NET *523 0.000529009
*CONN
*I *4607:A2 I *D sky130_fd_sc_hd__o21ai_1
*I *4566:X O *D sky130_fd_sc_hd__and2b_1
*CAP
1 *4607:A2 0.000139073
2 *4566:X 0.000139073
3 *4607:A1 *4607:A2 0.00023468
4 *4607:B1 *4607:A2 1.61831e-05
*RES
1 *4566:X *4607:A2 5.72 
*END

*D_NET *524 0.00049037
*CONN
*I *4568:B I *D sky130_fd_sc_hd__xnor2_1
*I *4567:Y O *D sky130_fd_sc_hd__xnor2_1
*CAP
1 *4568:B 0.000206447
2 *4567:Y 0.000206447
3 *4568:B *525:12 2.75145e-05
4 *4568:A *4568:B 4.99619e-05
5 *11:9 *4568:B 0
*RES
1 *4567:Y *4568:B 10.665 
*END

*D_NET *525 0.00161917
*CONN
*I *4570:B I *D sky130_fd_sc_hd__nand2b_1
*I *4571:A I *D sky130_fd_sc_hd__xnor2_1
*I *4568:Y O *D sky130_fd_sc_hd__xnor2_1
*CAP
1 *4570:B 0.000114049
2 *4571:A 0
3 *4568:Y 0.000553781
4 *525:12 0.00066783
5 *4570:B *4570:A_N 0.000129174
6 *4570:B *4572:B 7.68586e-05
7 *4570:B *4573:B 4.99619e-05
8 *525:12 *650:12 0
9 *4568:B *525:12 2.75145e-05
10 *4572:A_N *525:12 0
11 *485:12 *525:12 0
*RES
1 *4568:Y *525:12 13.49 
2 *525:12 *4571:A 1.6 
3 *525:12 *4570:B 4.60375 
*END

*D_NET *526 0.00185681
*CONN
*I *4570:A_N I *D sky130_fd_sc_hd__nand2b_1
*I *4571:B I *D sky130_fd_sc_hd__xnor2_1
*I *4569:Y O *D sky130_fd_sc_hd__a21boi_1
*CAP
1 *4570:A_N 0.000124388
2 *4571:B 0
3 *4569:Y 0.00026257
4 *526:6 0.000386958
5 *4528:A *526:6 0.000250798
6 *4529:A2 *526:6 0.000124007
7 *4570:B *4570:A_N 0.000129174
8 *485:20 *526:6 0.000460921
9 *486:10 *526:6 6.97118e-05
10 *487:12 *526:6 4.82863e-05
*RES
1 *4569:Y *526:6 9.295 
2 *526:6 *4571:B 1.6 
3 *526:6 *4570:A_N 4.135 
*END

*D_NET *527 0.00160893
*CONN
*I *4612:A I *D sky130_fd_sc_hd__nand3_1
*I *4611:A1 I *D sky130_fd_sc_hd__a21oi_1
*I *4570:Y O *D sky130_fd_sc_hd__nand2b_1
*CAP
1 *4612:A 0.000175768
2 *4611:A1 0
3 *4570:Y 0.000469311
4 *527:12 0.000645079
5 *4612:A *4612:B 0.000110695
6 *4612:A *4612:C 4.82919e-05
7 *4612:A *567:10 9.27255e-06
8 *4612:A *568:10 4.9253e-06
9 *527:12 *4573:B 0
10 *527:12 *4612:B 2.75229e-05
11 *4572:A_N *527:12 0.000118063
*RES
1 *4570:Y *527:12 11.315 
2 *527:12 *4611:A1 1.6 
3 *527:12 *4612:A 4.6 
*END

*D_NET *528 0.000906405
*CONN
*I *4572:B I *D sky130_fd_sc_hd__nand2b_1
*I *4573:B I *D sky130_fd_sc_hd__xnor2_1
*I *4571:Y O *D sky130_fd_sc_hd__xnor2_1
*CAP
1 *4572:B 0.000250904
2 *4573:B 0.000138889
3 *4571:Y 0
4 *528:4 0.000389792
5 *4570:B *4572:B 7.68586e-05
6 *4570:B *4573:B 4.99619e-05
7 *4572:A_N *4573:B 0
8 *527:12 *4573:B 0
*RES
1 *4571:Y *528:4 1.6 
2 *528:4 *4573:B 7.685 
3 *528:4 *4572:B 4.84375 
*END

*D_NET *529 0.00104116
*CONN
*I *4612:B I *D sky130_fd_sc_hd__nand3_1
*I *4611:A2 I *D sky130_fd_sc_hd__a21oi_1
*I *4572:Y O *D sky130_fd_sc_hd__nand2b_1
*CAP
1 *4612:B 7.21615e-05
2 *4611:A2 0
3 *4572:Y 0.000311469
4 *529:12 0.00038363
5 *4612:B *4612:C 4.82919e-05
6 *4612:B *567:10 5.34747e-05
7 *529:12 *566:10 3.39151e-05
8 *4612:A *4612:B 0.000110695
9 *527:12 *4612:B 2.75229e-05
*RES
1 *4572:Y *529:12 9.5 
2 *529:12 *4611:A2 1.6 
3 *529:12 *4612:B 3.775 
*END

*D_NET *530 0.00126403
*CONN
*I *4574:C I *D sky130_fd_sc_hd__or3_1
*I *4575:B1 I *D sky130_fd_sc_hd__o21a_1
*I *4576:B1 I *D sky130_fd_sc_hd__o21ai_1
*I *4573:Y O *D sky130_fd_sc_hd__xnor2_1
*CAP
1 *4574:C 4.60201e-05
2 *4575:B1 0
3 *4576:B1 0
4 *4573:Y 0.000362814
5 *530:19 0.000124569
6 *530:10 0.000441362
7 *4532:C1 *530:10 0
8 *4574:A *4574:C 0.000114912
9 *4574:A *530:19 0.00012657
10 *4576:A1 *530:19 1.37328e-05
11 *488:36 *530:19 3.40537e-05
12 *489:10 *530:10 0
13 *491:10 *530:10 0
*RES
1 *4573:Y *530:10 11.06 
2 *530:10 *4576:B1 1.6 
3 *530:10 *530:19 1.845 
4 *530:19 *4575:B1 1.6 
5 *530:19 *4574:C 2.74 
*END

*D_NET *531 0.00256712
*CONN
*I *4577:A I *D sky130_fd_sc_hd__nand2_1
*I *4614:A1 I *D sky130_fd_sc_hd__a21o_1
*I *4647:A1 I *D sky130_fd_sc_hd__a21o_1
*I *4574:X O *D sky130_fd_sc_hd__or3_1
*CAP
1 *4577:A 0.000163303
2 *4614:A1 0
3 *4647:A1 0.000289976
4 *4574:X 0.000199122
5 *531:21 0.000204426
6 *531:8 0.000530222
7 *4577:A *4649:C1 6.36578e-05
8 *4577:A *968:111 0.000159957
9 *4647:A1 *968:111 0.000449554
10 *531:8 *532:8 0.000316415
11 *531:21 *968:111 7.47215e-05
12 *181:56 *4577:A 0.00011577
*RES
1 *4574:X *531:8 6.465 
2 *531:8 *4647:A1 8.685 
3 *531:8 *531:21 0.87 
4 *531:21 *4614:A1 3.6 
5 *531:21 *4577:A 7.32 
*END

*D_NET *532 0.00155445
*CONN
*I *4648:A1 I *D sky130_fd_sc_hd__a21o_1
*I *4614:B1 I *D sky130_fd_sc_hd__a21o_1
*I *4575:X O *D sky130_fd_sc_hd__o21a_1
*CAP
1 *4648:A1 9.20011e-05
2 *4614:B1 1.90984e-05
3 *4575:X 0.000250972
4 *532:8 0.000362072
5 *4614:B1 *4614:A2 4.00541e-06
6 *4648:A1 *4614:A2 5.30673e-05
7 *4648:A1 *4615:B 0.000200615
8 *4648:A1 *4648:B1 4.82863e-05
9 *4648:A1 *4649:C1 1.61831e-05
10 *532:8 *4614:A2 4.01778e-05
11 *532:8 *4649:C1 1.33293e-05
12 *4574:A *532:8 8.8266e-05
13 *4574:B *532:8 4.99619e-05
14 *531:8 *532:8 0.000316415
*RES
1 *4575:X *532:8 7.24 
2 *532:8 *4614:B1 1.96 
3 *532:8 *4648:A1 4.48 
*END

*D_NET *533 0.00083396
*CONN
*I *4577:B I *D sky130_fd_sc_hd__nand2_1
*I *4576:Y O *D sky130_fd_sc_hd__o21ai_1
*CAP
1 *4577:B 0.000276558
2 *4576:Y 0.000276558
3 *181:56 *4577:B 0.000280844
4 *491:10 *4577:B 0
*RES
1 *4576:Y *4577:B 12.825 
*END

*D_NET *534 0.00108493
*CONN
*I *4581:A I *D sky130_fd_sc_hd__xnor2_1
*I *4577:Y O *D sky130_fd_sc_hd__nand2_1
*CAP
1 *4581:A 0.000209078
2 *4577:Y 0.000209078
3 *4581:A *4649:C1 0.000298442
4 *4581:A *968:111 0.000167716
5 *181:56 *4581:A 0.000200615
*RES
1 *4577:Y *4581:A 12.45 
*END

*D_NET *535 0.00147925
*CONN
*I *4580:A2 I *D sky130_fd_sc_hd__a21o_1
*I *4649:A1 I *D sky130_fd_sc_hd__a211o_1
*I *4578:X O *D sky130_fd_sc_hd__and4b_1
*CAP
1 *4580:A2 5.20803e-05
2 *4649:A1 0
3 *4578:X 0.000460899
4 *535:12 0.000512979
5 *4580:A2 *4580:B1 5.32116e-05
6 *4580:A2 *4649:B1 1.0831e-05
7 *4580:A2 *536:6 5.30673e-05
8 *535:12 *4649:C1 4.18603e-06
9 *535:12 *968:111 0
10 *4536:B *535:12 0.00012657
11 *4580:A1 *4580:A2 0.000172739
12 *4649:A2 *4580:A2 3.26889e-05
*RES
1 *4578:X *535:12 10.88 
2 *535:12 *4649:A1 1.6 
3 *535:12 *4580:A2 3.805 
*END

*D_NET *536 0.00124245
*CONN
*I *4580:B1 I *D sky130_fd_sc_hd__a21o_1
*I *4649:B1 I *D sky130_fd_sc_hd__a211o_1
*I *4579:X O *D sky130_fd_sc_hd__a21bo_1
*CAP
1 *4580:B1 6.92421e-05
2 *4649:B1 1.69516e-05
3 *4579:X 0.000149321
4 *536:6 0.000235515
5 *4580:B1 *604:12 0.000186393
6 *536:6 *604:12 0.000203178
7 *4580:A1 *4580:B1 1.61831e-05
8 *4580:A1 *536:6 1.12578e-05
9 *4580:A2 *4580:B1 5.32116e-05
10 *4580:A2 *4649:B1 1.0831e-05
11 *4580:A2 *536:6 5.30673e-05
12 *416:24 *536:6 0.000237301
*RES
1 *4579:X *536:6 6.19 
2 *536:6 *4649:B1 1.96 
3 *536:6 *4580:B1 3.79 
*END

*D_NET *537 0.00167534
*CONN
*I *4581:B I *D sky130_fd_sc_hd__xnor2_1
*I *4614:A2 I *D sky130_fd_sc_hd__a21o_1
*I *4580:X O *D sky130_fd_sc_hd__a21o_1
*CAP
1 *4581:B 6.14853e-05
2 *4614:A2 0.000361932
3 *4580:X 7.12469e-05
4 *537:8 0.000494664
5 *4581:B *538:8 4.82863e-05
6 *4581:B *849:24 9.2741e-05
7 *4614:A2 *4649:C1 0.00019637
8 *4614:A2 *968:111 0.000210246
9 *537:8 *4583:B 0
10 *537:8 *968:111 4.11198e-05
11 *4614:B1 *4614:A2 4.00541e-06
12 *4648:A1 *4614:A2 5.30673e-05
13 *532:8 *4614:A2 4.01778e-05
*RES
1 *4580:X *537:8 4.98 
2 *537:8 *4614:A2 11.76 
3 *537:8 *4581:B 5.085 
*END

*D_NET *538 0.00100294
*CONN
*I *4582:B I *D sky130_fd_sc_hd__nand2_1
*I *4583:B I *D sky130_fd_sc_hd__xnor2_1
*I *4581:Y O *D sky130_fd_sc_hd__xnor2_1
*CAP
1 *4582:B 6.70697e-05
2 *4583:B 0.00014737
3 *4581:Y 0.000173831
4 *538:8 0.00038827
5 *4582:B *849:24 6.90177e-05
6 *4583:B *4618:A2 0
7 *4583:B *542:10 0
8 *4583:B *968:111 0
9 *538:8 *849:24 0.000109101
10 *4581:B *538:8 4.82863e-05
11 *537:8 *4583:B 0
*RES
1 *4581:Y *538:8 5.08 
2 *538:8 *4583:B 7.745 
3 *538:8 *4582:B 3.085 
*END

*D_NET *539 0.00155639
*CONN
*I *4619:A I *D sky130_fd_sc_hd__and3_1
*I *4618:A1 I *D sky130_fd_sc_hd__a21oi_2
*I *4582:Y O *D sky130_fd_sc_hd__nand2_1
*CAP
1 *4619:A 0.00017575
2 *4618:A1 1.88809e-05
3 *4582:Y 7.52767e-05
4 *539:6 0.000269907
5 *4618:A1 *4618:A2 5.4155e-06
6 *4618:A1 *4618:B1 0
7 *4619:A *4618:B1 5.05437e-05
8 *4619:A *4619:C 1.95128e-05
9 *4619:A *4621:A2 1.31519e-05
10 *4619:A *4621:B1 3.26889e-05
11 *4619:A *574:12 1.47256e-05
12 *4619:A *849:24 0.00043044
13 *539:6 *4618:A2 0.000138808
14 *539:6 *849:24 0.000311288
*RES
1 *4582:Y *539:6 4.465 
2 *539:6 *4618:A1 1.96 
3 *539:6 *4619:A 6.91 
*END

*D_NET *540 0.00160596
*CONN
*I *4585:C1 I *D sky130_fd_sc_hd__a211o_1
*I *4586:A I *D sky130_fd_sc_hd__xnor2_1
*I *4583:Y O *D sky130_fd_sc_hd__xnor2_1
*CAP
1 *4585:C1 0
2 *4586:A 0.000215201
3 *4583:Y 0.000370851
4 *540:12 0.000586052
5 *4586:A *4587:B 0
6 *4586:A *542:10 5.34747e-05
7 *4586:A *772:118 3.59311e-05
8 *540:12 *604:12 5.73739e-05
9 *540:12 *798:16 0
10 *540:12 *968:111 0.000199981
11 *4585:A1 *4586:A 7.75867e-05
12 *4585:B1 *540:12 9.50342e-06
*RES
1 *4583:Y *540:12 12.545 
2 *540:12 *4586:A 5.53 
3 *540:12 *4585:C1 1.6 
*END

*D_NET *541 0.000540576
*CONN
*I *4586:B I *D sky130_fd_sc_hd__xnor2_1
*I *4584:X O *D sky130_fd_sc_hd__a21o_1
*CAP
1 *4586:B 0.000270288
2 *4584:X 0.000270288
3 *4586:B *542:10 0
4 *4585:A2 *4586:B 0
*RES
1 *4584:X *4586:B 10.41 
*END

*D_NET *542 0.00346125
*CONN
*I *4619:B I *D sky130_fd_sc_hd__and3_1
*I *4618:A2 I *D sky130_fd_sc_hd__a21oi_2
*I *4585:X O *D sky130_fd_sc_hd__a211o_1
*CAP
1 *4619:B 0.000373805
2 *4618:A2 0.000205874
3 *4585:X 0.000534754
4 *542:10 0.00111443
5 *4618:A2 *4582:A 7.23533e-05
6 *4618:A2 *4618:B1 0
7 *4618:A2 *604:12 8.09021e-06
8 *4619:B *849:24 0.000579417
9 *542:10 *4582:A 0.000137578
10 *542:10 *4588:A1 0
11 *542:10 *4588:C1 0
12 *542:10 *772:118 0.000237243
13 *542:10 *798:16 0
14 *542:10 *1012:23 0
15 *4583:B *4618:A2 0
16 *4583:B *542:10 0
17 *4585:A2 *542:10 0
18 *4586:A *542:10 5.34747e-05
19 *4586:B *542:10 0
20 *4618:A1 *4618:A2 5.4155e-06
21 *539:6 *4618:A2 0.000138808
*RES
1 *4585:X *542:10 13.785 
2 *542:10 *4618:A2 7.26 
3 *542:10 *4619:B 8.88 
*END

*D_NET *543 0.000360642
*CONN
*I *4587:B I *D sky130_fd_sc_hd__nand2_1
*I *4586:Y O *D sky130_fd_sc_hd__xnor2_1
*CAP
1 *4587:B 0.000109212
2 *4586:Y 0.000109212
3 *4587:B *4588:C1 2.75229e-05
4 *4587:B *772:118 6.47326e-05
5 *4587:B *1012:23 4.99619e-05
6 *4586:A *4587:B 0
*RES
1 *4586:Y *4587:B 5.645 
*END

*D_NET *544 0.000339389
*CONN
*I *4588:C1 I *D sky130_fd_sc_hd__o211a_1
*I *4587:Y O *D sky130_fd_sc_hd__nand2_1
*CAP
1 *4588:C1 0.000147842
2 *4587:Y 0.000147842
3 *4588:C1 *4588:A1 0
4 *4588:C1 *1012:23 1.61831e-05
5 *4587:B *4588:C1 2.75229e-05
6 *542:10 *4588:C1 0
*RES
1 *4587:Y *4588:C1 9.375 
*END

*D_NET *545 0.0057552
*CONN
*I *4643:A1 I *D sky130_fd_sc_hd__a21o_1
*I *4610:A I *D sky130_fd_sc_hd__xnor2_1
*I *4589:X O *D sky130_fd_sc_hd__a21o_1
*CAP
1 *4643:A1 0.000114798
2 *4610:A 2.08101e-05
3 *4589:X 0.00192113
4 *545:16 0.00205674
5 *4610:A *4643:A2 0
6 *4643:A1 *4643:A2 0.000122155
7 *545:16 *4608:B 4.29107e-05
8 *545:16 *4609:A 2.49909e-05
9 *545:16 *4643:A2 1.12578e-05
10 *545:16 *563:8 0.000142565
11 *545:16 *565:6 9.36617e-05
12 *4553:A *545:16 0.000128906
13 *4567:A *545:16 2.27789e-05
14 *4607:A1 *545:16 2.7441e-05
15 *4607:B1 *545:16 0.000164874
16 *478:12 *545:16 0.000382933
17 *520:23 *545:16 0.000275803
18 *521:6 *545:16 0.00020144
*RES
1 *4589:X *545:16 28.87 
2 *545:16 *4610:A 1.96 
3 *545:16 *4643:A1 3.775 
*END

*D_NET *546 0.0048384
*CONN
*I *4594:A I *D sky130_fd_sc_hd__xor2_1
*I *4623:A1 I *D sky130_fd_sc_hd__a21bo_1
*I *4590:Y O *D sky130_fd_sc_hd__nand2_1
*CAP
1 *4594:A 0
2 *4623:A1 0.000156257
3 *4590:Y 0.00132601
4 *546:10 0.00148226
5 *4623:A1 *4623:A2 0.000305341
6 *4623:A1 *549:12 4.82919e-05
7 *4623:A1 *550:12 0.000203178
8 *4623:A1 *796:25 5.33085e-05
9 *546:10 *4623:B1_N 0
10 *546:10 *4632:A_N 0.000569799
11 *546:10 *796:25 0.000219699
12 *546:10 *998:92 8.23457e-05
13 *546:10 *998:98 1.91597e-05
14 *4590:A *546:10 2.75229e-05
15 *506:6 *546:10 0.000163199
16 *506:23 *546:10 0.000117162
17 *519:22 *546:10 6.48624e-05
*RES
1 *4590:Y *546:10 21.885 
2 *546:10 *4623:A1 7.89 
3 *546:10 *4594:A 3.6 
*END

*D_NET *547 0.00202549
*CONN
*I *4673:A1 I *D sky130_fd_sc_hd__a21oi_2
*I *4636:A I *D sky130_fd_sc_hd__xnor2_1
*I *4593:A I *D sky130_fd_sc_hd__nor2_1
*I *4591:X O *D sky130_fd_sc_hd__and4b_1
*CAP
1 *4673:A1 0
2 *4636:A 0.000169001
3 *4593:A 0
4 *4591:X 0.000122284
5 *547:27 0.000632994
6 *547:14 0.000586277
7 *4636:A *4636:B 0.000141323
8 *4636:A *627:12 1.33293e-05
9 *547:14 *556:18 0.000142079
10 *547:27 *4673:B1 0
11 *547:27 *556:18 0.000187284
12 *547:27 *590:10 3.09164e-05
13 *547:27 *796:25 0
*RES
1 *4591:X *547:14 4.87 
2 *547:14 *4593:A 1.6 
3 *547:14 *547:27 12.43 
4 *547:27 *4636:A 4.84 
5 *547:27 *4673:A1 1.6 
*END

*D_NET *548 0.000514353
*CONN
*I *4593:B I *D sky130_fd_sc_hd__nor2_1
*I *4592:X O *D sky130_fd_sc_hd__o2bb2a_1
*CAP
1 *4593:B 0.000257177
2 *4592:X 0.000257177
3 *4593:B *796:25 0
4 *4593:B *975:74 0
*RES
1 *4592:X *4593:B 10.41 
*END

*D_NET *549 0.00120663
*CONN
*I *4623:A2 I *D sky130_fd_sc_hd__a21bo_1
*I *4594:B I *D sky130_fd_sc_hd__xor2_1
*I *4593:Y O *D sky130_fd_sc_hd__nor2_1
*CAP
1 *4623:A2 0.000113214
2 *4594:B 0
3 *4593:Y 0.000252207
4 *549:12 0.000365421
5 *4623:A2 *4623:B1_N 9.91257e-05
6 *4623:A2 *550:12 2.30292e-05
7 *549:12 *4549:D 0
8 *549:12 *796:25 0
9 *4623:A1 *4623:A2 0.000305341
10 *4623:A1 *549:12 4.82919e-05
*RES
1 *4593:Y *549:12 9.41 
2 *549:12 *4594:B 1.6 
3 *549:12 *4623:A2 5.17 
*END

*D_NET *550 0.00108348
*CONN
*I *4596:B I *D sky130_fd_sc_hd__xnor2_1
*I *4595:B I *D sky130_fd_sc_hd__nand2_1
*I *4594:X O *D sky130_fd_sc_hd__xor2_1
*CAP
1 *4596:B 6.61871e-05
2 *4595:B 0
3 *4594:X 0.000270809
4 *550:12 0.000336996
5 *550:12 *4623:B1_N 3.86607e-05
6 *4596:A *4596:B 0.000134434
7 *4623:A1 *550:12 0.000203178
8 *4623:A2 *550:12 2.30292e-05
9 *519:22 *550:12 1.0183e-05
*RES
1 *4594:X *550:12 10.52 
2 *550:12 *4595:B 1.6 
3 *550:12 *4596:B 3.1 
*END

*D_NET *551 0.000440086
*CONN
*I *4623:B1_N I *D sky130_fd_sc_hd__a21bo_1
*I *4595:Y O *D sky130_fd_sc_hd__nand2_1
*CAP
1 *4623:B1_N 0.00015115
2 *4595:Y 0.00015115
3 *4623:A2 *4623:B1_N 9.91257e-05
4 *546:10 *4623:B1_N 0
5 *550:12 *4623:B1_N 3.86607e-05
*RES
1 *4595:Y *4623:B1_N 9.555 
*END

*D_NET *552 0.00383617
*CONN
*I *4606:A I *D sky130_fd_sc_hd__xor2_1
*I *4605:A I *D sky130_fd_sc_hd__or2_1
*I *4596:Y O *D sky130_fd_sc_hd__xnor2_1
*CAP
1 *4606:A 7.18072e-05
2 *4605:A 8.39804e-05
3 *4596:Y 0.0013855
4 *552:8 0.00154128
5 *4605:A *4605:B 0.00012657
6 *4605:A *4606:B 7.47215e-05
7 *4605:A *559:8 0.000201508
8 *4606:A *4606:B 0.000109989
9 *552:8 *4603:A 9.27255e-06
10 *552:8 *4603:B 0.000138808
11 *552:8 *559:8 9.27326e-05
12 *11:9 *4606:A 0
*RES
1 *4596:Y *552:8 19.23 
2 *552:8 *4605:A 6.3 
3 *552:8 *4606:A 5.235 
*END

*D_NET *553 0.00260316
*CONN
*I *4660:A2 I *D sky130_fd_sc_hd__a21oi_2
*I *4630:A3 I *D sky130_fd_sc_hd__a31o_1
*I *4598:B I *D sky130_fd_sc_hd__and2_1
*I *4624:B2 I *D sky130_fd_sc_hd__a22oi_1
*I *4597:X O *D sky130_fd_sc_hd__o21a_1
*CAP
1 *4660:A2 0
2 *4630:A3 0.000195854
3 *4598:B 0.000147445
4 *4624:B2 0
5 *4597:X 0
6 *553:26 0.000333393
7 *553:8 0.000237059
8 *553:4 0.000227153
9 *4598:B *4557:A 0
10 *4598:B *4625:A2 0
11 *4598:B *984:46 2.96553e-05
12 *4598:B *992:79 9.3062e-06
13 *4630:A3 *4557:C 0
14 *4630:A3 *4660:A1 7.44453e-05
15 *4630:A3 *978:73 8.49205e-05
16 *553:8 *4557:A 0
17 *553:8 *992:79 5.21714e-05
18 *553:26 *4557:A 0.000163204
19 *553:26 *580:20 0.000467068
20 *553:26 *992:85 0.000469632
21 *4598:A *4598:B 7.09999e-05
22 *4660:B1 *4630:A3 4.08514e-05
*RES
1 *4597:X *553:4 1.6 
2 *553:4 *553:8 3.635 
3 *553:8 *4624:B2 3.6 
4 *553:8 *4598:B 6.255 
5 *553:4 *553:26 5.97 
6 *553:26 *4630:A3 9.08 
7 *553:26 *4660:A2 1.6 
*END

*D_NET *554 0.00174674
*CONN
*I *4600:A I *D sky130_fd_sc_hd__xor2_1
*I *4625:A2 I *D sky130_fd_sc_hd__a21oi_2
*I *4598:X O *D sky130_fd_sc_hd__and2_1
*CAP
1 *4600:A 8.56248e-05
2 *4625:A2 0.000125167
3 *4598:X 0.000209155
4 *554:8 0.000419947
5 *4600:A *792:33 0.000310629
6 *4600:A *983:60 0.000178496
7 *4625:A2 *792:33 9.84957e-05
8 *4625:A2 *978:60 0
9 *4625:A2 *978:73 8.8266e-05
10 *4625:A2 *983:54 5.05437e-05
11 *4625:A2 *983:60 0.000103966
12 *554:8 *792:25 7.64501e-05
13 *4598:B *4625:A2 0
*RES
1 *4598:X *554:8 6.12 
2 *554:8 *4625:A2 7.05 
3 *554:8 *4600:A 7.275 
*END

*D_NET *555 0.000309979
*CONN
*I *4600:B I *D sky130_fd_sc_hd__xor2_1
*I *4599:Y O *D sky130_fd_sc_hd__nand2_1
*CAP
1 *4600:B 8.59549e-05
2 *4599:Y 8.59549e-05
3 *4600:B *4599:B 9.13951e-05
4 *4600:B *1000:37 4.66742e-05
*RES
1 *4599:Y *4600:B 5.03 
*END

*D_NET *556 0.00539725
*CONN
*I *4627:A2 I *D sky130_fd_sc_hd__o21ai_1
*I *4601:B I *D sky130_fd_sc_hd__xnor2_1
*I *4600:X O *D sky130_fd_sc_hd__xor2_1
*CAP
1 *4627:A2 6.77249e-05
2 *4601:B 0
3 *4600:X 0.00213862
4 *556:18 0.00220635
5 *4627:A2 *557:12 1.61831e-05
6 *4627:A2 *578:10 0.000275553
7 *556:18 *4591:A_N 2.49909e-05
8 *556:18 *4591:B 8.50801e-06
9 *556:18 *4591:C 1.19928e-05
10 *556:18 *4591:D 3.37809e-05
11 *556:18 *978:60 0
12 *556:18 *983:60 3.42142e-05
13 *556:18 *1000:37 8.53113e-06
14 *4601:A *4627:A2 8.65905e-05
15 *4627:A1 *4627:A2 4.99619e-05
16 *478:22 *556:18 6.28843e-05
17 *512:12 *556:18 4.19967e-05
18 *547:14 *556:18 0.000142079
19 *547:27 *556:18 0.000187284
*RES
1 *4600:X *556:18 35.07 
2 *556:18 *4601:B 1.6 
3 *556:18 *4627:A2 4.12 
*END

*D_NET *557 0.00177487
*CONN
*I *4603:A I *D sky130_fd_sc_hd__nand2_1
*I *4604:A I *D sky130_fd_sc_hd__xnor2_1
*I *4601:Y O *D sky130_fd_sc_hd__xnor2_1
*CAP
1 *4603:A 0.000112042
2 *4604:A 0
3 *4601:Y 0.000433231
4 *557:12 0.000545273
5 *4603:A *4603:B 0.000188397
6 *4603:A *559:8 3.00381e-05
7 *4603:A *560:10 0.000136104
8 *557:12 *578:10 0.000159951
9 *4627:A1 *557:12 2.75229e-05
10 *4627:A2 *557:12 1.61831e-05
11 *4627:B1 *557:12 0
12 *11:9 *557:12 0.000116853
13 *552:8 *4603:A 9.27255e-06
*RES
1 *4601:Y *557:12 11.915 
2 *557:12 *4604:A 1.6 
3 *557:12 *4603:A 4.945 
*END

*D_NET *558 0.00156894
*CONN
*I *4603:B I *D sky130_fd_sc_hd__nand2_1
*I *4604:B I *D sky130_fd_sc_hd__xnor2_1
*I *4602:Y O *D sky130_fd_sc_hd__o21ai_1
*CAP
1 *4603:B 7.38693e-05
2 *4604:B 0
3 *4602:Y 0.000477886
4 *558:12 0.000551755
5 *4603:A *4603:B 0.000188397
6 *4627:A1 *558:12 3.64998e-06
7 *4627:B1 *558:12 7.35729e-05
8 *11:9 *558:12 6.10014e-05
9 *552:8 *4603:B 0.000138808
*RES
1 *4602:Y *558:12 11.57 
2 *558:12 *4604:B 1.6 
3 *558:12 *4603:B 4.135 
*END

*D_NET *559 0.00151488
*CONN
*I *4640:A I *D sky130_fd_sc_hd__and3_1
*I *4639:A1 I *D sky130_fd_sc_hd__a21oi_1
*I *4603:Y O *D sky130_fd_sc_hd__nand2_1
*CAP
1 *4640:A 7.74098e-05
2 *4639:A1 0
3 *4603:Y 0.000289687
4 *559:8 0.000367097
5 *4640:A *4639:B1 6.18754e-05
6 *4640:A *4640:B 7.89689e-05
7 *4640:A *593:10 5.53249e-06
8 *4640:A *651:14 8.08153e-06
9 *559:8 *4605:B 2.0514e-05
10 *559:8 *560:10 3.87723e-05
11 *559:8 *561:6 0.000237243
12 *559:8 *594:10 5.4155e-06
13 *4603:A *559:8 3.00381e-05
14 *4605:A *559:8 0.000201508
15 *552:8 *559:8 9.27326e-05
*RES
1 *4603:Y *559:8 8.275 
2 *559:8 *4639:A1 1.6 
3 *559:8 *4640:A 7.685 
*END

*D_NET *560 0.00116793
*CONN
*I *4605:B I *D sky130_fd_sc_hd__or2_1
*I *4606:B I *D sky130_fd_sc_hd__xor2_1
*I *4604:Y O *D sky130_fd_sc_hd__xnor2_1
*CAP
1 *4605:B 7.19075e-05
2 *4606:B 0.000115891
3 *4604:Y 0.000142828
4 *560:10 0.000330627
5 *4603:A *560:10 0.000136104
6 *4605:A *4605:B 0.00012657
7 *4605:A *4606:B 7.47215e-05
8 *4606:A *4606:B 0.000109989
9 *11:9 *4606:B 0
10 *559:8 *4605:B 2.0514e-05
11 *559:8 *560:10 3.87723e-05
*RES
1 *4604:Y *560:10 3.895 
2 *560:10 *4606:B 8 
3 *560:10 *4605:B 3.085 
*END

*D_NET *561 0.00120193
*CONN
*I *4639:A2 I *D sky130_fd_sc_hd__a21oi_1
*I *4640:B I *D sky130_fd_sc_hd__and3_1
*I *4605:X O *D sky130_fd_sc_hd__or2_1
*CAP
1 *4639:A2 0
2 *4640:B 0.000198237
3 *4605:X 9.88236e-05
4 *561:6 0.000297061
5 *4640:B *578:10 0.000161529
6 *4640:B *593:10 0
7 *4640:B *650:12 0.000130065
8 *4640:A *4640:B 7.89689e-05
9 *559:8 *561:6 0.000237243
*RES
1 *4605:X *561:6 3.775 
2 *561:6 *4640:B 9.74 
3 *561:6 *4639:A2 1.6 
*END

*D_NET *562 0.0015763
*CONN
*I *4609:A I *D sky130_fd_sc_hd__xor2_1
*I *4608:A I *D sky130_fd_sc_hd__and2_1
*I *4606:X O *D sky130_fd_sc_hd__xor2_1
*CAP
1 *4609:A 8.89951e-05
2 *4608:A 0
3 *4606:X 0.000362336
4 *562:10 0.000451331
5 *4609:A *4608:B 0.00012648
6 *4609:A *650:12 0.000154481
7 *4609:A *651:14 0
8 *562:10 *650:12 0.000367688
9 *562:10 *651:14 0
10 *545:16 *4609:A 2.49909e-05
*RES
1 *4606:X *562:10 10.65 
2 *562:10 *4608:A 3.6 
3 *562:10 *4609:A 6.3 
*END

*D_NET *563 0.00121009
*CONN
*I *4608:B I *D sky130_fd_sc_hd__and2_1
*I *4609:B I *D sky130_fd_sc_hd__xor2_1
*I *4607:Y O *D sky130_fd_sc_hd__o21ai_1
*CAP
1 *4608:B 0.000178564
2 *4609:B 0
3 *4607:Y 0.000252303
4 *563:8 0.000430867
5 *4608:B *650:12 1.52945e-05
6 *4608:B *651:14 0
7 *4607:B1 *563:8 2.11084e-05
8 *4609:A *4608:B 0.00012648
9 *545:16 *4608:B 4.29107e-05
10 *545:16 *563:8 0.000142565
*RES
1 *4607:Y *563:8 6.205 
2 *563:8 *4609:B 1.6 
3 *563:8 *4608:B 9.23 
*END

*D_NET *564 0.00110375
*CONN
*I *4643:B1 I *D sky130_fd_sc_hd__a21o_1
*I *4608:X O *D sky130_fd_sc_hd__and2_1
*CAP
1 *4643:B1 0.000551874
2 *4608:X 0.000551874
3 *4643:B1 *4645:A 0
4 *4643:B1 *4719:C1 0
*RES
1 *4608:X *4643:B1 13.515 
*END

*D_NET *565 0.000687055
*CONN
*I *4643:A2 I *D sky130_fd_sc_hd__a21o_1
*I *4610:B I *D sky130_fd_sc_hd__xnor2_1
*I *4609:X O *D sky130_fd_sc_hd__xor2_1
*CAP
1 *4643:A2 0.000115181
2 *4610:B 0
3 *4609:X 0.000114809
4 *565:6 0.00022999
5 *4610:A *4643:A2 0
6 *4643:A1 *4643:A2 0.000122155
7 *545:16 *4643:A2 1.12578e-05
8 *545:16 *565:6 9.36617e-05
*RES
1 *4609:X *565:6 3.775 
2 *565:6 *4610:B 1.6 
3 *565:6 *4643:A2 4.135 
*END

*D_NET *566 0.00155517
*CONN
*I *4612:C I *D sky130_fd_sc_hd__nand3_1
*I *4611:B1 I *D sky130_fd_sc_hd__a21oi_1
*I *4610:Y O *D sky130_fd_sc_hd__xnor2_1
*CAP
1 *4612:C 9.71884e-06
2 *4611:B1 0
3 *4610:Y 0.000702619
4 *566:10 0.000712338
5 *566:10 *4700:A 0
6 *566:10 *4719:C1 0
7 *4612:A *4612:C 4.82919e-05
8 *4612:B *4612:C 4.82919e-05
9 *529:12 *566:10 3.39151e-05
*RES
1 *4610:Y *566:10 17.18 
2 *566:10 *4611:B1 1.6 
3 *566:10 *4612:C 2.05 
*END

*D_NET *567 0.00164884
*CONN
*I *4648:B1 I *D sky130_fd_sc_hd__a21o_1
*I *4613:A_N I *D sky130_fd_sc_hd__nand2b_1
*I *4647:B1 I *D sky130_fd_sc_hd__a21o_1
*I *4611:Y O *D sky130_fd_sc_hd__a21oi_1
*CAP
1 *4648:B1 0.000128025
2 *4613:A_N 0
3 *4647:B1 0
4 *4611:Y 0.000356867
5 *567:19 0.000235592
6 *567:10 0.000464434
7 *4648:B1 *4648:A2 0.000113964
8 *4648:B1 *968:111 0
9 *567:10 *568:10 0.000182095
10 *567:10 *568:27 4.18603e-06
11 *567:10 *602:10 0
12 *567:19 *4648:A2 5.53249e-06
13 *567:19 *568:27 4.71081e-05
14 *567:19 *968:111 0
15 *4612:A *567:10 9.27255e-06
16 *4612:B *567:10 5.34747e-05
17 *4648:A1 *4648:B1 4.82863e-05
*RES
1 *4611:Y *567:10 8.79 
2 *567:10 *4647:B1 3.6 
3 *567:10 *567:19 1.89 
4 *567:19 *4613:A_N 3.6 
5 *567:19 *4648:B1 6.45 
*END

*D_NET *568 0.00138341
*CONN
*I *4648:A2 I *D sky130_fd_sc_hd__a21o_1
*I *4613:B I *D sky130_fd_sc_hd__nand2b_1
*I *4647:A2 I *D sky130_fd_sc_hd__a21o_1
*I *4612:Y O *D sky130_fd_sc_hd__nand3_1
*CAP
1 *4648:A2 0.000149218
2 *4613:B 0
3 *4647:A2 0
4 *4612:Y 0.000137459
5 *568:27 0.000375341
6 *568:10 0.000363581
7 *4648:A2 *4615:B 0
8 *4648:A2 *604:12 0
9 *568:27 *968:111 0
10 *4612:A *568:10 4.9253e-06
11 *4648:B1 *4648:A2 0.000113964
12 *567:10 *568:10 0.000182095
13 *567:10 *568:27 4.18603e-06
14 *567:19 *4648:A2 5.53249e-06
15 *567:19 *568:27 4.71081e-05
*RES
1 *4612:Y *568:10 6.63 
2 *568:10 *4647:A2 3.6 
3 *568:10 *568:27 5.58875 
4 *568:27 *4613:B 1.6 
5 *568:27 *4648:A2 8.44625 
*END

*D_NET *569 0.000151255
*CONN
*I *4615:A I *D sky130_fd_sc_hd__xnor2_1
*I *4613:Y O *D sky130_fd_sc_hd__nand2b_1
*CAP
1 *4615:A 7.56277e-05
2 *4613:Y 7.56277e-05
*RES
1 *4613:Y *4615:A 4.34 
*END

*D_NET *570 0.000862893
*CONN
*I *4615:B I *D sky130_fd_sc_hd__xnor2_1
*I *4614:X O *D sky130_fd_sc_hd__a21o_1
*CAP
1 *4615:B 0.000331139
2 *4614:X 0.000331139
3 *4615:B *604:12 0
4 *4648:A1 *4615:B 0.000200615
5 *4648:A2 *4615:B 0
*RES
1 *4614:X *4615:B 12.39 
*END

*D_NET *571 0.00118759
*CONN
*I *4616:B I *D sky130_fd_sc_hd__and2_1
*I *4617:B I *D sky130_fd_sc_hd__xnor2_1
*I *4615:Y O *D sky130_fd_sc_hd__xnor2_1
*CAP
1 *4616:B 0.000138754
2 *4617:B 0
3 *4615:Y 0.000326732
4 *571:12 0.000465486
5 *4616:B *4617:A 0.000168349
6 *4616:B *799:14 8.8266e-05
7 *571:12 *604:12 0
*RES
1 *4615:Y *571:12 10.1 
2 *571:12 *4617:B 1.6 
3 *571:12 *4616:B 4.825 
*END

*D_NET *572 0.00165077
*CONN
*I *4622:A I *D sky130_fd_sc_hd__nor2_1
*I *4707:A1 I *D sky130_fd_sc_hd__o21ai_4
*I *4616:X O *D sky130_fd_sc_hd__and2_1
*CAP
1 *4622:A 2.83889e-05
2 *4707:A1 6.32974e-05
3 *4616:X 0.000325824
4 *572:6 0.00041751
5 *4707:A1 *654:18 8.97642e-05
6 *4707:A1 *799:8 1.22762e-05
7 *4707:A1 *799:14 5.51245e-05
8 *572:6 *799:14 0.000658589
*RES
1 *4616:X *572:6 8.605 
2 *572:6 *4707:A1 7.49 
3 *572:6 *4622:A 2.05 
*END

*D_NET *573 0.000982528
*CONN
*I *4619:C I *D sky130_fd_sc_hd__and3_1
*I *4618:B1 I *D sky130_fd_sc_hd__a21oi_2
*I *4617:Y O *D sky130_fd_sc_hd__xnor2_1
*CAP
1 *4619:C 1.61534e-05
2 *4618:B1 6.64294e-05
3 *4617:Y 0.000271139
4 *573:10 0.000353722
5 *4618:B1 *574:12 1.08758e-05
6 *573:10 *4620:A2 0.000117832
7 *573:10 *4620:B1 0
8 *573:10 *4995:A 7.63204e-05
9 *4618:A1 *4618:B1 0
10 *4618:A2 *4618:B1 0
11 *4619:A *4618:B1 5.05437e-05
12 *4619:A *4619:C 1.95128e-05
*RES
1 *4617:Y *573:10 10.805 
2 *573:10 *4618:B1 2.755 
3 *573:10 *4619:C 1.93 
*END

*D_NET *574 0.00343185
*CONN
*I *4707:A2 I *D sky130_fd_sc_hd__o21ai_4
*I *4622:B I *D sky130_fd_sc_hd__nor2_1
*I *4620:A1 I *D sky130_fd_sc_hd__o21ai_1
*I *4618:Y O *D sky130_fd_sc_hd__a21oi_2
*CAP
1 *4707:A2 0
2 *4622:B 0.00010881
3 *4620:A1 0
4 *4618:Y 0.000111215
5 *574:25 0.00071719
6 *574:12 0.000719595
7 *4622:B *4707:B1 0
8 *4622:B *577:10 1.83847e-05
9 *4622:B *662:14 0.000162332
10 *574:12 *4620:A2 0.000116158
11 *574:12 *604:12 0
12 *574:25 *4620:B1 0.00016569
13 *574:25 *4621:C1 8.57024e-05
14 *574:25 *4707:B1 0
15 *574:25 *660:8 0
16 *574:25 *662:14 0.000222061
17 *574:25 *849:43 0.00080154
18 *574:25 *1011:8 0.000163199
19 *4618:B1 *574:12 1.08758e-05
20 *4619:A *574:12 1.47256e-05
21 *4897:D *574:25 1.43717e-05
*RES
1 *4618:Y *574:12 7.43 
2 *574:12 *4620:A1 1.6 
3 *574:12 *574:25 16.505 
4 *574:25 *4622:B 5.94 
5 *574:25 *4707:A2 3.6 
*END

*D_NET *575 0.000300501
*CONN
*I *4620:A2 I *D sky130_fd_sc_hd__o21ai_1
*I *4619:X O *D sky130_fd_sc_hd__and3_1
*CAP
1 *4620:A2 3.32551e-05
2 *4619:X 3.32551e-05
3 *573:10 *4620:A2 0.000117832
4 *574:12 *4620:A2 0.000116158
*RES
1 *4619:X *4620:A2 8.58 
*END

*D_NET *576 0.0005323
*CONN
*I *4621:C1 I *D sky130_fd_sc_hd__o211a_1
*I *4620:Y O *D sky130_fd_sc_hd__o21ai_1
*CAP
1 *4621:C1 0.000176093
2 *4620:Y 0.000176093
3 *4621:C1 *4995:A 9.44105e-05
4 *4621:C1 *1011:21 0
5 *574:25 *4621:C1 8.57024e-05
*RES
1 *4620:Y *4621:C1 9.93 
*END

*D_NET *577 0.00177622
*CONN
*I *4682:A1 I *D sky130_fd_sc_hd__o21bai_1
*I *4654:A I *D sky130_fd_sc_hd__xnor2_1
*I *4622:Y O *D sky130_fd_sc_hd__nor2_1
*CAP
1 *4682:A1 0
2 *4654:A 0.000322883
3 *4622:Y 0.000318265
4 *577:10 0.000641149
5 *4654:A *4652:A 1.01661e-05
6 *4654:A *4654:B 4.82919e-05
7 *4654:A *608:10 0.000303028
8 *4654:A *800:27 2.30292e-05
9 *577:10 *4683:B 5.42473e-05
10 *577:10 *4707:B1 3.67779e-05
11 *577:10 *662:14 0
12 *4622:B *577:10 1.83847e-05
*RES
1 *4622:Y *577:10 8.505 
2 *577:10 *4654:A 10.875 
3 *577:10 *4682:A1 3.6 
*END

*D_NET *578 0.00483393
*CONN
*I *4675:A1 I *D sky130_fd_sc_hd__a21oi_1
*I *4642:A I *D sky130_fd_sc_hd__xnor2_1
*I *4623:X O *D sky130_fd_sc_hd__a21bo_1
*CAP
1 *4675:A1 5.41847e-05
2 *4642:A 0.000131506
3 *4623:X 0.00186196
4 *578:10 0.00204765
5 *4642:A *4642:B 6.02416e-05
6 *4642:A *596:8 5.94294e-05
7 *4642:A *629:8 1.61831e-05
8 *4675:A1 *4719:C1 0
9 *578:10 *4640:C 5.73568e-06
10 *578:10 *4719:C1 0
11 *4627:A2 *578:10 0.000275553
12 *4640:B *578:10 0.000161529
13 *557:12 *578:10 0.000159951
*RES
1 *4623:X *578:10 31.47 
2 *578:10 *4642:A 5.91 
3 *578:10 *4675:A1 4.215 
*END

*D_NET *579 9.92898e-05
*CONN
*I *4625:B1 I *D sky130_fd_sc_hd__a21oi_2
*I *4624:Y O *D sky130_fd_sc_hd__a22oi_1
*CAP
1 *4625:B1 1.17375e-05
2 *4624:Y 1.17375e-05
3 *4625:B1 *4624:A1 4.82919e-05
4 *4625:B1 *983:54 2.75229e-05
*RES
1 *4624:Y *4625:B1 3.65 
*END

*D_NET *580 0.00584524
*CONN
*I *4658:C I *D sky130_fd_sc_hd__nor3_1
*I *4657:B I *D sky130_fd_sc_hd__and2_1
*I *4626:B I *D sky130_fd_sc_hd__xor2_1
*I *4625:Y O *D sky130_fd_sc_hd__a21oi_2
*CAP
1 *4658:C 3.68819e-05
2 *4657:B 0
3 *4626:B 5.43297e-05
4 *4625:Y 0.00156905
5 *580:35 7.9055e-05
6 *580:20 0.00166556
7 *4658:C *611:10 4.99619e-05
8 *580:20 *4557:A 9.54469e-05
9 *580:20 *4557:C 0
10 *580:20 *4631:A1_N 4.7776e-05
11 *580:20 *4633:A 2.63322e-05
12 *580:20 *4633:B 0.000154884
13 *580:20 *4634:B 0.000281116
14 *580:20 *588:6 0.000156004
15 *580:20 *614:10 8.31082e-05
16 *580:20 *994:69 0.00056914
17 *580:20 *994:80 3.57349e-05
18 *4631:B2 *580:20 8.49205e-05
19 *4658:A *4658:C 2.30292e-05
20 *4658:A *580:20 1.61831e-05
21 *4658:A *580:35 1.66733e-05
22 *4658:B *4626:B 7.89767e-05
23 *4658:B *4658:C 8.65961e-05
24 *478:22 *4626:B 6.73751e-05
25 *478:22 *580:20 8.65961e-05
26 *512:12 *4626:B 1.34361e-05
27 *553:26 *580:20 0.000467068
*RES
1 *4625:Y *580:20 33.98 
2 *580:20 *4626:B 7.49 
3 *580:20 *580:35 0.81 
4 *580:35 *4657:B 1.6 
5 *580:35 *4658:C 2.74 
*END

*D_NET *581 0.00144975
*CONN
*I *4629:A I *D sky130_fd_sc_hd__xnor2_1
*I *4628:A I *D sky130_fd_sc_hd__and2_1
*I *4626:X O *D sky130_fd_sc_hd__xor2_1
*CAP
1 *4629:A 0.000148968
2 *4628:A 0
3 *4626:X 0.000175747
4 *581:6 0.000324715
5 *4629:A *4628:B 0.00015829
6 *4629:A *4637:A 0
7 *4629:A *591:6 0.000119756
8 *581:6 *591:6 0.000509612
9 *11:9 *4629:A 1.26626e-05
*RES
1 *4626:X *581:6 6.19 
2 *581:6 *4628:A 1.6 
3 *581:6 *4629:A 8.885 
*END

*D_NET *582 0.00153488
*CONN
*I *4629:B I *D sky130_fd_sc_hd__xnor2_1
*I *4628:B I *D sky130_fd_sc_hd__and2_1
*I *4627:Y O *D sky130_fd_sc_hd__o21ai_1
*CAP
1 *4629:B 0
2 *4628:B 5.92544e-05
3 *4627:Y 0.000538705
4 *582:12 0.000597959
5 *4629:A *4628:B 0.00015829
6 *11:9 *4628:B 0.000180675
7 *512:12 *582:12 0
*RES
1 *4627:Y *582:12 13.865 
2 *582:12 *4628:B 7.745 
3 *582:12 *4629:B 1.6 
*END

*D_NET *583 0.00126991
*CONN
*I *4670:A1 I *D sky130_fd_sc_hd__o21ai_1
*I *4671:A I *D sky130_fd_sc_hd__or3_1
*I *4628:X O *D sky130_fd_sc_hd__and2_1
*CAP
1 *4670:A1 6.684e-05
2 *4671:A 0
3 *4628:X 0.00045397
4 *583:14 0.00052081
5 *4670:A1 *4670:B1 0.000160641
6 *583:14 *4670:B1 2.8694e-05
7 *11:9 *583:14 3.89528e-05
*RES
1 *4628:X *583:14 12.365 
2 *583:14 *4671:A 1.6 
3 *583:14 *4670:A1 3.085 
*END

*D_NET *584 0.000740335
*CONN
*I *4638:A I *D sky130_fd_sc_hd__xnor2_1
*I *4637:A I *D sky130_fd_sc_hd__nor2_1
*I *4629:Y O *D sky130_fd_sc_hd__xnor2_1
*CAP
1 *4638:A 6.12782e-05
2 *4637:A 0.000125977
3 *4629:Y 0.000158193
4 *584:6 0.000345447
5 *4637:A *4638:B 4.94404e-05
6 *4637:A *650:12 0
7 *4629:A *4637:A 0
*RES
1 *4629:Y *584:6 3.775 
2 *584:6 *4637:A 7.595 
3 *584:6 *4638:A 2.665 
*END

*D_NET *585 0.00245865
*CONN
*I *4635:A I *D sky130_fd_sc_hd__xor2_1
*I *4634:A I *D sky130_fd_sc_hd__and2_1
*I *4630:X O *D sky130_fd_sc_hd__a31o_1
*CAP
1 *4635:A 0
2 *4634:A 0.000168699
3 *4630:X 0.000988596
4 *585:10 0.0011573
5 *4634:A *4634:B 0.000140409
6 *4634:A *590:10 0
7 *4634:A *796:25 0
8 *585:10 *590:10 0
9 *585:10 *796:25 0
10 *4660:B1 *585:10 3.64998e-06
*RES
1 *4630:X *585:10 14.4 
2 *585:10 *4634:A 6.405 
3 *585:10 *4635:A 3.6 
*END

*D_NET *586 0.000285668
*CONN
*I *4633:A I *D sky130_fd_sc_hd__nor2_1
*I *4631:X O *D sky130_fd_sc_hd__o2bb2a_1
*CAP
1 *4633:A 8.63699e-05
2 *4631:X 8.63699e-05
3 *4633:A *4633:B 8.65961e-05
4 *580:20 *4633:A 2.63322e-05
*RES
1 *4631:X *4633:A 4.955 
*END

*D_NET *587 0.00246797
*CONN
*I *4633:B I *D sky130_fd_sc_hd__nor2_1
*I *4666:A I *D sky130_fd_sc_hd__and2_1
*I *4667:A I *D sky130_fd_sc_hd__xnor2_1
*I *4632:X O *D sky130_fd_sc_hd__and4b_1
*CAP
1 *4633:B 0.000214531
2 *4666:A 0
3 *4667:A 7.64885e-05
4 *4632:X 0
5 *587:10 0.000380839
6 *587:6 0.000518881
7 *4633:B *588:6 4.99619e-05
8 *4633:B *796:25 0
9 *4633:B *994:80 0.000150631
10 *4667:A *4667:B 0.000161884
11 *4667:A *4688:A2 0.000365038
12 *4667:A *4688:B1 1.54665e-05
13 *4667:A *619:10 8.22347e-05
14 *587:10 *796:25 0
15 *587:10 *976:51 8.3135e-05
16 *587:10 *976:74 2.16389e-05
17 *587:10 *994:80 4.43871e-06
18 *587:10 *994:94 0.000101317
19 *4633:A *4633:B 8.65961e-05
20 *580:20 *4633:B 0.000154884
*RES
1 *4632:X *587:6 3.6 
2 *587:6 *587:10 7.715 
3 *587:10 *4667:A 5.44 
4 *587:10 *4666:A 1.6 
5 *587:6 *4633:B 8.715 
*END

*D_NET *588 0.00108309
*CONN
*I *4634:B I *D sky130_fd_sc_hd__and2_1
*I *4635:B I *D sky130_fd_sc_hd__xor2_1
*I *4633:Y O *D sky130_fd_sc_hd__nor2_1
*CAP
1 *4634:B 9.67543e-05
2 *4635:B 0
3 *4633:Y 0.000131043
4 *588:6 0.000227798
5 *4633:B *588:6 4.99619e-05
6 *4634:A *4634:B 0.000140409
7 *580:20 *4634:B 0.000281116
8 *580:20 *588:6 0.000156004
*RES
1 *4633:Y *588:6 4.465 
2 *588:6 *4635:B 1.6 
3 *588:6 *4634:B 4.93 
*END

*D_NET *589 0.000182113
*CONN
*I *4673:B1 I *D sky130_fd_sc_hd__a21oi_2
*I *4634:X O *D sky130_fd_sc_hd__and2_1
*CAP
1 *4673:B1 9.10566e-05
2 *4634:X 9.10566e-05
3 *4673:B1 *590:10 0
4 *547:27 *4673:B1 0
*RES
1 *4634:X *4673:B1 8.58 
*END

*D_NET *590 0.000830323
*CONN
*I *4636:B I *D sky130_fd_sc_hd__xnor2_1
*I *4673:A2 I *D sky130_fd_sc_hd__a21oi_2
*I *4635:X O *D sky130_fd_sc_hd__xor2_1
*CAP
1 *4636:B 9.55555e-05
2 *4673:A2 3.37585e-05
3 *4635:X 0.00016168
4 *590:10 0.000290994
5 *4636:B *627:12 7.60965e-05
6 *590:10 *796:25 0
7 *4634:A *590:10 0
8 *4636:A *4636:B 0.000141323
9 *4673:B1 *590:10 0
10 *547:27 *590:10 3.09164e-05
11 *585:10 *590:10 0
*RES
1 *4635:X *590:10 8 
2 *590:10 *4673:A2 2.05 
3 *590:10 *4636:B 4.12 
*END

*D_NET *591 0.00384469
*CONN
*I *4638:B I *D sky130_fd_sc_hd__xnor2_1
*I *4637:B I *D sky130_fd_sc_hd__nor2_1
*I *4636:Y O *D sky130_fd_sc_hd__xnor2_1
*CAP
1 *4638:B 0.000112128
2 *4637:B 3.55506e-05
3 *4636:Y 0.000496217
4 *591:6 0.000643896
5 *4638:B *650:12 0
6 *591:6 *592:12 1.7386e-05
7 *591:6 *627:12 0.00183319
8 *4626:A *591:6 2.75145e-05
9 *4629:A *591:6 0.000119756
10 *4637:A *4638:B 4.94404e-05
11 *581:6 *591:6 0.000509612
*RES
1 *4636:Y *591:6 18.265 
2 *591:6 *4637:B 2.215 
3 *591:6 *4638:B 7.235 
*END

*D_NET *592 0.00111698
*CONN
*I *4670:A2 I *D sky130_fd_sc_hd__o21ai_1
*I *4671:B I *D sky130_fd_sc_hd__or3_1
*I *4637:Y O *D sky130_fd_sc_hd__nor2_1
*CAP
1 *4670:A2 0.000138835
2 *4671:B 0
3 *4637:Y 0.000257374
4 *592:12 0.000396209
5 *4670:A2 *4670:B1 0.000115779
6 *592:12 *623:12 7.63883e-05
7 *592:12 *627:12 1.90051e-05
8 *592:12 *650:12 9.60047e-05
9 *591:6 *592:12 1.7386e-05
*RES
1 *4637:Y *592:12 9.575 
2 *592:12 *4671:B 1.6 
3 *592:12 *4670:A2 3.43 
*END

*D_NET *593 0.00167151
*CONN
*I *4639:B1 I *D sky130_fd_sc_hd__a21oi_1
*I *4640:C I *D sky130_fd_sc_hd__and3_1
*I *4638:Y O *D sky130_fd_sc_hd__xnor2_1
*CAP
1 *4639:B1 6.17361e-05
2 *4640:C 1.23377e-05
3 *4638:Y 0.000437652
4 *593:10 0.000511726
5 *4639:B1 *594:10 2.75145e-05
6 *4639:B1 *651:14 0.00011686
7 *593:10 *650:12 0
8 *593:10 *651:14 0.000430538
9 *4640:A *4639:B1 6.18754e-05
10 *4640:A *593:10 5.53249e-06
11 *4640:B *593:10 0
12 *578:10 *4640:C 5.73568e-06
*RES
1 *4638:Y *593:10 11.76 
2 *593:10 *4640:C 3.765 
3 *593:10 *4639:B1 5.43 
*END

*D_NET *594 0.000447448
*CONN
*I *4675:B1 I *D sky130_fd_sc_hd__a21oi_1
*I *4641:A I *D sky130_fd_sc_hd__nor2_1
*I *4639:Y O *D sky130_fd_sc_hd__a21oi_1
*CAP
1 *4675:B1 1.21792e-05
2 *4641:A 0
3 *4639:Y 0.000156338
4 *594:10 0.000168517
5 *4675:B1 *596:8 4.99619e-05
6 *4675:B1 *629:8 7.00889e-06
7 *594:10 *4642:B 0
8 *594:10 *596:8 2.0514e-05
9 *4639:B1 *594:10 2.75145e-05
10 *559:8 *594:10 5.4155e-06
*RES
1 *4639:Y *594:10 4.15 
2 *594:10 *4641:A 1.6 
3 *594:10 *4675:B1 2.05 
*END

*D_NET *595 0.000294845
*CONN
*I *4641:B I *D sky130_fd_sc_hd__nor2_1
*I *4640:X O *D sky130_fd_sc_hd__and3_1
*CAP
1 *4641:B 2.72359e-05
2 *4640:X 2.72359e-05
3 *4641:B *4719:C1 0.000120186
4 *4641:B *651:14 0.000120186
*RES
1 *4640:X *4641:B 8.58 
*END

*D_NET *596 0.000550391
*CONN
*I *4642:B I *D sky130_fd_sc_hd__xnor2_1
*I *4675:A2 I *D sky130_fd_sc_hd__a21oi_1
*I *4641:Y O *D sky130_fd_sc_hd__nor2_1
*CAP
1 *4642:B 2.87798e-05
2 *4675:A2 0
3 *4641:Y 0.000105087
4 *596:8 0.000133867
5 *4642:B *629:8 5.30673e-05
6 *596:8 *629:8 3.94429e-05
7 *4642:A *4642:B 6.02416e-05
8 *4642:A *596:8 5.94294e-05
9 *4675:B1 *596:8 4.99619e-05
10 *594:10 *4642:B 0
11 *594:10 *596:8 2.0514e-05
*RES
1 *4641:Y *596:8 3.79 
2 *596:8 *4675:A2 1.6 
3 *596:8 *4642:B 2.755 
*END

*D_NET *597 0.00215907
*CONN
*I *4645:A I *D sky130_fd_sc_hd__xor2_1
*I *4644:A_N I *D sky130_fd_sc_hd__and2b_1
*I *4642:Y O *D sky130_fd_sc_hd__xnor2_1
*CAP
1 *4645:A 7.84119e-05
2 *4644:A_N 0.000134461
3 *4642:Y 0.000554001
4 *597:14 0.000766874
5 *4644:A_N *4644:B 0.000138808
6 *4645:A *4644:B 0.000164686
7 *597:14 *4644:B 5.39961e-05
8 *597:14 *4677:A 2.75229e-05
9 *597:14 *4677:B 4.21666e-05
10 *597:14 *4686:B1 3.32717e-05
11 *597:14 *629:8 0.000164874
12 *4643:B1 *4645:A 0
*RES
1 *4642:Y *597:14 12.735 
2 *597:14 *4644:A_N 6.12 
3 *597:14 *4645:A 5.49 
*END

*D_NET *598 0.00145465
*CONN
*I *4645:B I *D sky130_fd_sc_hd__xor2_1
*I *4644:B I *D sky130_fd_sc_hd__and2b_1
*I *4643:X O *D sky130_fd_sc_hd__a21o_1
*CAP
1 *4645:B 0
2 *4644:B 0.000270305
3 *4643:X 0.000219956
4 *598:6 0.00049026
5 *4644:B *4678:B1 0
6 *4644:B *4686:B1 0.000116636
7 *4644:A_N *4644:B 0.000138808
8 *4645:A *4644:B 0.000164686
9 *597:14 *4644:B 5.39961e-05
*RES
1 *4643:X *598:6 4.81 
2 *598:6 *4644:B 11.465 
3 *598:6 *4645:B 1.6 
*END

*D_NET *599 0.0014105
*CONN
*I *4678:B1 I *D sky130_fd_sc_hd__a31o_1
*I *4686:A1 I *D sky130_fd_sc_hd__a21o_1
*I *4644:X O *D sky130_fd_sc_hd__and2b_1
*CAP
1 *4678:B1 0.000176705
2 *4686:A1 0
3 *4644:X 0.000104849
4 *599:10 0.000281553
5 *4678:B1 *4680:A 0.000128353
6 *4678:B1 *4687:B1 0.000189037
7 *4678:B1 *631:8 9.50342e-06
8 *4678:B1 *631:17 0.000401983
9 *599:10 *4686:B1 0
10 *599:10 *631:8 0.00011852
11 *4644:B *4678:B1 0
*RES
1 *4644:X *599:10 5.43 
2 *599:10 *4686:A1 3.6 
3 *599:10 *4678:B1 9.825 
*END

*D_NET *600 0.00119507
*CONN
*I *4646:A I *D sky130_fd_sc_hd__inv_2
*I *4679:A_N I *D sky130_fd_sc_hd__and2b_1
*I *4645:X O *D sky130_fd_sc_hd__xor2_1
*CAP
1 *4646:A 5.69954e-05
2 *4679:A_N 0
3 *4645:X 0.000370619
4 *600:12 0.000427615
5 *600:12 *4686:B1 0.000122155
6 *600:12 *4687:B1 4.99619e-05
7 *600:12 *631:17 0.000167724
*RES
1 *4645:X *600:12 12.575 
2 *600:12 *4679:A_N 1.6 
3 *600:12 *4646:A 2.41 
*END

*D_NET *601 0.000910015
*CONN
*I *4651:B I *D sky130_fd_sc_hd__xnor2_4
*I *4678:A1 I *D sky130_fd_sc_hd__a31o_1
*I *4646:Y O *D sky130_fd_sc_hd__inv_2
*CAP
1 *4651:B 0.00014955
2 *4678:A1 0.000112443
3 *4646:Y 0.000116702
4 *601:12 0.000378695
5 *4651:B *671:14 9.17166e-05
6 *4678:A1 *4678:A2 1.83847e-05
7 *4678:A1 *671:14 3.69909e-05
8 *601:12 *4678:A3 5.53249e-06
9 *601:12 *4680:A 0
*RES
1 *4646:Y *601:12 7.595 
2 *601:12 *4678:A1 3.445 
3 *601:12 *4651:B 4.48 
*END

*D_NET *602 0.00391224
*CONN
*I *4650:A I *D sky130_fd_sc_hd__nand2_4
*I *4687:A2 I *D sky130_fd_sc_hd__a31o_1
*I *4678:A2 I *D sky130_fd_sc_hd__a31o_1
*I *4647:X O *D sky130_fd_sc_hd__a21o_1
*CAP
1 *4650:A 0.000261941
2 *4687:A2 0
3 *4678:A2 0.000193952
4 *4647:X 0.000438782
5 *602:25 0.000261941
6 *602:10 0.000632734
7 *4650:A *4650:B 0.000279787
8 *4650:A *5112:A 9.52646e-05
9 *4650:A *5113:A 4.82919e-05
10 *4650:A *654:18 0.000423933
11 *4650:A *854:6 4.82863e-05
12 *4678:A2 *4687:A3 0.000210151
13 *4678:A2 *4687:B1 0.000113752
14 *4678:A2 *4701:B 0
15 *4678:A2 *604:12 3.09164e-05
16 *4678:A2 *671:14 0.00027209
17 *602:10 *604:12 0.000474336
18 *602:10 *968:111 0.000107694
19 *4678:A1 *4678:A2 1.83847e-05
20 *567:10 *602:10 0
*RES
1 *4647:X *602:10 11.925 
2 *602:10 *4678:A2 9.135 
3 *602:10 *602:25 2 
4 *602:25 *4687:A2 1.6 
5 *602:25 *4650:A 8.725 
*END

*D_NET *603 0.00180674
*CONN
*I *4649:C1 I *D sky130_fd_sc_hd__a211o_1
*I *4648:X O *D sky130_fd_sc_hd__a21o_1
*CAP
1 *4649:C1 0.000558096
2 *4648:X 0.000558096
3 *4649:C1 *968:111 9.83771e-05
4 *4577:A *4649:C1 6.36578e-05
5 *4581:A *4649:C1 0.000298442
6 *4614:A2 *4649:C1 0.00019637
7 *4648:A1 *4649:C1 1.61831e-05
8 *532:8 *4649:C1 1.33293e-05
9 *535:12 *4649:C1 4.18603e-06
*RES
1 *4648:X *4649:C1 17.475 
*END

*D_NET *604 0.00457695
*CONN
*I *4687:A1 I *D sky130_fd_sc_hd__a31o_1
*I *5112:A I *D sky130_fd_sc_hd__clkbuf_2
*I *4649:X O *D sky130_fd_sc_hd__a211o_1
*CAP
1 *4687:A1 0
2 *5112:A 0.000104025
3 *4649:X 0.00155182
4 *604:12 0.00165585
5 *5112:A *640:8 0
6 *604:12 *4582:A 0.000200198
7 *604:12 *4680:A 0
8 *604:12 *4680:B 0
9 *604:12 *4687:B1 9.50342e-06
10 *4580:B1 *604:12 0.000186393
11 *4615:B *604:12 0
12 *4618:A2 *604:12 8.09021e-06
13 *4648:A2 *604:12 0
14 *4650:A *5112:A 9.52646e-05
15 *4678:A2 *604:12 3.09164e-05
16 *536:6 *604:12 0.000203178
17 *540:12 *604:12 5.73739e-05
18 *571:12 *604:12 0
19 *574:12 *604:12 0
20 *602:10 *604:12 0.000474336
*RES
1 *4649:X *604:12 33.23 
2 *604:12 *5112:A 3.445 
3 *604:12 *4687:A1 1.6 
*END

*D_NET *605 0.000233864
*CONN
*I *4651:A I *D sky130_fd_sc_hd__xnor2_4
*I *4650:Y O *D sky130_fd_sc_hd__nand2_4
*CAP
1 *4651:A 0.000116932
2 *4650:Y 0.000116932
3 *4651:A *671:14 0
*RES
1 *4650:Y *4651:A 9.09 
*END

*D_NET *606 0.000520451
*CONN
*I *4652:B I *D sky130_fd_sc_hd__and2_1
*I *4653:A I *D sky130_fd_sc_hd__xnor2_2
*I *4651:Y O *D sky130_fd_sc_hd__xnor2_4
*CAP
1 *4652:B 0.000154147
2 *4653:A 8.15187e-05
3 *4651:Y 0
4 *606:4 0.000235666
5 *4653:A *4652:A 0
6 *4653:A *607:8 4.91189e-05
7 *4653:A *671:14 0
*RES
1 *4651:Y *606:4 1.6 
2 *606:4 *4653:A 7.235 
3 *606:4 *4652:B 3.79 
*END

*D_NET *607 0.00187599
*CONN
*I *4682:B1_N I *D sky130_fd_sc_hd__o21bai_1
*I *4708:B1 I *D sky130_fd_sc_hd__a21o_1
*I *4652:X O *D sky130_fd_sc_hd__and2_1
*CAP
1 *4682:B1_N 0.000117615
2 *4708:B1 0.000223745
3 *4652:X 0.000223371
4 *607:8 0.000564731
5 *4682:B1_N *4708:A1 0
6 *4682:B1_N *4709:A2 0
7 *4682:B1_N *654:18 0.000163012
8 *4682:B1_N *662:14 4.66108e-05
9 *4708:B1 *4708:A2 4.00541e-06
10 *4708:B1 *4709:A2 2.30292e-05
11 *4708:B1 *634:14 7.60965e-05
12 *607:8 *4652:A 4.40643e-05
13 *607:8 *654:18 0.000340587
14 *4653:A *607:8 4.91189e-05
*RES
1 *4652:X *607:8 8.805 
2 *607:8 *4708:B1 7.17 
3 *607:8 *4682:B1_N 5.94 
*END

*D_NET *608 0.00194018
*CONN
*I *4654:B I *D sky130_fd_sc_hd__xnor2_1
*I *4682:A2 I *D sky130_fd_sc_hd__o21bai_1
*I *4706:A_N I *D sky130_fd_sc_hd__and2b_1
*I *4653:Y O *D sky130_fd_sc_hd__xnor2_2
*CAP
1 *4654:B 3.91382e-05
2 *4682:A2 0
3 *4706:A_N 0.000126736
4 *4653:Y 0
5 *608:10 0.000309148
6 *608:4 0.00022155
7 *4654:B *800:27 0.000122337
8 *4706:A_N *4709:A2 4.18603e-06
9 *4706:A_N *635:12 0
10 *4706:A_N *654:18 5.4256e-05
11 *4706:A_N *801:10 0.000234674
12 *4706:A_N *968:111 0.000233004
13 *608:10 *4652:A 3.09164e-05
14 *608:10 *654:18 0.000186919
15 *608:10 *662:14 2.59981e-05
16 *4654:A *4654:B 4.82919e-05
17 *4654:A *608:10 0.000303028
*RES
1 *4653:Y *608:4 1.6 
2 *608:4 *608:10 10.225 
3 *608:10 *4706:A_N 9.41 
4 *608:10 *4682:A2 1.6 
5 *608:4 *4654:B 2.74 
*END

*D_NET *609 0.000151207
*CONN
*I *4655:B I *D sky130_fd_sc_hd__nand2_1
*I *4654:Y O *D sky130_fd_sc_hd__xnor2_1
*CAP
1 *4655:B 5.44413e-05
2 *4654:Y 5.44413e-05
3 *4655:B *4656:C1 0
4 *4655:B *800:27 4.23245e-05
*RES
1 *4654:Y *4655:B 4.265 
*END

*D_NET *610 0.00017871
*CONN
*I *4656:C1 I *D sky130_fd_sc_hd__o211a_1
*I *4655:Y O *D sky130_fd_sc_hd__nand2_1
*CAP
1 *4656:C1 5.59549e-05
2 *4655:Y 5.59549e-05
3 *4656:C1 *800:14 1.37328e-05
4 *4656:C1 *800:27 5.30673e-05
5 *4655:B *4656:C1 0
*RES
1 *4655:Y *4656:C1 4.355 
*END

*D_NET *611 0.00390711
*CONN
*I *4659:A I *D sky130_fd_sc_hd__nor2_1
*I *4668:A I *D sky130_fd_sc_hd__nor3_1
*I *4695:A I *D sky130_fd_sc_hd__or3b_1
*I *4694:A1 I *D sky130_fd_sc_hd__o21ba_1
*I *4715:A0 I *D sky130_fd_sc_hd__mux2_1
*I *4657:X O *D sky130_fd_sc_hd__and2_1
*CAP
1 *4659:A 0
2 *4668:A 0
3 *4695:A 0.000131101
4 *4694:A1 3.18506e-05
5 *4715:A0 0.000140357
6 *4657:X 0.000373363
7 *611:31 0.000303538
8 *611:27 0.00024136
9 *611:14 0.000294267
10 *611:10 0.000426499
11 *4694:A1 *4694:A2 2.68037e-05
12 *4695:A *4695:B 0.000249783
13 *4695:A *4695:C_N 7.87195e-05
14 *4695:A *646:8 0.000200359
15 *4695:A *647:6 6.63221e-05
16 *4715:A0 *4668:B 8.87057e-05
17 *4715:A0 *4715:A1 0.000235378
18 *4715:A0 *4715:S 8.64599e-05
19 *611:10 *612:10 0.000159072
20 *611:10 *613:8 2.14129e-05
21 *611:14 *4669:B 0.000162332
22 *611:14 *613:8 0.000187071
23 *611:27 *4668:B 5.9072e-05
24 *611:27 *622:10 2.86691e-05
25 *611:31 *4694:A2 1.64141e-05
26 *611:31 *621:10 6.53371e-05
27 *611:31 *622:10 0.000127509
28 *4658:A *611:10 3.23663e-05
29 *4658:B *611:10 2.30292e-05
30 *4658:C *611:10 4.99619e-05
31 *11:9 *611:10 0
32 *11:9 *611:14 0
*RES
1 *4657:X *611:10 10.56 
2 *611:10 *611:14 4.145 
3 *611:14 *4715:A0 5.17 
4 *611:14 *611:27 2.1 
5 *611:27 *611:31 5.42 
6 *611:31 *4694:A1 4.215 
7 *611:31 *4695:A 7.965 
8 *611:27 *4668:A 1.6 
9 *611:10 *4659:A 3.6 
*END

*D_NET *612 0.0019207
*CONN
*I *4659:B I *D sky130_fd_sc_hd__nor2_1
*I *4668:B I *D sky130_fd_sc_hd__nor3_1
*I *4715:A1 I *D sky130_fd_sc_hd__mux2_1
*I *4658:Y O *D sky130_fd_sc_hd__nor3_1
*CAP
1 *4659:B 0
2 *4668:B 8.04687e-05
3 *4715:A1 0.000107324
4 *4658:Y 0.000210071
5 *612:14 0.000299811
6 *612:10 0.000322089
7 *4668:B *622:10 4.77807e-05
8 *612:10 *613:8 3.25831e-05
9 *612:14 *613:8 0.000228381
10 *4658:A *612:10 4.99619e-05
11 *4715:A0 *4668:B 8.87057e-05
12 *4715:A0 *4715:A1 0.000235378
13 *611:10 *612:10 0.000159072
14 *611:27 *4668:B 5.9072e-05
*RES
1 *4658:Y *612:10 7.815 
2 *612:10 *612:14 4.655 
3 *612:14 *4715:A1 3.775 
4 *612:14 *4668:B 3.445 
5 *612:10 *4659:B 3.6 
*END

*D_NET *613 0.00345353
*CONN
*I *4669:A I *D sky130_fd_sc_hd__xnor2_1
*I *4716:A1 I *D sky130_fd_sc_hd__a211o_1
*I *4693:A I *D sky130_fd_sc_hd__xor2_1
*I *4659:Y O *D sky130_fd_sc_hd__nor2_1
*CAP
1 *4669:A 0.00026504
2 *4716:A1 0.000224669
3 *4693:A 0.00027969
4 *4659:Y 0
5 *613:8 0.00065135
6 *613:4 0.00041203
7 *4669:A *4669:B 0.000207896
8 *4669:A *4718:B 4.01687e-05
9 *4693:A *621:10 1.46781e-05
10 *4693:A *646:8 0.000122817
11 *4716:A1 *4716:C1 5.25905e-05
12 *4716:A1 *621:10 0.000608803
13 *613:8 *4669:B 7.01866e-06
14 *613:8 *621:10 9.73303e-05
15 *611:10 *613:8 2.14129e-05
16 *611:14 *613:8 0.000187071
17 *612:10 *613:8 3.25831e-05
18 *612:14 *613:8 0.000228381
*RES
1 *4659:Y *613:4 1.6 
2 *613:4 *613:8 6.695 
3 *613:8 *4693:A 8.265 
4 *613:8 *4716:A1 9.585 
5 *613:4 *4669:A 6.205 
*END

*D_NET *614 0.00475727
*CONN
*I *4665:A I *D sky130_fd_sc_hd__xnor2_1
*I *4661:A I *D sky130_fd_sc_hd__inv_2
*I *4692:A1 I *D sky130_fd_sc_hd__mux2_1
*I *4690:A I *D sky130_fd_sc_hd__xor2_1
*I *4660:Y O *D sky130_fd_sc_hd__a21oi_2
*CAP
1 *4665:A 0
2 *4661:A 0.000124439
3 *4692:A1 0.00032023
4 *4690:A 0
5 *4660:Y 0.000520595
6 *614:16 0.00133319
7 *614:10 0.00140912
8 *4661:A *4690:B 9.66322e-05
9 *4692:A1 *643:8 0.000461663
10 *614:10 *4663:A_N 1.89738e-05
11 *614:10 *4664:A 9.13167e-05
12 *614:10 *617:31 2.7835e-05
13 *614:10 *975:52 0
14 *614:10 *977:31 0.000216945
15 *614:16 *4664:A 4.28112e-06
16 *614:16 *4690:B 4.89395e-05
17 *580:20 *614:10 8.31082e-05
*RES
1 *4660:Y *614:10 13.185 
2 *614:10 *614:16 15.545 
3 *614:16 *4690:A 1.6 
4 *614:16 *4692:A1 7.585 
5 *614:16 *4661:A 8 
6 *614:10 *4665:A 3.6 
*END

*D_NET *615 0.000616636
*CONN
*I *4691:A1 I *D sky130_fd_sc_hd__a21oi_1
*I *4688:A1 I *D sky130_fd_sc_hd__a21o_1
*I *4661:Y O *D sky130_fd_sc_hd__inv_2
*CAP
1 *4691:A1 4.20614e-05
2 *4688:A1 0.000165635
3 *4661:Y 0
4 *615:4 0.000207697
5 *4688:A1 *4688:B1 8.64599e-05
6 *4688:A1 *621:10 4.44553e-05
7 *4691:A1 *4690:B 7.03276e-05
*RES
1 *4661:Y *615:4 1.6 
2 *615:4 *4688:A1 3.775 
3 *615:4 *4691:A1 6.47 
*END

*D_NET *616 0.000629771
*CONN
*I *4664:A I *D sky130_fd_sc_hd__nor2_1
*I *4662:X O *D sky130_fd_sc_hd__o2bb2a_1
*CAP
1 *4664:A 0.000181208
2 *4662:X 0.000181208
3 *4664:A *617:10 0
4 *4664:A *618:6 8.64599e-05
5 *4664:A *976:51 8.52972e-05
6 *614:10 *4664:A 9.13167e-05
7 *614:16 *4664:A 4.28112e-06
*RES
1 *4662:X *4664:A 10.395 
*END

*D_NET *617 0.00506085
*CONN
*I *4716:A2 I *D sky130_fd_sc_hd__a211o_1
*I *4692:S I *D sky130_fd_sc_hd__mux2_1
*I *4691:B1 I *D sky130_fd_sc_hd__a21oi_1
*I *4664:B I *D sky130_fd_sc_hd__nor2_1
*I *4663:X O *D sky130_fd_sc_hd__and4b_1
*CAP
1 *4716:A2 0
2 *4692:S 0.000146296
3 *4691:B1 0
4 *4664:B 3.60324e-05
5 *4663:X 0.000275431
6 *617:42 0.000452083
7 *617:31 0.00118539
8 *617:10 0.00119107
9 *4664:B *976:29 1.46781e-05
10 *4692:S *4716:B1 3.75882e-06
11 *617:10 *4662:A2_N 0.000122331
12 *617:10 *4663:A_N 1.78771e-05
13 *617:10 *975:52 1.79536e-05
14 *617:10 *976:29 3.1191e-05
15 *617:10 *992:89 0
16 *617:10 *992:98 0.000164874
17 *617:31 *4663:A_N 8.53011e-05
18 *617:31 *642:18 0.000500675
19 *617:31 *644:12 6.72833e-06
20 *617:31 *976:51 0.000313561
21 *617:31 *994:94 7.50406e-05
22 *617:42 *4716:B1 9.12857e-06
23 *617:42 *4716:C1 6.29313e-05
24 *617:42 *4717:B1_N 3.14077e-05
25 *617:42 *644:12 0.000289267
26 *4664:A *617:10 0
27 *614:10 *617:31 2.7835e-05
*RES
1 *4663:X *617:10 8.01 
2 *617:10 *4664:B 4.215 
3 *617:10 *617:31 20.79 
4 *617:31 *4691:B1 1.6 
5 *617:31 *617:42 8.225 
6 *617:42 *4692:S 5.745 
7 *617:42 *4716:A2 3.6 
*END

*D_NET *618 0.00239112
*CONN
*I *4665:B I *D sky130_fd_sc_hd__xnor2_1
*I *4688:A2 I *D sky130_fd_sc_hd__a21o_1
*I *4664:Y O *D sky130_fd_sc_hd__nor2_1
*CAP
1 *4665:B 0
2 *4688:A2 0.000633213
3 *4664:Y 5.98182e-05
4 *618:6 0.000693032
5 *4688:A2 *4688:B1 0.000169781
6 *4688:A2 *619:10 0.0002473
7 *4688:A2 *621:10 2.88357e-05
8 *4688:A2 *976:51 6.34267e-05
9 *618:6 *976:51 4.42148e-05
10 *4664:A *618:6 8.64599e-05
11 *4667:A *4688:A2 0.000365038
*RES
1 *4664:Y *618:6 3.085 
2 *618:6 *4688:A2 11.92 
3 *618:6 *4665:B 1.6 
*END

*D_NET *619 0.0010406
*CONN
*I *4667:B I *D sky130_fd_sc_hd__xnor2_1
*I *4666:B I *D sky130_fd_sc_hd__and2_1
*I *4665:Y O *D sky130_fd_sc_hd__xnor2_1
*CAP
1 *4667:B 6.13233e-05
2 *4666:B 0
3 *4665:Y 0.000122963
4 *619:10 0.000184286
5 *4667:B *4688:B1 8.54478e-05
6 *619:10 *976:51 9.51579e-05
7 *4667:A *4667:B 0.000161884
8 *4667:A *619:10 8.22347e-05
9 *4688:A2 *619:10 0.0002473
*RES
1 *4665:Y *619:10 5.53 
2 *619:10 *4666:B 1.6 
3 *619:10 *4667:B 3.895 
*END

*D_NET *620 0.000821917
*CONN
*I *4688:B1 I *D sky130_fd_sc_hd__a21o_1
*I *4666:X O *D sky130_fd_sc_hd__and2_1
*CAP
1 *4688:B1 0.000209181
2 *4666:X 0.000209181
3 *4688:B1 *621:10 4.63995e-05
4 *4667:A *4688:B1 1.54665e-05
5 *4667:B *4688:B1 8.54478e-05
6 *4688:A1 *4688:B1 8.64599e-05
7 *4688:A2 *4688:B1 0.000169781
*RES
1 *4666:X *4688:B1 7.805 
*END

*D_NET *621 0.00444214
*CONN
*I *4669:B I *D sky130_fd_sc_hd__xnor2_1
*I *4668:C I *D sky130_fd_sc_hd__nor3_1
*I *4667:Y O *D sky130_fd_sc_hd__xnor2_1
*CAP
1 *4669:B 0.000162638
2 *4668:C 0
3 *4667:Y 0.000556415
4 *621:10 0.000719053
5 *4669:B *4718:B 0.000352161
6 *621:10 *4717:B1_N 1.55253e-05
7 *621:10 *641:10 0.00135326
8 *4669:A *4669:B 0.000207896
9 *4688:A1 *621:10 4.44553e-05
10 *4688:A2 *621:10 2.88357e-05
11 *4688:B1 *621:10 4.63995e-05
12 *4693:A *621:10 1.46781e-05
13 *4716:A1 *621:10 0.000608803
14 *11:9 *4669:B 0
15 *611:14 *4669:B 0.000162332
16 *611:31 *621:10 6.53371e-05
17 *613:8 *4669:B 7.01866e-06
18 *613:8 *621:10 9.73303e-05
*RES
1 *4667:Y *621:10 20.595 
2 *621:10 *4668:C 3.6 
3 *621:10 *4669:B 8.955 
*END

*D_NET *622 0.00163229
*CONN
*I *4695:B I *D sky130_fd_sc_hd__or3b_1
*I *4694:A2 I *D sky130_fd_sc_hd__o21ba_1
*I *4668:Y O *D sky130_fd_sc_hd__nor3_1
*CAP
1 *4695:B 0.000176046
2 *4694:A2 5.40645e-05
3 *4668:Y 0.000310833
4 *622:10 0.000540944
5 *4668:B *622:10 4.77807e-05
6 *4694:A1 *4694:A2 2.68037e-05
7 *4695:A *4695:B 0.000249783
8 *11:9 *622:10 5.3442e-05
9 *611:27 *622:10 2.86691e-05
10 *611:31 *4694:A2 1.64141e-05
11 *611:31 *622:10 0.000127509
*RES
1 *4668:Y *622:10 8.34 
2 *622:10 *4694:A2 4.47 
3 *622:10 *4695:B 6.12 
*END

*D_NET *623 0.00186139
*CONN
*I *4671:C I *D sky130_fd_sc_hd__or3_1
*I *4670:B1 I *D sky130_fd_sc_hd__o21ai_1
*I *4669:Y O *D sky130_fd_sc_hd__xnor2_1
*CAP
1 *4671:C 0
2 *4670:B1 0.000132601
3 *4669:Y 0.000486804
4 *623:12 0.000619405
5 *4670:B1 *624:12 4.9253e-06
6 *623:12 *4718:A 2.75145e-05
7 *623:12 *4718:B 0.000110691
8 *623:12 *650:12 9.79472e-05
9 *4670:A1 *4670:B1 0.000160641
10 *4670:A2 *4670:B1 0.000115779
11 *583:14 *4670:B1 2.8694e-05
12 *592:12 *623:12 7.63883e-05
*RES
1 *4669:Y *623:12 13.175 
2 *623:12 *4670:B1 4.825 
3 *623:12 *4671:C 1.6 
*END

*D_NET *624 0.000639441
*CONN
*I *4698:B1 I *D sky130_fd_sc_hd__o21a_1
*I *4672:A I *D sky130_fd_sc_hd__nand2_1
*I *4670:Y O *D sky130_fd_sc_hd__o21ai_1
*CAP
1 *4698:B1 8.46786e-05
2 *4672:A 0
3 *4670:Y 0.000110632
4 *624:12 0.000195311
5 *4698:B1 *626:6 0.000198945
6 *624:12 *4672:B 0
7 *624:12 *4719:C1 4.49498e-05
8 *4670:B1 *624:12 4.9253e-06
*RES
1 *4670:Y *624:12 7.43 
2 *624:12 *4672:A 1.6 
3 *624:12 *4698:B1 3.43 
*END

*D_NET *625 0.000402336
*CONN
*I *4672:B I *D sky130_fd_sc_hd__nand2_1
*I *4671:X O *D sky130_fd_sc_hd__or3_1
*CAP
1 *4672:B 0.000114657
2 *4671:X 0.000114657
3 *4672:B *627:12 5.28346e-05
4 *4672:B *650:12 0.000120186
5 *624:12 *4672:B 0
*RES
1 *4671:X *4672:B 9.72 
*END

*D_NET *626 0.000922654
*CONN
*I *4674:A I *D sky130_fd_sc_hd__xor2_2
*I *4698:A1 I *D sky130_fd_sc_hd__o21a_1
*I *4672:Y O *D sky130_fd_sc_hd__nand2_1
*CAP
1 *4674:A 4.13453e-05
2 *4698:A1 0
3 *4672:Y 8.54997e-05
4 *626:6 0.000126845
5 *4674:A *4674:B 0.000116188
6 *626:6 *4674:B 3.83041e-05
7 *626:6 *627:12 0.000315527
8 *4698:B1 *626:6 0.000198945
*RES
1 *4672:Y *626:6 4.81 
2 *626:6 *4698:A1 1.6 
3 *626:6 *4674:A 2.755 
*END

*D_NET *627 0.00650314
*CONN
*I *4674:B I *D sky130_fd_sc_hd__xor2_2
*I *4698:A2 I *D sky130_fd_sc_hd__o21a_1
*I *4673:Y O *D sky130_fd_sc_hd__a21oi_2
*CAP
1 *4674:B 0.000106594
2 *4698:A2 0
3 *4673:Y 0.00186944
4 *627:12 0.00197604
5 *627:12 *651:14 8.65905e-05
6 *4636:A *627:12 1.33293e-05
7 *4636:B *627:12 7.60965e-05
8 *4672:B *627:12 5.28346e-05
9 *4674:A *4674:B 0.000116188
10 *591:6 *627:12 0.00183319
11 *592:12 *627:12 1.90051e-05
12 *626:6 *4674:B 3.83041e-05
13 *626:6 *627:12 0.000315527
*RES
1 *4673:Y *627:12 28.405 
2 *627:12 *4698:A2 1.6 
3 *627:12 *4674:B 2.0475 
*END

*D_NET *628 0.00155558
*CONN
*I *4676:B I *D sky130_fd_sc_hd__and2b_1
*I *4677:A I *D sky130_fd_sc_hd__xnor2_2
*I *4674:X O *D sky130_fd_sc_hd__xor2_2
*CAP
1 *4676:B 0
2 *4677:A 0.000103669
3 *4674:X 0.000533844
4 *628:10 0.000637513
5 *4677:A *4677:B 0.000163204
6 *4677:A *4686:B1 7.60965e-05
7 *4677:A *629:8 1.37328e-05
8 *597:14 *4677:A 2.75229e-05
*RES
1 *4674:X *628:10 14.12 
2 *628:10 *4677:A 4.495 
3 *628:10 *4676:B 1.6 
*END

*D_NET *629 0.00126178
*CONN
*I *4677:B I *D sky130_fd_sc_hd__xnor2_2
*I *4676:A_N I *D sky130_fd_sc_hd__and2b_1
*I *4675:Y O *D sky130_fd_sc_hd__a21oi_1
*CAP
1 *4677:B 0.000114352
2 *4676:A_N 0
3 *4675:Y 0.000266695
4 *629:8 0.000381048
5 *4642:A *629:8 1.61831e-05
6 *4642:B *629:8 5.30673e-05
7 *4675:B1 *629:8 7.00889e-06
8 *4677:A *4677:B 0.000163204
9 *4677:A *629:8 1.37328e-05
10 *596:8 *629:8 3.94429e-05
11 *597:14 *4677:B 4.21666e-05
12 *597:14 *629:8 0.000164874
*RES
1 *4675:Y *629:8 6.805 
2 *629:8 *4676:A_N 1.6 
3 *629:8 *4677:B 4.12 
*END

*D_NET *630 0.00153896
*CONN
*I *4686:B1 I *D sky130_fd_sc_hd__a21o_1
*I *4676:X O *D sky130_fd_sc_hd__and2b_1
*CAP
1 *4686:B1 0.000595401
2 *4676:X 0.000595401
3 *4686:B1 *631:8 0
4 *4644:B *4686:B1 0.000116636
5 *4677:A *4686:B1 7.60965e-05
6 *597:14 *4686:B1 3.32717e-05
7 *599:10 *4686:B1 0
8 *600:12 *4686:B1 0.000122155
*RES
1 *4676:X *4686:B1 18.015 
*END

*D_NET *631 0.00315042
*CONN
*I *4680:A I *D sky130_fd_sc_hd__xor2_2
*I *4679:B I *D sky130_fd_sc_hd__and2b_1
*I *4686:A2 I *D sky130_fd_sc_hd__a21o_1
*I *4677:Y O *D sky130_fd_sc_hd__xnor2_2
*CAP
1 *4680:A 0.000465084
2 *4679:B 3.99824e-05
3 *4686:A2 0
4 *4677:Y 0.000459506
5 *631:17 0.000635615
6 *631:8 0.000590054
7 *4680:A *4678:A3 9.16315e-05
8 *4680:A *4680:B 4.2463e-05
9 *4680:A *4687:B1 0
10 *4678:B1 *4680:A 0.000128353
11 *4678:B1 *631:8 9.50342e-06
12 *4678:B1 *631:17 0.000401983
13 *4686:B1 *631:8 0
14 *599:10 *631:8 0.00011852
15 *600:12 *631:17 0.000167724
16 *601:12 *4680:A 0
17 *604:12 *4680:A 0
*RES
1 *4677:Y *631:8 11.61 
2 *631:8 *4686:A2 3.6 
3 *631:8 *631:17 4.695 
4 *631:17 *4679:B 4.05 
5 *631:17 *4680:A 11.49 
*END

*D_NET *632 0.000609522
*CONN
*I *4680:B I *D sky130_fd_sc_hd__xor2_2
*I *4678:X O *D sky130_fd_sc_hd__a31o_1
*CAP
1 *4680:B 0.000250763
2 *4678:X 0.000250763
3 *4680:B *4678:A3 6.55328e-05
4 *4680:A *4680:B 4.2463e-05
5 *604:12 *4680:B 0
*RES
1 *4678:X *4680:B 9.6725 
*END

*D_NET *633 0.000940082
*CONN
*I *4687:A3 I *D sky130_fd_sc_hd__a31o_1
*I *4679:X O *D sky130_fd_sc_hd__and2b_1
*CAP
1 *4687:A3 0.000350101
2 *4679:X 0.000350101
3 *4687:A3 *4687:B1 2.97291e-05
4 *4687:A3 *4701:B 0
5 *4678:A2 *4687:A3 0.000210151
*RES
1 *4679:X *4687:A3 12.105 
*END

*D_NET *634 0.00163593
*CONN
*I *4681:B I *D sky130_fd_sc_hd__xor2_1
*I *4709:A2 I *D sky130_fd_sc_hd__o21ai_2
*I *4708:A2 I *D sky130_fd_sc_hd__a21o_1
*I *4680:X O *D sky130_fd_sc_hd__xor2_2
*CAP
1 *4681:B 8.33048e-05
2 *4709:A2 0.000131148
3 *4708:A2 1.90984e-05
4 *4680:X 0.000195542
5 *634:14 0.000350042
6 *634:10 0.000478642
7 *4681:B *671:14 9.24127e-05
8 *4709:A2 *4708:A1 8.78813e-05
9 *4709:A2 *635:12 0
10 *4709:A2 *654:18 0
11 *634:10 *671:14 9.05377e-05
12 *4682:B1_N *4709:A2 0
13 *4706:A_N *4709:A2 4.18603e-06
14 *4708:B1 *4708:A2 4.00541e-06
15 *4708:B1 *4709:A2 2.30292e-05
16 *4708:B1 *634:14 7.60965e-05
*RES
1 *4680:X *634:10 6.975 
2 *634:10 *634:14 5.21 
3 *634:14 *4708:A2 1.96 
4 *634:14 *4709:A2 8.195 
5 *634:10 *4681:B 5.49 
*END

*D_NET *635 0.00120984
*CONN
*I *4706:B I *D sky130_fd_sc_hd__and2b_1
*I *5108:A I *D sky130_fd_sc_hd__dlygate4sd1_1
*I *4681:X O *D sky130_fd_sc_hd__xor2_1
*CAP
1 *4706:B 0
2 *5108:A 0.000112411
3 *4681:X 0.000409487
4 *635:12 0.000521898
5 *5108:A *4683:B 4.82919e-05
6 *635:12 *4708:A1 4.18603e-06
7 *635:12 *4709:B1 3.09164e-05
8 *635:12 *671:14 8.26527e-05
9 *4706:A_N *635:12 0
10 *4709:A2 *635:12 0
*RES
1 *4681:X *635:12 12.155 
2 *635:12 *5108:A 3.355 
3 *635:12 *4706:B 1.6 
*END

*D_NET *636 0.000851214
*CONN
*I *4683:B I *D sky130_fd_sc_hd__xnor2_1
*I *4682:Y O *D sky130_fd_sc_hd__o21bai_1
*CAP
1 *4683:B 0.000182707
2 *4682:Y 0.000182707
3 *4683:B *4683:A 0.00012657
4 *4683:B *4707:B1 0.000115779
5 *4683:B *662:14 0.000140912
6 *5108:A *4683:B 4.82919e-05
7 *577:10 *4683:B 5.42473e-05
*RES
1 *4682:Y *4683:B 12.045 
*END

*D_NET *637 0.000176582
*CONN
*I *4684:B I *D sky130_fd_sc_hd__nand2_1
*I *4683:Y O *D sky130_fd_sc_hd__xnor2_1
*CAP
1 *4684:B 8.8291e-05
2 *4683:Y 8.8291e-05
3 *4684:B *4683:A 0
*RES
1 *4683:Y *4684:B 4.61 
*END

*D_NET *638 0.000193329
*CONN
*I *4685:C1 I *D sky130_fd_sc_hd__o211a_1
*I *4684:Y O *D sky130_fd_sc_hd__nand2_1
*CAP
1 *4685:C1 8.81176e-05
2 *4684:Y 8.81176e-05
3 *4685:C1 *4656:B1 1.70935e-05
4 *4685:C1 *1011:44 0
5 *4685:C1 *1011:54 0
*RES
1 *4684:Y *4685:C1 8.58 
*END

*D_NET *639 0.00113529
*CONN
*I *4687:B1 I *D sky130_fd_sc_hd__a31o_1
*I *4686:X O *D sky130_fd_sc_hd__a21o_1
*CAP
1 *4687:B1 0.000371653
2 *4686:X 0.000371653
3 *4678:A2 *4687:B1 0.000113752
4 *4678:B1 *4687:B1 0.000189037
5 *4680:A *4687:B1 0
6 *4687:A3 *4687:B1 2.97291e-05
7 *600:12 *4687:B1 4.99619e-05
8 *604:12 *4687:B1 9.50342e-06
*RES
1 *4686:X *4687:B1 15.15 
*END

*D_NET *640 0.000839943
*CONN
*I *4701:A I *D sky130_fd_sc_hd__xor2_1
*I *4700:A I *D sky130_fd_sc_hd__nand2_2
*I *4687:X O *D sky130_fd_sc_hd__a31o_1
*CAP
1 *4701:A 0
2 *4700:A 0.00027659
3 *4687:X 0.000128362
4 *640:8 0.000404953
5 *4700:A *4701:B 0
6 *640:8 *654:18 3.00381e-05
7 *5112:A *640:8 0
8 *566:10 *4700:A 0
*RES
1 *4687:X *640:8 3.79 
2 *640:8 *4700:A 9.665 
3 *640:8 *4701:A 1.6 
*END

*D_NET *641 0.00504817
*CONN
*I *4714:A1 I *D sky130_fd_sc_hd__a21oi_1
*I *4697:A I *D sky130_fd_sc_hd__xnor2_1
*I *4688:X O *D sky130_fd_sc_hd__a21o_1
*CAP
1 *4714:A1 0.000175677
2 *4697:A 0
3 *4688:X 0.00154441
4 *641:10 0.00172009
5 *4714:A1 *4718:A 6.9855e-05
6 *641:10 *4697:B 4.66108e-05
7 *11:7 *641:10 0.00013827
8 *621:10 *641:10 0.00135326
*RES
1 *4688:X *641:10 23.725 
2 *641:10 *4697:A 1.6 
3 *641:10 *4714:A1 8.705 
*END

*D_NET *642 0.00291036
*CONN
*I *4691:A2 I *D sky130_fd_sc_hd__a21oi_1
*I *4690:B I *D sky130_fd_sc_hd__xor2_1
*I *4689:X O *D sky130_fd_sc_hd__mux2_1
*CAP
1 *4691:A2 0
2 *4690:B 0.000231093
3 *4689:X 0.00057393
4 *642:18 0.000805023
5 *642:18 *4662:A1_N 0.00018663
6 *642:18 *4662:A2_N 0.000101609
7 *642:18 *4663:A_N 0.000121659
8 *642:18 *644:12 4.00541e-06
9 *642:18 *994:94 8.41384e-05
10 *4661:A *4690:B 9.66322e-05
11 *4662:B2 *642:18 8.57024e-05
12 *4691:A1 *4690:B 7.03276e-05
13 *614:16 *4690:B 4.89395e-05
14 *617:31 *642:18 0.000500675
*RES
1 *4689:X *642:18 15.25 
2 *642:18 *4690:B 9.98 
3 *642:18 *4691:A2 1.6 
*END

*D_NET *643 0.00201088
*CONN
*I *4715:S I *D sky130_fd_sc_hd__mux2_1
*I *4692:A0 I *D sky130_fd_sc_hd__mux2_1
*I *4690:X O *D sky130_fd_sc_hd__xor2_1
*CAP
1 *4715:S 0.000421017
2 *4692:A0 0
3 *4690:X 0.000202656
4 *643:8 0.000623673
5 *4715:S *4716:B1 0.000179358
6 *4715:S *4717:A1 8.53113e-06
7 *4715:S *667:8 2.75229e-05
8 *4692:A1 *643:8 0.000461663
9 *4715:A0 *4715:S 8.64599e-05
*RES
1 *4690:X *643:8 6.55 
2 *643:8 *4692:A0 1.6 
3 *643:8 *4715:S 13.01 
*END

*D_NET *644 0.0018721
*CONN
*I *4717:A1 I *D sky130_fd_sc_hd__a21bo_1
*I *4716:B1 I *D sky130_fd_sc_hd__a211o_1
*I *4691:Y O *D sky130_fd_sc_hd__a21oi_1
*CAP
1 *4717:A1 0.000156111
2 *4716:B1 4.89552e-05
3 *4691:Y 0.000308021
4 *644:12 0.000513087
5 *4716:B1 *4716:C1 0.00015783
6 *4717:A1 *4716:C1 4.38051e-05
7 *4717:A1 *4717:A2 0.00011852
8 *644:12 *667:8 2.49909e-05
9 *4692:S *4716:B1 3.75882e-06
10 *4715:S *4716:B1 0.000179358
11 *4715:S *4717:A1 8.53113e-06
12 *617:31 *644:12 6.72833e-06
13 *617:42 *4716:B1 9.12857e-06
14 *617:42 *644:12 0.000289267
15 *642:18 *644:12 4.00541e-06
*RES
1 *4691:Y *644:12 9.69 
2 *644:12 *4716:B1 5.745 
3 *644:12 *4717:A1 6.54 
*END

*D_NET *645 0.000151952
*CONN
*I *4693:B I *D sky130_fd_sc_hd__xor2_1
*I *4692:X O *D sky130_fd_sc_hd__mux2_1
*CAP
1 *4693:B 7.5976e-05
2 *4692:X 7.5976e-05
*RES
1 *4692:X *4693:B 4.355 
*END

*D_NET *646 0.00101844
*CONN
*I *4695:C_N I *D sky130_fd_sc_hd__or3b_1
*I *4694:B1_N I *D sky130_fd_sc_hd__o21ba_1
*I *4693:X O *D sky130_fd_sc_hd__xor2_1
*CAP
1 *4695:C_N 3.62342e-05
2 *4694:B1_N 0
3 *4693:X 0.000247567
4 *646:8 0.000283802
5 *4695:C_N *647:6 4.89395e-05
6 *4693:A *646:8 0.000122817
7 *4695:A *4695:C_N 7.87195e-05
8 *4695:A *646:8 0.000200359
*RES
1 *4693:X *646:8 6.55 
2 *646:8 *4694:B1_N 1.6 
3 *646:8 *4695:C_N 2.74 
*END

*D_NET *647 0.00084685
*CONN
*I *4714:B1 I *D sky130_fd_sc_hd__a21oi_1
*I *4696:A_N I *D sky130_fd_sc_hd__and2b_1
*I *4694:X O *D sky130_fd_sc_hd__o21ba_1
*CAP
1 *4714:B1 0.000106246
2 *4696:A_N 0
3 *4694:X 0.000164272
4 *647:6 0.000270518
5 *4714:B1 *4714:A2 0.00012398
6 *4714:B1 *648:6 4.63995e-05
7 *647:6 *648:6 2.01737e-05
8 *4695:A *647:6 6.63221e-05
9 *4695:C_N *647:6 4.89395e-05
*RES
1 *4694:X *647:6 4.465 
2 *647:6 *4696:A_N 1.6 
3 *647:6 *4714:B1 3.775 
*END

*D_NET *648 0.00064131
*CONN
*I *4696:B I *D sky130_fd_sc_hd__and2b_1
*I *4714:A2 I *D sky130_fd_sc_hd__a21oi_1
*I *4695:X O *D sky130_fd_sc_hd__or3b_1
*CAP
1 *4696:B 0
2 *4714:A2 0.000145457
3 *4695:X 7.9921e-05
4 *648:6 0.000225378
5 *4714:B1 *4714:A2 0.00012398
6 *4714:B1 *648:6 4.63995e-05
7 *647:6 *648:6 2.01737e-05
*RES
1 *4695:X *648:6 3.085 
2 *648:6 *4714:A2 4.39 
3 *648:6 *4696:B 1.6 
*END

*D_NET *649 0.000341454
*CONN
*I *4697:B I *D sky130_fd_sc_hd__xnor2_1
*I *4696:X O *D sky130_fd_sc_hd__and2b_1
*CAP
1 *4697:B 9.09713e-05
2 *4696:X 9.09713e-05
3 *4697:B *4718:A 0.000112901
4 *641:10 *4697:B 4.66108e-05
*RES
1 *4696:X *4697:B 9.03 
*END

*D_NET *650 0.00488393
*CONN
*I *4719:A1 I *D sky130_fd_sc_hd__o211a_4
*I *4699:A I *D sky130_fd_sc_hd__xor2_1
*I *4697:Y O *D sky130_fd_sc_hd__xnor2_1
*CAP
1 *4719:A1 4.89376e-05
2 *4699:A 4.51661e-05
3 *4697:Y 0.00177587
4 *650:12 0.00186998
5 *4699:A *4699:B 4.82863e-05
6 *4719:A1 *4699:B 0.000114024
7 *650:12 *4718:A 0
8 *650:12 *4719:C1 0
9 *650:12 *651:14 0
10 *4608:B *650:12 1.52945e-05
11 *4609:A *650:12 0.000154481
12 *4637:A *650:12 0
13 *4638:B *650:12 0
14 *4640:B *650:12 0.000130065
15 *4672:B *650:12 0.000120186
16 *525:12 *650:12 0
17 *562:10 *650:12 0.000367688
18 *592:12 *650:12 9.60047e-05
19 *593:10 *650:12 0
20 *623:12 *650:12 9.79472e-05
*RES
1 *4697:Y *650:12 38.285 
2 *650:12 *4699:A 2.395 
3 *650:12 *4719:A1 2.74 
*END

*D_NET *651 0.00421365
*CONN
*I *4719:A2 I *D sky130_fd_sc_hd__o211a_4
*I *4699:B I *D sky130_fd_sc_hd__xor2_1
*I *4698:X O *D sky130_fd_sc_hd__o21a_1
*CAP
1 *4719:A2 0
2 *4699:B 9.86557e-05
3 *4698:X 0.000953028
4 *651:14 0.00105168
5 *4699:B *4719:B1 0
6 *4699:B *652:8 0.00012657
7 *651:14 *4719:C1 0.00101561
8 *651:14 *652:8 4.35348e-05
9 *4608:B *651:14 0
10 *4609:A *651:14 0
11 *4639:B1 *651:14 0.00011686
12 *4640:A *651:14 8.08153e-06
13 *4641:B *651:14 0.000120186
14 *4699:A *4699:B 4.82863e-05
15 *4719:A1 *4699:B 0.000114024
16 *562:10 *651:14 0
17 *593:10 *651:14 0.000430538
18 *627:12 *651:14 8.65905e-05
19 *650:12 *651:14 0
*RES
1 *4698:X *651:14 29.225 
2 *651:14 *4699:B 4.135 
3 *651:14 *4719:A2 1.6 
*END

*D_NET *652 0.00184122
*CONN
*I *4701:B I *D sky130_fd_sc_hd__xor2_1
*I *4700:B I *D sky130_fd_sc_hd__nand2_2
*I *4699:X O *D sky130_fd_sc_hd__xor2_1
*CAP
1 *4701:B 0.000193492
2 *4700:B 0
3 *4699:X 0.000433449
4 *652:8 0.000626941
5 *4701:B *671:14 0.000163199
6 *652:8 *4719:B1 0.000210411
7 *652:8 *671:14 4.36241e-05
8 *4678:A2 *4701:B 0
9 *4687:A3 *4701:B 0
10 *4699:B *652:8 0.00012657
11 *4700:A *4701:B 0
12 *651:14 *652:8 4.35348e-05
*RES
1 *4699:X *652:8 9.22 
2 *652:8 *4700:B 1.6 
3 *652:8 *4701:B 9.23 
*END

*D_NET *653 0.000608948
*CONN
*I *4719:B1 I *D sky130_fd_sc_hd__o211a_4
*I *4700:Y O *D sky130_fd_sc_hd__nand2_2
*CAP
1 *4719:B1 0.000135984
2 *4700:Y 0.000135984
3 *4719:B1 *671:14 0.00012657
4 *4699:B *4719:B1 0
5 *652:8 *4719:B1 0.000210411
*RES
1 *4700:Y *4719:B1 6.77 
*END

*D_NET *654 0.00618625
*CONN
*I *4704:B I *D sky130_fd_sc_hd__nor2_1
*I *4702:B I *D sky130_fd_sc_hd__nand2_1
*I *4701:X O *D sky130_fd_sc_hd__xor2_1
*CAP
1 *4704:B 5.51476e-05
2 *4702:B 0
3 *4701:X 0.00160251
4 *654:18 0.00165765
5 *4704:B *4702:A 5.04034e-05
6 *4704:B *655:10 4.60584e-05
7 *4704:B *657:12 1.16578e-05
8 *4704:B *662:14 2.59926e-05
9 *4704:B *802:26 0
10 *654:18 *4650:B 0.000471307
11 *654:18 *4652:A 2.86623e-05
12 *654:18 *4653:B 7.93632e-05
13 *654:18 *5038:A 0
14 *654:18 *662:14 0.000868982
15 *654:18 *662:20 0
16 *654:18 *799:8 0
17 *4650:A *654:18 0.000423933
18 *4682:B1_N *654:18 0.000163012
19 *4706:A_N *654:18 5.4256e-05
20 *4707:A1 *654:18 8.97642e-05
21 *4709:A2 *654:18 0
22 *607:8 *654:18 0.000340587
23 *608:10 *654:18 0.000186919
24 *640:8 *654:18 3.00381e-05
*RES
1 *4701:X *654:18 38.825 
2 *654:18 *4702:B 1.6 
3 *654:18 *4704:B 3.46 
*END

*D_NET *655 0.00210982
*CONN
*I *4727:A1 I *D sky130_fd_sc_hd__o21ba_4
*I *4703:A I *D sky130_fd_sc_hd__inv_2
*I *4702:Y O *D sky130_fd_sc_hd__nand2_1
*CAP
1 *4727:A1 0.000120042
2 *4703:A 2.67084e-05
3 *4702:Y 0.000426452
4 *655:10 0.000573202
5 *4703:A *674:6 4.99619e-05
6 *4703:A *778:161 5.05521e-05
7 *4727:A1 *4588:B1 4.82919e-05
8 *4727:A1 *4728:A 0
9 *4727:A1 *4728:B 4.82919e-05
10 *4727:A1 *656:23 2.97004e-06
11 *4727:A1 *672:14 0.000193564
12 *655:10 *4705:A 3.68769e-05
13 *655:10 *4711:A 7.06865e-05
14 *655:10 *656:23 1.82476e-05
15 *655:10 *657:12 0.00016063
16 *655:10 *660:12 0.000122337
17 *655:10 *660:34 7.25691e-05
18 *655:10 *663:21 0
19 *655:10 *672:14 3.25831e-05
20 *655:10 *802:26 9.80032e-06
21 *4704:B *655:10 4.60584e-05
*RES
1 *4702:Y *655:10 10.575 
2 *655:10 *4703:A 4.395 
3 *655:10 *4727:A1 6.45 
*END

*D_NET *656 0.00141298
*CONN
*I *4723:A1 I *D sky130_fd_sc_hd__o21a_1
*I *4724:A1 I *D sky130_fd_sc_hd__o31ai_1
*I *4705:A I *D sky130_fd_sc_hd__or2_1
*I *4703:Y O *D sky130_fd_sc_hd__inv_2
*CAP
1 *4723:A1 6.97088e-05
2 *4724:A1 0
3 *4705:A 0.000138766
4 *4703:Y 0
5 *656:23 0.000118179
6 *656:6 0.000187237
7 *4705:A *4728:A 0.000237492
8 *4723:A1 *4723:B1 4.47125e-05
9 *4723:A1 *4724:A3 4.00541e-06
10 *4723:A1 *4725:A1 4.82919e-05
11 *4723:A1 *674:6 6.38806e-05
12 *4723:A1 *778:161 0.00023468
13 *656:23 *4728:A 1.94805e-05
14 *656:23 *674:6 0.000123225
15 *656:23 *778:161 6.52265e-05
16 *4727:A1 *656:23 2.97004e-06
17 *655:10 *4705:A 3.68769e-05
18 *655:10 *656:23 1.82476e-05
*RES
1 *4703:Y *656:6 3.6 
2 *656:6 *4705:A 6.555 
3 *656:6 *656:23 3.755 
4 *656:23 *4724:A1 1.6 
5 *656:23 *4723:A1 4.135 
*END

*D_NET *657 0.00214184
*CONN
*I *4728:A I *D sky130_fd_sc_hd__or2_4
*I *4705:B I *D sky130_fd_sc_hd__or2_1
*I *4704:Y O *D sky130_fd_sc_hd__nor2_1
*CAP
1 *4728:A 0.000334679
2 *4705:B 0
3 *4704:Y 8.08304e-05
4 *657:12 0.000415509
5 *4728:A *4588:B1 3.09233e-05
6 *4728:A *4725:B2 0
7 *4728:A *663:21 0.000224487
8 *4728:A *778:25 0
9 *4728:A *846:47 4.18603e-06
10 *4728:A *1011:36 0.000227055
11 *657:12 *4702:A 2.7441e-05
12 *657:12 *660:8 8.53113e-06
13 *657:12 *660:34 0.000149766
14 *657:12 *662:20 0.000159964
15 *657:12 *802:26 4.92062e-05
16 *4704:B *657:12 1.16578e-05
17 *4705:A *4728:A 0.000237492
18 *4727:A1 *4728:A 0
19 *655:10 *657:12 0.00016063
20 *656:23 *4728:A 1.94805e-05
*RES
1 *4704:Y *657:12 8.975 
2 *657:12 *4705:B 1.6 
3 *657:12 *4728:A 13.34 
*END

*D_NET *658 0.00142275
*CONN
*I *4710:B1 I *D sky130_fd_sc_hd__a21oi_1
*I *4711:A I *D sky130_fd_sc_hd__and3_1
*I *4705:X O *D sky130_fd_sc_hd__or2_1
*CAP
1 *4710:B1 0.000270353
2 *4711:A 0.00012567
3 *4705:X 0
4 *658:4 0.000396023
5 *4710:B1 *4712:A1 1.16578e-05
6 *4710:B1 *4712:A2 1.03423e-05
7 *4710:B1 *663:21 9.30717e-05
8 *4710:B1 *802:26 6.94424e-05
9 *4710:B1 *1011:36 0.000238137
10 *4710:B1 *1011:38 0
11 *4710:B1 *1011:40 0
12 *4711:A *660:8 4.13171e-05
13 *4711:A *660:34 4.94404e-05
14 *4711:A *802:26 0
15 *4711:A *1011:36 4.66108e-05
16 *655:10 *4711:A 7.06865e-05
*RES
1 *4705:X *658:4 1.6 
2 *658:4 *4711:A 7.94 
3 *658:4 *4710:B1 10.115 
*END

*D_NET *659 0.000848911
*CONN
*I *4707:B1 I *D sky130_fd_sc_hd__o21ai_4
*I *4706:X O *D sky130_fd_sc_hd__and2b_1
*CAP
1 *4707:B1 0.000348177
2 *4706:X 0.000348177
3 *4707:B1 *662:14 0
4 *4622:B *4707:B1 0
5 *4683:B *4707:B1 0.000115779
6 *574:25 *4707:B1 0
7 *577:10 *4707:B1 3.67779e-05
*RES
1 *4706:X *4707:B1 12.45 
*END

*D_NET *660 0.00408198
*CONN
*I *4729:A1 I *D sky130_fd_sc_hd__a31o_1
*I *4753:A1 I *D sky130_fd_sc_hd__a311o_1
*I *4710:A1 I *D sky130_fd_sc_hd__a21oi_1
*I *4711:B I *D sky130_fd_sc_hd__and3_1
*I *4707:Y O *D sky130_fd_sc_hd__o21ai_4
*CAP
1 *4729:A1 3.34312e-05
2 *4753:A1 0.000232435
3 *4710:A1 6.9303e-05
4 *4711:B 2.08101e-05
5 *4707:Y 0.000262699
6 *660:34 0.00069209
7 *660:12 0.000135814
8 *660:8 0.000734623
9 *4710:A1 *4710:A2 2.56971e-05
10 *4710:A1 *4712:A1 3.17194e-05
11 *4710:A1 *4712:A2 8.8266e-05
12 *4710:A1 *802:26 8.8262e-05
13 *4729:A1 *662:20 4.31106e-05
14 *4729:A1 *679:14 0
15 *4753:A1 *4753:A2 4.85494e-05
16 *4753:A1 *4753:C1 0.00020037
17 *660:8 *662:20 4.84472e-05
18 *660:8 *802:26 0
19 *660:12 *802:26 0.000120506
20 *660:34 *4588:B1 0
21 *660:34 *662:20 0.000579184
22 *660:34 *672:14 0.000121322
23 *660:34 *679:14 6.1378e-05
24 *4711:A *660:8 4.13171e-05
25 *4711:A *660:34 4.94404e-05
26 *574:25 *660:8 0
27 *655:10 *660:12 0.000122337
28 *655:10 *660:34 7.25691e-05
29 *657:12 *660:8 8.53113e-06
30 *657:12 *660:34 0.000149766
*RES
1 *4707:Y *660:8 8.04 
2 *660:8 *660:12 3.485 
3 *660:12 *4711:B 1.96 
4 *660:12 *4710:A1 3.7 
5 *660:8 *660:34 11.88 
6 *660:34 *4753:A1 6.825 
7 *660:34 *4729:A1 4.215 
*END

*D_NET *661 0.000423133
*CONN
*I *4709:B1 I *D sky130_fd_sc_hd__o21ai_2
*I *4708:X O *D sky130_fd_sc_hd__a21o_1
*CAP
1 *4709:B1 8.97212e-05
2 *4708:X 8.97212e-05
3 *4709:B1 *4681:A 5.05521e-05
4 *4709:B1 *4708:A1 0
5 *4709:B1 *671:14 7.81954e-05
6 *4709:B1 *968:111 8.40269e-05
7 *635:12 *4709:B1 3.09164e-05
*RES
1 *4708:X *4709:B1 9.63 
*END

*D_NET *662 0.00684537
*CONN
*I *4710:A2 I *D sky130_fd_sc_hd__a21oi_1
*I *4711:C I *D sky130_fd_sc_hd__and3_1
*I *4753:A2 I *D sky130_fd_sc_hd__a311o_1
*I *4729:A2 I *D sky130_fd_sc_hd__a31o_1
*I *4709:Y O *D sky130_fd_sc_hd__o21ai_2
*CAP
1 *4710:A2 7.8436e-05
2 *4711:C 0
3 *4753:A2 0.00012405
4 *4729:A2 0
5 *4709:Y 0.000577891
6 *662:42 0.000240674
7 *662:20 0.000605874
8 *662:14 0.00122195
9 *4710:A2 *802:26 9.37769e-05
10 *4753:A2 *4753:C1 4.37098e-05
11 *4753:A2 *680:12 4.10542e-05
12 *4753:A2 *804:22 0.000274496
13 *662:14 *4702:A 0.00012657
14 *662:14 *801:10 0.000187276
15 *662:14 *801:12 8.65961e-05
16 *662:14 *802:26 2.05056e-05
17 *662:20 *4722:B 4.13249e-05
18 *662:20 *4727:B1_N 6.02123e-05
19 *662:20 *4729:A3 0.000113797
20 *662:20 *4733:A1 0
21 *662:20 *678:8 0.00036532
22 *662:20 *680:12 1.26626e-05
23 *662:42 *802:26 0.000131353
24 *4622:B *662:14 0.000162332
25 *4682:B1_N *662:14 4.66108e-05
26 *4683:B *662:14 0.000140912
27 *4704:B *662:14 2.59926e-05
28 *4707:B1 *662:14 0
29 *4710:A1 *4710:A2 2.56971e-05
30 *4729:A1 *662:20 4.31106e-05
31 *4753:A1 *4753:A2 4.85494e-05
32 *574:25 *662:14 0.000222061
33 *577:10 *662:14 0
34 *608:10 *662:14 2.59981e-05
35 *654:18 *662:14 0.000868982
36 *654:18 *662:20 0
37 *657:12 *662:20 0.000159964
38 *660:8 *662:20 4.84472e-05
39 *660:34 *662:20 0.000579184
*RES
1 *4709:Y *662:14 20.345 
2 *662:14 *662:20 17.11 
3 *662:20 *4729:A2 1.6 
4 *662:20 *4753:A2 5.65 
5 *662:14 *662:42 2.235 
6 *662:42 *4711:C 1.6 
7 *662:42 *4710:A2 3.4 
*END

*D_NET *663 0.00147204
*CONN
*I *4723:A2 I *D sky130_fd_sc_hd__o21a_1
*I *4724:A2 I *D sky130_fd_sc_hd__o31ai_1
*I *4712:A1 I *D sky130_fd_sc_hd__o21ai_1
*I *4710:Y O *D sky130_fd_sc_hd__a21oi_1
*CAP
1 *4723:A2 0.00014132
2 *4724:A2 0
3 *4712:A1 3.30444e-05
4 *4710:Y 0
5 *663:21 0.000368466
6 *663:4 0.000260191
7 *4712:A1 *4712:A2 2.11084e-05
8 *4712:A1 *802:26 2.30292e-05
9 *4723:A2 *778:161 0.000208109
10 *663:21 *4725:B2 2.66935e-05
11 *663:21 *778:161 2.91399e-05
12 *663:21 *1011:38 0
13 *663:21 *1011:116 0
14 *4710:A1 *4712:A1 3.17194e-05
15 *4710:B1 *4712:A1 1.16578e-05
16 *4710:B1 *663:21 9.30717e-05
17 *4728:A *663:21 0.000224487
18 *655:10 *663:21 0
*RES
1 *4710:Y *663:4 1.6 
2 *663:4 *4712:A1 2.665 
3 *663:4 *663:21 8.7175 
4 *663:21 *4724:A2 1.6 
5 *663:21 *4723:A2 3.6025 
*END

*D_NET *664 0.000466597
*CONN
*I *4712:A2 I *D sky130_fd_sc_hd__o21ai_1
*I *4711:X O *D sky130_fd_sc_hd__and3_1
*CAP
1 *4712:A2 0.000169149
2 *4711:X 0.000169149
3 *4712:A2 *802:26 8.58339e-06
4 *4710:A1 *4712:A2 8.8266e-05
5 *4710:B1 *4712:A2 1.03423e-05
6 *4712:A1 *4712:A2 2.11084e-05
*RES
1 *4711:X *4712:A2 5.375 
*END

*D_NET *665 0.000559449
*CONN
*I *4713:C1 I *D sky130_fd_sc_hd__o211a_1
*I *4712:Y O *D sky130_fd_sc_hd__o21ai_1
*CAP
1 *4713:C1 0.000137553
2 *4712:Y 0.000137553
3 *4713:C1 *778:29 0.000116151
4 *4713:C1 *802:26 0.000123225
5 *4713:C1 *1011:40 4.19967e-05
6 *4713:C1 *1011:42 2.97004e-06
*RES
1 *4712:Y *4713:C1 9.72 
*END

*D_NET *666 0.000886936
*CONN
*I *4718:A I *D sky130_fd_sc_hd__xor2_1
*I *4714:Y O *D sky130_fd_sc_hd__a21oi_1
*CAP
1 *4718:A 0.000338333
2 *4714:Y 0.000338333
3 *4697:B *4718:A 0.000112901
4 *4714:A1 *4718:A 6.9855e-05
5 *623:12 *4718:A 2.75145e-05
6 *650:12 *4718:A 0
*RES
1 *4714:Y *4718:A 13.365 
*END

*D_NET *667 0.00109181
*CONN
*I *4717:A2 I *D sky130_fd_sc_hd__a21bo_1
*I *4716:C1 I *D sky130_fd_sc_hd__a211o_1
*I *4715:X O *D sky130_fd_sc_hd__mux2_1
*CAP
1 *4717:A2 5.48705e-05
2 *4716:C1 0.000147473
3 *4715:X 9.9467e-05
4 *667:8 0.00030181
5 *4716:C1 *4717:B1_N 0
6 *4717:A2 *4717:B1_N 0
7 *4715:S *667:8 2.75229e-05
8 *4716:A1 *4716:C1 5.25905e-05
9 *4716:B1 *4716:C1 0.00015783
10 *4717:A1 *4716:C1 4.38051e-05
11 *4717:A1 *4717:A2 0.00011852
12 *617:42 *4716:C1 6.29313e-05
13 *644:12 *667:8 2.49909e-05
*RES
1 *4715:X *667:8 4.74 
2 *667:8 *4716:C1 7.155 
3 *667:8 *4717:A2 4.98 
*END

*D_NET *668 0.000526179
*CONN
*I *4717:B1_N I *D sky130_fd_sc_hd__a21bo_1
*I *4716:X O *D sky130_fd_sc_hd__a211o_1
*CAP
1 *4717:B1_N 0.000239623
2 *4716:X 0.000239623
3 *4716:C1 *4717:B1_N 0
4 *4717:A2 *4717:B1_N 0
5 *617:42 *4717:B1_N 3.14077e-05
6 *621:10 *4717:B1_N 1.55253e-05
*RES
1 *4716:X *4717:B1_N 11.07 
*END

*D_NET *669 0.00217715
*CONN
*I *4718:B I *D sky130_fd_sc_hd__xor2_1
*I *4717:X O *D sky130_fd_sc_hd__a21bo_1
*CAP
1 *4718:B 0.000837062
2 *4717:X 0.000837062
3 *4669:A *4718:B 4.01687e-05
4 *4669:B *4718:B 0.000352161
5 *623:12 *4718:B 0.000110691
*RES
1 *4717:X *4718:B 16.43 
*END

*D_NET *670 0.00446087
*CONN
*I *4719:C1 I *D sky130_fd_sc_hd__o211a_4
*I *4718:X O *D sky130_fd_sc_hd__xor2_1
*CAP
1 *4719:C1 0.00164006
2 *4718:X 0.00164006
3 *4641:B *4719:C1 0.000120186
4 *4643:B1 *4719:C1 0
5 *4675:A1 *4719:C1 0
6 *566:10 *4719:C1 0
7 *578:10 *4719:C1 0
8 *624:12 *4719:C1 4.49498e-05
9 *650:12 *4719:C1 0
10 *651:14 *4719:C1 0.00101561
*RES
1 *4718:X *4719:C1 39.675 
*END

*D_NET *671 0.0188294
*CONN
*I *4934:A I *D sky130_fd_sc_hd__clkbuf_1
*I *4954:A I *D sky130_fd_sc_hd__clkbuf_2
*I *5111:A I *D sky130_fd_sc_hd__dlygate4sd1_1
*I *4952:A I *D sky130_fd_sc_hd__buf_2
*I *4953:A I *D sky130_fd_sc_hd__buf_4
*I *4955:A I *D sky130_fd_sc_hd__buf_12
*I *4719:X O *D sky130_fd_sc_hd__o211a_4
*CAP
1 *4934:A 8.85442e-05
2 *4954:A 0
3 *5111:A 9.06142e-05
4 *4952:A 0.000243665
5 *4953:A 0.000195918
6 *4955:A 0
7 *4719:X 0.00266962
8 *671:51 0.000511413
9 *671:47 0.000946876
10 *671:39 0.0017355
11 *671:27 0.00179174
12 *671:14 0.00342175
13 *4934:A *4735:B1_N 0.000200615
14 *4934:A *856:8 0.000161837
15 *4934:A *856:30 5.4155e-06
16 *4952:A *971:39 0.00057429
17 *4953:A *722:10 0.000317494
18 *4953:A *813:25 0
19 *4953:A *836:46 0
20 *5111:A *4805:C 0.000313857
21 *5111:A *4805:D 0.000275553
22 *5111:A *1002:28 2.30292e-05
23 *671:14 *4620:B1 0
24 *671:14 *4708:A1 0
25 *671:14 *4897:CLK 0
26 *671:14 *5038:A 0
27 *671:14 *799:8 0
28 *671:14 *799:14 0
29 *671:14 *849:43 0
30 *671:14 *964:14 0.000184717
31 *671:14 *964:32 2.30797e-05
32 *671:27 *4203:B 0
33 *671:27 *4734:B 0.000178707
34 *671:27 *4752:A 0
35 *671:27 *4754:B1 2.75145e-05
36 *671:27 *684:8 0
37 *671:27 *684:21 0
38 *671:27 *856:8 6.1357e-05
39 *671:27 *964:32 0.000742827
40 *671:27 *964:45 0.000324979
41 *671:39 *4740:A 0
42 *671:39 *4746:A 0.000160658
43 *671:39 *4746:B 0.000672636
44 *671:39 *4752:D 0
45 *671:39 *4754:A2 0
46 *671:39 *4754:A4 9.14049e-05
47 *671:39 *4781:A 0.000160658
48 *671:39 *4782:A1 7.45625e-05
49 *671:39 *700:10 0
50 *671:39 *702:10 4.40899e-05
51 *671:39 *804:31 1.71013e-05
52 *671:39 *804:44 0.000259242
53 *671:47 *4751:B 1.03423e-05
54 *671:47 *4783:A1 0.000239807
55 *671:47 *4783:A2 1.19928e-05
56 *671:47 *4783:B1 0.000306155
57 *671:47 *4806:B1 2.54557e-05
58 *671:47 *723:23 1.91597e-05
59 *671:47 *837:89 4.07899e-05
60 *671:47 *1002:28 8.34281e-06
61 *671:51 *722:10 3.09233e-05
62 *671:51 *722:25 0.000109016
63 *671:51 *836:46 0
64 *4651:A *671:14 0
65 *4651:B *671:14 9.17166e-05
66 *4653:A *671:14 0
67 *4678:A1 *671:14 3.69909e-05
68 *4678:A2 *671:14 0.00027209
69 *4681:B *671:14 9.24127e-05
70 *4701:B *671:14 0.000163199
71 *4709:B1 *671:14 7.81954e-05
72 *4719:B1 *671:14 0.00012657
73 *4897:D *671:14 3.90349e-05
74 *183:69 *671:39 0.000319164
75 *634:10 *671:14 9.05377e-05
76 *635:12 *671:14 8.26527e-05
77 *652:8 *671:14 4.36241e-05
*RES
1 *4719:X *671:14 46.155 
2 *671:14 *4955:A 3.6 
3 *671:14 *671:27 18.395 
4 *671:27 *671:39 25.915 
5 *671:39 *671:47 10.935 
6 *671:47 *671:51 3.635 
7 *671:51 *4953:A 7.785 
8 *671:51 *4952:A 8.88 
9 *671:47 *5111:A 5.17 
10 *671:39 *4954:A 1.6 
11 *671:27 *4934:A 4.48 
*END

*D_NET *672 0.00192322
*CONN
*I *4722:A I *D sky130_fd_sc_hd__or2_1
*I *4728:B I *D sky130_fd_sc_hd__or2_4
*I *4727:A2 I *D sky130_fd_sc_hd__o21ba_4
*I *4720:Y O *D sky130_fd_sc_hd__nor2_1
*CAP
1 *4722:A 0
2 *4728:B 6.67574e-05
3 *4727:A2 0
4 *4720:Y 0.000335296
5 *672:14 0.000149232
6 *672:8 0.00041777
7 *4728:B *4588:B1 8.82473e-05
8 *4728:B *679:14 0.000164874
9 *672:8 *4721:B 0.000164874
10 *672:8 *4722:B 9.2741e-05
11 *672:8 *778:161 4.7672e-05
12 *4727:A1 *4728:B 4.82919e-05
13 *4727:A1 *672:14 0.000193564
14 *655:10 *672:14 3.25831e-05
15 *660:34 *672:14 0.000121322
*RES
1 *4720:Y *672:8 6.205 
2 *672:8 *672:14 6.655 
3 *672:14 *4727:A2 1.6 
4 *672:14 *4728:B 3.79 
5 *672:8 *4722:A 1.6 
*END

*D_NET *673 0.000774847
*CONN
*I *4727:B1_N I *D sky130_fd_sc_hd__o21ba_4
*I *4722:B I *D sky130_fd_sc_hd__or2_1
*I *4721:X O *D sky130_fd_sc_hd__and2_4
*CAP
1 *4727:B1_N 8.06237e-05
2 *4722:B 7.83196e-05
3 *4721:X 0
4 *673:6 0.000158943
5 *4722:B *778:161 9.02259e-05
6 *4722:B *803:12 2.15738e-05
7 *4727:B1_N *4205:A 8.65905e-05
8 *4727:B1_N *4588:B1 4.17846e-05
9 *4727:B1_N *803:12 2.25075e-05
10 *662:20 *4722:B 4.13249e-05
11 *662:20 *4727:B1_N 6.02123e-05
12 *672:8 *4722:B 9.2741e-05
*RES
1 *4721:X *673:6 3.6 
2 *673:6 *4722:B 5.955 
3 *673:6 *4727:B1_N 5.775 
*END

*D_NET *674 0.00106571
*CONN
*I *4723:B1 I *D sky130_fd_sc_hd__o21a_1
*I *4724:A3 I *D sky130_fd_sc_hd__o31ai_1
*I *4722:X O *D sky130_fd_sc_hd__or2_1
*CAP
1 *4723:B1 0.000126019
2 *4724:A3 1.90984e-05
3 *4722:X 0.000162476
4 *674:6 0.000307593
5 *4723:B1 *4725:A1 0.00015494
6 *4724:A3 *4725:A1 0
7 *674:6 *778:161 9.80032e-06
8 *4703:A *674:6 4.99619e-05
9 *4723:A1 *4723:B1 4.47125e-05
10 *4723:A1 *4724:A3 4.00541e-06
11 *4723:A1 *674:6 6.38806e-05
12 *656:23 *674:6 0.000123225
*RES
1 *4722:X *674:6 4.465 
2 *674:6 *4724:A3 1.96 
3 *674:6 *4723:B1 4.135 
*END

*D_NET *675 0.000553541
*CONN
*I *4725:B1 I *D sky130_fd_sc_hd__o221a_1
*I *4723:X O *D sky130_fd_sc_hd__o21a_1
*CAP
1 *4725:B1 8.68281e-05
2 *4723:X 8.68281e-05
3 *4725:B1 *4205:A 4.21973e-05
4 *4725:B1 *4725:A1 0.000136877
5 *4725:B1 *4725:A2 3.09164e-05
6 *4725:B1 *4725:B2 4.82863e-05
7 *4725:B1 *778:25 5.57736e-05
8 *4725:B1 *846:41 6.58339e-05
*RES
1 *4723:X *4725:B1 9.975 
*END

*D_NET *676 0.000744853
*CONN
*I *4725:B2 I *D sky130_fd_sc_hd__o221a_1
*I *4724:Y O *D sky130_fd_sc_hd__o31ai_1
*CAP
1 *4725:B2 0.00017325
2 *4724:Y 0.00017325
3 *4725:B2 *4205:A 0.000199833
4 *4725:B2 *778:27 0
5 *4725:B2 *846:41 2.7441e-05
6 *4725:B2 *846:47 8.65961e-05
7 *4725:B2 *1011:116 9.50342e-06
8 *4725:B1 *4725:B2 4.82863e-05
9 *4728:A *4725:B2 0
10 *663:21 *4725:B2 2.66935e-05
*RES
1 *4724:Y *4725:B2 11.175 
*END

*D_NET *677 0.00112451
*CONN
*I *4730:A I *D sky130_fd_sc_hd__or2_4
*I *4752:B I *D sky130_fd_sc_hd__or4_4
*I *4731:A I *D sky130_fd_sc_hd__nand2_1
*I *4726:Y O *D sky130_fd_sc_hd__xnor2_4
*CAP
1 *4730:A 3.88397e-05
2 *4752:B 0.000106941
3 *4731:A 0
4 *4726:Y 0
5 *677:10 0.000192864
6 *677:4 0.000124763
7 *4730:A *4730:B 4.99619e-05
8 *4730:A *838:118 0.000129499
9 *4752:B *4731:B 4.82863e-05
10 *4752:B *4752:C 0.000129808
11 *4752:B *966:100 0.000134306
12 *677:10 *4731:B 0.000136877
13 *677:10 *681:10 0
14 *4204:B2 *4730:A 3.23663e-05
*RES
1 *4726:Y *677:4 1.6 
2 *677:4 *677:10 5.635 
3 *677:10 *4731:A 1.6 
4 *677:10 *4752:B 4.84 
5 *677:4 *4730:A 3.1 
*END

*D_NET *678 0.00159637
*CONN
*I *4729:A3 I *D sky130_fd_sc_hd__a31o_1
*I *4753:A3 I *D sky130_fd_sc_hd__a311o_1
*I *4727:X O *D sky130_fd_sc_hd__o21ba_4
*CAP
1 *4729:A3 3.60092e-05
2 *4753:A3 0.000347775
3 *4727:X 0.000170574
4 *678:8 0.000554358
5 *4729:A3 *680:12 8.53113e-06
6 *4753:A3 *4753:B1 0
7 *662:20 *4729:A3 0.000113797
8 *662:20 *678:8 0.00036532
*RES
1 *4727:X *678:8 7.785 
2 *678:8 *4753:A3 11.845 
3 *678:8 *4729:A3 4.98 
*END

*D_NET *679 0.00197485
*CONN
*I *4729:B1 I *D sky130_fd_sc_hd__a31o_1
*I *4753:C1 I *D sky130_fd_sc_hd__a311o_1
*I *4728:X O *D sky130_fd_sc_hd__or2_4
*CAP
1 *4729:B1 0
2 *4753:C1 0.00010319
3 *4728:X 0.000558557
4 *679:14 0.000661746
5 *4753:C1 *680:12 5.94962e-05
6 *4753:C1 *804:22 1.6418e-05
7 *679:14 *4205:A 2.20732e-05
8 *679:14 *4588:B1 1.34503e-05
9 *679:14 *804:22 6.95921e-05
10 *4728:B *679:14 0.000164874
11 *4729:A1 *679:14 0
12 *4753:A1 *4753:C1 0.00020037
13 *4753:A2 *4753:C1 4.37098e-05
14 *660:34 *679:14 6.1378e-05
*RES
1 *4728:X *679:14 14.72 
2 *679:14 *4753:C1 4.495 
3 *679:14 *4729:B1 1.6 
*END

*D_NET *680 0.00111098
*CONN
*I *4731:B I *D sky130_fd_sc_hd__nand2_1
*I *4730:B I *D sky130_fd_sc_hd__or2_4
*I *4729:X O *D sky130_fd_sc_hd__a31o_1
*CAP
1 *4731:B 8.11402e-05
2 *4730:B 1.88469e-05
3 *4729:X 0.000156368
4 *680:12 0.000256355
5 *4730:B *838:118 2.0514e-05
6 *4731:B *4752:D 4.18603e-06
7 *4731:B *4753:B1 3.98865e-05
8 *4731:B *681:10 0
9 *4731:B *966:100 4.82863e-05
10 *680:12 *4753:B1 7.79794e-05
11 *4204:B2 *4730:B 5.05521e-05
12 *4729:A3 *680:12 8.53113e-06
13 *4730:A *4730:B 4.99619e-05
14 *4752:B *4731:B 4.82863e-05
15 *4753:A2 *680:12 4.10542e-05
16 *4753:C1 *680:12 5.94962e-05
17 *662:20 *680:12 1.26626e-05
18 *677:10 *4731:B 0.000136877
*RES
1 *4729:X *680:12 6.81 
2 *680:12 *4730:B 4.395 
3 *680:12 *4731:B 5.94 
*END

*D_NET *681 0.00304138
*CONN
*I *4732:A1 I *D sky130_fd_sc_hd__a21bo_1
*I *4742:B1 I *D sky130_fd_sc_hd__a2bb2o_4
*I *4735:B1_N I *D sky130_fd_sc_hd__a21bo_1
*I *4730:X O *D sky130_fd_sc_hd__or2_4
*CAP
1 *4732:A1 5.10503e-05
2 *4742:B1 1.72571e-05
3 *4735:B1_N 0.000517462
4 *4730:X 1.43332e-05
5 *681:10 0.000821229
6 *681:6 0.000351894
7 *4732:A1 *4732:B1_N 4.82863e-05
8 *4732:A1 *838:118 0.000194694
9 *4735:B1_N *856:8 2.59835e-05
10 *4735:B1_N *856:30 0.000177857
11 *4735:B1_N *856:38 0.000164874
12 *4742:B1 *4588:B1 1.82563e-05
13 *4742:B1 *4742:B2 9.50342e-06
14 *4742:B1 *689:25 0
15 *4742:B1 *856:38 3.09233e-05
16 *681:6 *838:118 8.65905e-05
17 *681:10 *4588:B1 0.000184008
18 *681:10 *4752:C 0
19 *4204:B2 *4732:A1 7.34994e-05
20 *4204:B2 *681:6 5.30673e-05
21 *4731:B *681:10 0
22 *4934:A *4735:B1_N 0.000200615
23 *677:10 *681:10 0
*RES
1 *4730:X *681:6 2.395 
2 *681:6 *681:10 7.46 
3 *681:10 *4735:B1_N 10.605 
4 *681:10 *4742:B1 4.215 
5 *681:6 *4732:A1 3.43 
*END

*D_NET *682 0.00159582
*CONN
*I *4732:A2 I *D sky130_fd_sc_hd__a21bo_1
*I *4731:Y O *D sky130_fd_sc_hd__nand2_1
*CAP
1 *4732:A2 0.000449613
2 *4731:Y 0.000449613
3 *4732:A2 *4902:CLK 0.000114492
4 *4732:A2 *846:62 9.50342e-06
5 *4732:A2 *966:100 0.000572603
*RES
1 *4731:Y *4732:A2 13.86 
*END

*D_NET *683 0.000347366
*CONN
*I *4733:C1 I *D sky130_fd_sc_hd__o211a_1
*I *4732:X O *D sky130_fd_sc_hd__a21bo_1
*CAP
1 *4733:C1 9.19864e-05
2 *4732:X 9.19864e-05
3 *4733:C1 *4733:A2 4.29151e-06
4 *4733:C1 *4902:CLK 7.08076e-06
5 *4733:C1 *846:62 0.000137865
6 *4902:D *4733:C1 1.41559e-05
*RES
1 *4732:X *4733:C1 9.0675 
*END

*D_NET *684 0.00182486
*CONN
*I *4737:A1 I *D sky130_fd_sc_hd__o21ai_1
*I *4752:A I *D sky130_fd_sc_hd__or4_4
*I *4736:A2 I *D sky130_fd_sc_hd__a21boi_1
*I *4734:Y O *D sky130_fd_sc_hd__xnor2_4
*CAP
1 *4737:A1 0
2 *4752:A 0.000439246
3 *4736:A2 0.000151786
4 *4734:Y 0.000123749
5 *684:21 0.000446607
6 *684:8 0.000282896
7 *4736:A2 *971:41 2.05571e-05
8 *4752:A *4203:B 0
9 *4752:A *966:100 0.000360015
10 *4752:A *971:41 0
11 *684:8 *4734:B 0
12 *684:8 *4754:B1 0
13 *684:8 *700:10 0
14 *684:8 *971:41 0
15 *671:27 *4752:A 0
16 *671:27 *684:8 0
17 *671:27 *684:21 0
*RES
1 *4734:Y *684:8 5.6175 
2 *684:8 *4736:A2 5.3175 
3 *684:8 *684:21 0.2325 
4 *684:21 *4752:A 11.37 
5 *684:21 *4737:A1 3.6 
*END

*D_NET *685 0.00120253
*CONN
*I *4736:A1 I *D sky130_fd_sc_hd__a21boi_1
*I *4737:A2 I *D sky130_fd_sc_hd__o21ai_1
*I *4735:X O *D sky130_fd_sc_hd__a21bo_1
*CAP
1 *4736:A1 9.03081e-05
2 *4737:A2 0
3 *4735:X 0.000149134
4 *685:12 0.000239442
5 *4736:A1 *4737:B1 5.5201e-05
6 *4736:A1 *4738:C1 8.65961e-05
7 *4736:A1 *971:62 3.90495e-05
8 *685:12 *4734:B 0.000118527
9 *685:12 *4740:B 4.66108e-05
10 *685:12 *700:10 7.63204e-05
11 *685:12 *964:45 2.92496e-05
12 *685:12 *971:62 0.00027209
*RES
1 *4735:X *685:12 9.755 
2 *685:12 *4737:A2 1.6 
3 *685:12 *4736:A1 4.27 
*END

*D_NET *686 0.000274714
*CONN
*I *4737:B1 I *D sky130_fd_sc_hd__o21ai_1
*I *4736:Y O *D sky130_fd_sc_hd__a21boi_1
*CAP
1 *4737:B1 5.1004e-05
2 *4736:Y 5.1004e-05
3 *4737:B1 *4738:C1 3.09088e-05
4 *4737:B1 *971:62 8.65961e-05
5 *4736:A1 *4737:B1 5.5201e-05
*RES
1 *4736:Y *4737:B1 4.685 
*END

*D_NET *687 0.00137353
*CONN
*I *4738:C1 I *D sky130_fd_sc_hd__o211a_1
*I *4737:Y O *D sky130_fd_sc_hd__o21ai_1
*CAP
1 *4738:C1 0.000504393
2 *4737:Y 0.000504393
3 *4738:C1 *4734:A 9.78734e-05
4 *4738:C1 *4736:B1_N 0.000145184
5 *4738:C1 *805:16 4.18603e-06
6 *4738:C1 *971:41 0
7 *4736:A1 *4738:C1 8.65961e-05
8 *4737:B1 *4738:C1 3.09088e-05
*RES
1 *4737:Y *4738:C1 15.12 
*END

*D_NET *688 0.000440552
*CONN
*I *4747:B1 I *D sky130_fd_sc_hd__o21a_1
*I *4739:Y O *D sky130_fd_sc_hd__nand2_1
*CAP
1 *4747:B1 8.79624e-05
2 *4739:Y 8.79624e-05
3 *4747:B1 *4739:A 8.40269e-05
4 *4747:B1 *4743:A 2.30292e-05
5 *4747:B1 *689:25 2.0514e-05
6 *4747:B1 *691:12 1.47256e-05
7 *4747:B1 *806:37 0.000122331
*RES
1 *4739:Y *4747:B1 5.39 
*END

*D_NET *689 0.00251055
*CONN
*I *4743:A I *D sky130_fd_sc_hd__xnor2_2
*I *4747:A1 I *D sky130_fd_sc_hd__o21a_1
*I *4752:C I *D sky130_fd_sc_hd__or4_4
*I *4740:Y O *D sky130_fd_sc_hd__xnor2_2
*CAP
1 *4743:A 0.000131238
2 *4747:A1 0
3 *4752:C 0.000373384
4 *4740:Y 3.81602e-05
5 *689:25 0.00034639
6 *689:8 0.000626696
7 *4743:A *4739:A 4.82919e-05
8 *4743:A *4743:B 0.000308196
9 *4743:A *806:37 0.000165869
10 *4752:C *4752:D 0
11 *4752:C *966:100 3.83995e-05
12 *689:8 *971:62 1.4389e-05
13 *689:25 *4739:A 4.82863e-05
14 *689:25 *4742:A1_N 0.000101317
15 *689:25 *4743:B 4.82863e-05
16 *689:25 *4752:D 0
17 *689:25 *691:12 4.82919e-05
18 *689:25 *856:38 0
19 *4742:B1 *689:25 0
20 *4747:B1 *4743:A 2.30292e-05
21 *4747:B1 *689:25 2.0514e-05
22 *4752:B *4752:C 0.000129808
23 *681:10 *4752:C 0
*RES
1 *4740:Y *689:8 4.05 
2 *689:8 *4752:C 8.7825 
3 *689:8 *689:25 6.215 
4 *689:25 *4747:A1 1.6 
5 *689:25 *4743:A 5.965 
*END

*D_NET *690 0.00057712
*CONN
*I *4742:B2 I *D sky130_fd_sc_hd__a2bb2o_4
*I *4741:Y O *D sky130_fd_sc_hd__o21ai_1
*CAP
1 *4742:B2 0.000108742
2 *4741:Y 0.000108742
3 *4742:B2 *4588:B1 0.000175066
4 *4742:B2 *4741:B1 6.47516e-05
5 *4742:B2 *856:38 0.000110315
6 *4742:B1 *4742:B2 9.50342e-06
*RES
1 *4741:Y *4742:B2 10.875 
*END

*D_NET *691 0.00130176
*CONN
*I *4743:B I *D sky130_fd_sc_hd__xnor2_2
*I *4747:A2 I *D sky130_fd_sc_hd__o21a_1
*I *4742:X O *D sky130_fd_sc_hd__a2bb2o_4
*CAP
1 *4743:B 0.000240102
2 *4747:A2 0
3 *4742:X 0.00017435
4 *691:12 0.000414452
5 *691:12 *4748:B 1.4399e-05
6 *691:12 *4752:D 3.89528e-05
7 *4743:A *4743:B 0.000308196
8 *4747:B1 *691:12 1.47256e-05
9 *689:25 *4743:B 4.82863e-05
10 *689:25 *691:12 4.82919e-05
*RES
1 *4742:X *691:12 8.555 
2 *691:12 *4747:A2 1.6 
3 *691:12 *4743:B 5.86 
*END

*D_NET *692 0.000333851
*CONN
*I *4744:B I *D sky130_fd_sc_hd__nand2_1
*I *4743:Y O *D sky130_fd_sc_hd__xnor2_2
*CAP
1 *4744:B 8.8023e-05
2 *4743:Y 8.8023e-05
3 *4744:B *4745:A1 6.55328e-05
4 *4744:B *4745:C1 3.67779e-05
5 *4744:B *806:37 4.99619e-05
6 *4744:B *833:95 5.53249e-06
7 *181:60 *4744:B 0
*RES
1 *4743:Y *4744:B 9.03 
*END

*D_NET *693 0.000432159
*CONN
*I *4745:C1 I *D sky130_fd_sc_hd__o211a_1
*I *4744:Y O *D sky130_fd_sc_hd__nand2_1
*CAP
1 *4745:C1 0.000171644
2 *4744:Y 0.000171644
3 *4745:C1 *4219:A 4.65607e-05
4 *4745:C1 *4745:A1 0
5 *4745:C1 *4745:B1 5.53249e-06
6 *4744:B *4745:C1 3.67779e-05
7 *181:60 *4745:C1 0
*RES
1 *4744:Y *4745:C1 9.72 
*END

*D_NET *694 0.00232247
*CONN
*I *4748:A I *D sky130_fd_sc_hd__xnor2_1
*I *4752:D I *D sky130_fd_sc_hd__or4_4
*I *4746:Y O *D sky130_fd_sc_hd__xnor2_1
*CAP
1 *4748:A 2.92427e-05
2 *4752:D 0.000605263
3 *4746:Y 0.000221933
4 *694:8 0.000856438
5 *4752:D *4739:A 0
6 *4752:D *4740:A 0.000189037
7 *4752:D *4742:A1_N 0
8 *4752:D *4748:B 0.000256626
9 *4752:D *4754:A2 7.24949e-05
10 *694:8 *4746:B 4.82919e-05
11 *4731:B *4752:D 4.18603e-06
12 *4752:C *4752:D 0
13 *671:39 *4752:D 0
14 *689:25 *4752:D 0
15 *691:12 *4752:D 3.89528e-05
*RES
1 *4746:Y *694:8 5.08 
2 *694:8 *4752:D 17.945 
3 *694:8 *4748:A 2.05 
*END

*D_NET *695 0.000967807
*CONN
*I *4748:B I *D sky130_fd_sc_hd__xnor2_1
*I *4747:X O *D sky130_fd_sc_hd__o21a_1
*CAP
1 *4748:B 0.000348391
2 *4747:X 0.000348391
3 *4748:B *4742:A1_N 0
4 *4748:B *805:53 0
5 *4748:B *833:74 0
6 *4752:D *4748:B 0.000256626
7 *691:12 *4748:B 1.4399e-05
*RES
1 *4747:X *4748:B 13.71 
*END

*D_NET *696 0.000313906
*CONN
*I *4749:B I *D sky130_fd_sc_hd__nand2_1
*I *4748:Y O *D sky130_fd_sc_hd__xnor2_1
*CAP
1 *4749:B 0.000156953
2 *4748:Y 0.000156953
3 *4749:B *833:87 0
*RES
1 *4748:Y *4749:B 5.645 
*END

*D_NET *697 0.000190166
*CONN
*I *4750:C1 I *D sky130_fd_sc_hd__o211a_1
*I *4749:Y O *D sky130_fd_sc_hd__nand2_1
*CAP
1 *4750:C1 5.89525e-05
2 *4749:Y 5.89525e-05
3 *4750:C1 *833:87 7.22613e-05
*RES
1 *4749:Y *4750:C1 4.355 
*END

*D_NET *698 0.00209046
*CONN
*I *4757:A I *D sky130_fd_sc_hd__or2_4
*I *4758:A I *D sky130_fd_sc_hd__nand2_1
*I *4781:A I *D sky130_fd_sc_hd__or4_1
*I *4751:Y O *D sky130_fd_sc_hd__xnor2_1
*CAP
1 *4757:A 4.2136e-05
2 *4758:A 0
3 *4781:A 0.000225222
4 *4751:Y 0.000212543
5 *698:25 0.00018532
6 *698:8 0.000580948
7 *4757:A *4757:B 4.99619e-05
8 *4757:A *833:46 4.60584e-05
9 *4781:A *4746:B 0.00011579
10 *4781:A *4761:B 4.66742e-05
11 *4781:A *4781:C 3.09164e-05
12 *4781:A *4782:A1 2.86623e-05
13 *4781:A *4782:B1 0
14 *4781:A *707:6 7.00889e-06
15 *4781:A *707:23 5.05437e-05
16 *698:8 *4782:A1 4.66742e-05
17 *698:8 *725:6 7.60965e-05
18 *698:8 *833:46 8.79923e-05
19 *698:25 *4757:B 4.50892e-05
20 *698:25 *833:46 5.21706e-05
21 *671:39 *4781:A 0.000160658
*RES
1 *4751:Y *698:8 5.86 
2 *698:8 *4781:A 10.835 
3 *698:8 *698:25 2.535 
4 *698:25 *4758:A 1.6 
5 *698:25 *4757:A 2.74 
*END

*D_NET *699 0.00118184
*CONN
*I *4753:B1 I *D sky130_fd_sc_hd__a311o_1
*I *4752:X O *D sky130_fd_sc_hd__or4_4
*CAP
1 *4753:B1 0.00039293
2 *4752:X 0.00039293
3 *4753:B1 *966:100 0.000278111
4 *4731:B *4753:B1 3.98865e-05
5 *4753:A3 *4753:B1 0
6 *680:12 *4753:B1 7.79794e-05
*RES
1 *4752:X *4753:B1 13.395 
*END

*D_NET *700 0.00453801
*CONN
*I *4782:A2 I *D sky130_fd_sc_hd__a21o_1
*I *4756:A I *D sky130_fd_sc_hd__and2_4
*I *4753:X O *D sky130_fd_sc_hd__a311o_1
*CAP
1 *4782:A2 9.37772e-05
2 *4756:A 0
3 *4753:X 0.000769459
4 *700:10 0.000863236
5 *4782:A2 *4782:A1 0.000200648
6 *4782:A2 *4782:B1 4.18603e-06
7 *4782:A2 *702:10 9.50342e-06
8 *700:10 *4734:B 1.52945e-05
9 *700:10 *4746:A 6.4422e-05
10 *700:10 *4754:A4 3.26822e-05
11 *700:10 *4754:B1 0.000545256
12 *700:10 *4755:A 0.000321522
13 *700:10 *702:10 0.000116165
14 *700:10 *804:22 0.000338385
15 *700:10 *804:31 0.000502554
16 *700:10 *804:44 0.000407359
17 *700:10 *964:32 6.14602e-05
18 *700:10 *964:45 0.000115782
19 *671:39 *700:10 0
20 *684:8 *700:10 0
21 *685:12 *700:10 7.63204e-05
*RES
1 *4753:X *700:10 25.515 
2 *700:10 *4756:A 3.6 
3 *700:10 *4782:A2 6 
*END

*D_NET *701 0.000918051
*CONN
*I *4755:A I *D sky130_fd_sc_hd__inv_2
*I *4754:X O *D sky130_fd_sc_hd__o41a_1
*CAP
1 *4755:A 0.000234979
2 *4754:X 0.000234979
3 *4755:A *4233:A 0
4 *4755:A *813:8 0
5 *4755:A *813:62 0
6 *4755:A *970:33 0.00012657
7 *700:10 *4755:A 0.000321522
*RES
1 *4754:X *4755:A 12.015 
*END

*D_NET *702 0.000967714
*CONN
*I *4782:A1 I *D sky130_fd_sc_hd__a21o_1
*I *4756:B I *D sky130_fd_sc_hd__and2_4
*I *4755:Y O *D sky130_fd_sc_hd__inv_2
*CAP
1 *4782:A1 8.95298e-05
2 *4756:B 0
3 *4755:Y 9.08793e-05
4 *702:10 0.000180409
5 *4782:A1 *4782:B1 0
6 *4782:A1 *833:46 8.65905e-05
7 *4781:A *4782:A1 2.86623e-05
8 *4782:A2 *4782:A1 0.000200648
9 *4782:A2 *702:10 9.50342e-06
10 *671:39 *4782:A1 7.45625e-05
11 *671:39 *702:10 4.40899e-05
12 *698:8 *4782:A1 4.66742e-05
13 *700:10 *702:10 0.000116165
*RES
1 *4755:Y *702:10 5.43 
2 *702:10 *4756:B 3.6 
3 *702:10 *4782:A1 7.05 
*END

*D_NET *703 0.000716
*CONN
*I *4757:B I *D sky130_fd_sc_hd__or2_4
*I *4758:B I *D sky130_fd_sc_hd__nand2_1
*I *4756:X O *D sky130_fd_sc_hd__and2_4
*CAP
1 *4757:B 4.54865e-05
2 *4758:B 0
3 *4756:X 0.000108778
4 *703:12 0.000154264
5 *4757:B *833:46 0.000124007
6 *703:12 *4233:A 3.00381e-05
7 *703:12 *4746:B 0.000105068
8 *703:12 *4759:A1 5.33085e-05
9 *4757:A *4757:B 4.99619e-05
10 *698:25 *4757:B 4.50892e-05
*RES
1 *4756:X *703:12 8.195 
2 *703:12 *4758:B 1.6 
3 *703:12 *4757:B 3.1 
*END

*D_NET *704 0.00211221
*CONN
*I *4770:B1 I *D sky130_fd_sc_hd__a2bb2o_4
*I *4762:B1_N I *D sky130_fd_sc_hd__a21bo_1
*I *4759:A2 I *D sky130_fd_sc_hd__a21bo_1
*I *4757:X O *D sky130_fd_sc_hd__or2_4
*CAP
1 *4770:B1 0.000105295
2 *4762:B1_N 1.85494e-05
3 *4759:A2 1.63421e-05
4 *4757:X 0.000102592
5 *704:25 0.000306363
6 *704:12 0.000301453
7 *4759:A2 *4760:C1 1.56428e-05
8 *4762:B1_N *4762:A2 8.65905e-05
9 *4762:B1_N *707:23 4.66108e-05
10 *4762:B1_N *809:24 2.16833e-05
11 *4770:B1 *4762:A1 4.43871e-06
12 *4770:B1 *4770:B2 0.000141599
13 *4770:B1 *963:34 0
14 *704:12 *4759:A1 0
15 *704:12 *4760:B1 0.000136877
16 *704:12 *4760:C1 9.14049e-05
17 *704:12 *809:20 0
18 *704:12 *833:59 8.40213e-05
19 *704:25 *4760:B1 5.05521e-05
20 *704:25 *4760:C1 8.34281e-06
21 *704:25 *4762:A1 2.15594e-05
22 *704:25 *707:23 0.000206817
23 *704:25 *809:20 0.000173965
24 *704:25 *963:23 0
25 *183:69 *4759:A2 4.82863e-05
26 *183:69 *704:25 0.000123225
*RES
1 *4757:X *704:12 8.285 
2 *704:12 *4759:A2 2.05 
3 *704:12 *704:25 7.325 
4 *704:25 *4762:B1_N 4.395 
5 *704:25 *4770:B1 5.745 
*END

*D_NET *705 0.000918371
*CONN
*I *4759:A1 I *D sky130_fd_sc_hd__a21bo_1
*I *4758:Y O *D sky130_fd_sc_hd__nand2_1
*CAP
1 *4759:A1 0.000243165
2 *4758:Y 0.000243165
3 *4759:A1 *4746:B 6.23119e-05
4 *4759:A1 *4759:B1_N 0
5 *4759:A1 *4760:C1 0
6 *183:69 *4759:A1 0.000316421
7 *703:12 *4759:A1 5.33085e-05
8 *704:12 *4759:A1 0
*RES
1 *4758:Y *4759:A1 12.465 
*END

*D_NET *706 0.000419003
*CONN
*I *4760:C1 I *D sky130_fd_sc_hd__o211a_1
*I *4759:X O *D sky130_fd_sc_hd__a21bo_1
*CAP
1 *4760:C1 0.000140041
2 *4759:X 0.000140041
3 *4760:C1 *4759:B1_N 0
4 *4760:C1 *4760:B1 2.35306e-05
5 *4759:A1 *4760:C1 0
6 *4759:A2 *4760:C1 1.56428e-05
7 *704:12 *4760:C1 9.14049e-05
8 *704:25 *4760:C1 8.34281e-06
*RES
1 *4759:X *4760:C1 9.375 
*END

*D_NET *707 0.00286769
*CONN
*I *4764:A1 I *D sky130_fd_sc_hd__o21ai_1
*I *4763:A2 I *D sky130_fd_sc_hd__a21boi_1
*I *4781:B I *D sky130_fd_sc_hd__or4_1
*I *4761:Y O *D sky130_fd_sc_hd__xnor2_1
*CAP
1 *4764:A1 6.04705e-06
2 *4763:A2 0
3 *4781:B 2.08101e-05
4 *4761:Y 0.000112364
5 *707:23 0.000753017
6 *707:6 0.000880144
7 *4764:A1 *4764:A2 2.30292e-05
8 *4764:A1 *4764:B1 4.99619e-05
9 *707:6 *4761:B 9.3305e-05
10 *707:6 *4782:B1 8.65961e-05
11 *707:23 *4761:B 2.20732e-05
12 *707:23 *4762:A2 6.3889e-05
13 *707:23 *4764:A2 3.00381e-05
14 *707:23 *4764:B1 0.00012657
15 *707:23 *708:6 0.000168213
16 *707:23 *809:24 0.000120655
17 *707:23 *963:23 0
18 *4762:B1_N *707:23 4.66108e-05
19 *4781:A *707:6 7.00889e-06
20 *4781:A *707:23 5.05437e-05
21 *704:25 *707:23 0.000206817
*RES
1 *4761:Y *707:6 4.12 
2 *707:6 *4781:B 1.96 
3 *707:6 *707:23 17.995 
4 *707:23 *4763:A2 1.6 
5 *707:23 *4764:A1 2.05 
*END

*D_NET *708 0.000817171
*CONN
*I *4764:A2 I *D sky130_fd_sc_hd__o21ai_1
*I *4763:A1 I *D sky130_fd_sc_hd__a21boi_1
*I *4762:X O *D sky130_fd_sc_hd__a21bo_1
*CAP
1 *4764:A2 0.000110742
2 *4763:A1 0
3 *4762:X 0.000179112
4 *708:6 0.000289854
5 *4764:A2 *4764:B1 1.61831e-05
6 *4764:A1 *4764:A2 2.30292e-05
7 *707:23 *4764:A2 3.00381e-05
8 *707:23 *708:6 0.000168213
*RES
1 *4762:X *708:6 4.12 
2 *708:6 *4763:A1 1.6 
3 *708:6 *4764:A2 3.355 
*END

*D_NET *709 0.000438717
*CONN
*I *4764:B1 I *D sky130_fd_sc_hd__o21ai_1
*I *4763:Y O *D sky130_fd_sc_hd__a21boi_1
*CAP
1 *4764:B1 0.000123001
2 *4763:Y 0.000123001
3 *4764:A1 *4764:B1 4.99619e-05
4 *4764:A2 *4764:B1 1.61831e-05
5 *707:23 *4764:B1 0.00012657
*RES
1 *4763:Y *4764:B1 5.72 
*END

*D_NET *710 0.000392441
*CONN
*I *4765:C1 I *D sky130_fd_sc_hd__o211a_1
*I *4764:Y O *D sky130_fd_sc_hd__o21ai_1
*CAP
1 *4765:C1 0.000117902
2 *4764:Y 0.000117902
3 *4765:C1 *4763:B1_N 0
4 *4765:C1 *4765:A1 8.65961e-05
5 *4765:C1 *780:101 1.94892e-05
6 *4765:C1 *810:12 5.05521e-05
7 *4765:C1 *847:39 0
*RES
1 *4764:Y *4765:C1 9.63 
*END

*D_NET *711 0.000393169
*CONN
*I *4768:A I *D sky130_fd_sc_hd__nand2_1
*I *4766:X O *D sky130_fd_sc_hd__or2_1
*CAP
1 *4768:A 3.87374e-05
2 *4766:X 3.87374e-05
3 *4768:A *4767:A 4.82919e-05
4 *4768:A *4767:B 9.53428e-06
5 *4768:A *4768:B 0.00013348
6 *4768:A *4774:B 4.60584e-05
7 *4768:A *4775:B1 4.82919e-05
8 *4768:A *963:49 3.00381e-05
*RES
1 *4766:X *4768:A 5.045 
*END

*D_NET *712 0.00126393
*CONN
*I *4768:B I *D sky130_fd_sc_hd__nand2_1
*I *4775:B1 I *D sky130_fd_sc_hd__o21a_1
*I *4767:Y O *D sky130_fd_sc_hd__nand2_1
*CAP
1 *4768:B 0.000167295
2 *4775:B1 0.0002088
3 *4767:Y 0
4 *712:4 0.000376095
5 *4768:B *963:49 1.34503e-05
6 *4775:B1 *4767:A 3.77036e-05
7 *4775:B1 *4776:A 0
8 *4775:B1 *713:27 0.000116158
9 *4775:B1 *811:12 3.86529e-05
10 *4775:B1 *811:29 0.000124007
11 *4768:A *4768:B 0.00013348
12 *4768:A *4775:B1 4.82919e-05
*RES
1 *4767:Y *712:4 1.6 
2 *712:4 *4775:B1 9.155 
3 *712:4 *4768:B 4.045 
*END

*D_NET *713 0.0030807
*CONN
*I *4771:A I *D sky130_fd_sc_hd__xnor2_1
*I *4775:A1 I *D sky130_fd_sc_hd__o21a_1
*I *4781:C I *D sky130_fd_sc_hd__or4_1
*I *4768:Y O *D sky130_fd_sc_hd__nand2_1
*CAP
1 *4771:A 3.28398e-05
2 *4775:A1 0
3 *4781:C 0.000472753
4 *4768:Y 0.000234325
5 *713:27 0.000189898
6 *713:6 0.000864137
7 *4771:A *4775:A2 8.65905e-05
8 *4771:A *811:12 6.52265e-05
9 *4781:C *4746:B 5.12017e-06
10 *4781:C *4774:B 3.83194e-05
11 *4781:C *4780:A2 0.000271327
12 *4781:C *4781:D 0.000277978
13 *713:6 *4774:B 0.000161837
14 *713:6 *963:49 4.35348e-05
15 *713:27 *4766:B 7.30547e-05
16 *713:27 *4775:A2 4.99619e-05
17 *713:27 *4780:A2 8.08153e-06
18 *713:27 *715:10 0
19 *713:27 *811:12 5.86423e-05
20 *4775:B1 *713:27 0.000116158
21 *4781:A *4781:C 3.09164e-05
*RES
1 *4768:Y *713:6 4.81 
2 *713:6 *4781:C 14.84 
3 *713:6 *713:27 7.45 
4 *713:27 *4775:A1 1.6 
5 *713:27 *4771:A 2.74 
*END

*D_NET *714 0.00091604
*CONN
*I *4770:B2 I *D sky130_fd_sc_hd__a2bb2o_4
*I *4769:Y O *D sky130_fd_sc_hd__o21ai_1
*CAP
1 *4770:B2 0.000249444
2 *4769:Y 0.000249444
3 *4770:B2 *4762:A2 0.000275553
4 *4770:B2 *4763:B1_N 0
5 *4770:B2 *834:18 0
6 *4770:B1 *4770:B2 0.000141599
*RES
1 *4769:Y *4770:B2 11.355 
*END

*D_NET *715 0.0010317
*CONN
*I *4771:B I *D sky130_fd_sc_hd__xnor2_1
*I *4775:A2 I *D sky130_fd_sc_hd__o21a_1
*I *4770:X O *D sky130_fd_sc_hd__a2bb2o_4
*CAP
1 *4771:B 0
2 *4775:A2 5.12212e-05
3 *4770:X 0.000394262
4 *715:10 0.000445483
5 *715:10 *4766:B 0
6 *715:10 *4769:A1 4.18603e-06
7 *715:10 *963:49 0
8 *4771:A *4775:A2 8.65905e-05
9 *713:27 *4775:A2 4.99619e-05
10 *713:27 *715:10 0
*RES
1 *4770:X *715:10 11.57 
2 *715:10 *4775:A2 2.74 
3 *715:10 *4771:B 1.6 
*END

*D_NET *716 0.000496929
*CONN
*I *4772:B I *D sky130_fd_sc_hd__nand2_1
*I *4771:Y O *D sky130_fd_sc_hd__xnor2_1
*CAP
1 *4772:B 0.000152843
2 *4771:Y 0.000152843
3 *4772:B *811:12 0.000191243
*RES
1 *4771:Y *4772:B 6.68 
*END

*D_NET *717 0.000201512
*CONN
*I *4773:C1 I *D sky130_fd_sc_hd__o211a_1
*I *4772:Y O *D sky130_fd_sc_hd__nand2_1
*CAP
1 *4773:C1 4.83279e-05
2 *4772:Y 4.83279e-05
3 *4773:C1 *4773:A2 7.33843e-06
4 *4773:C1 *4773:B1 9.25211e-06
5 *4773:C1 *811:12 8.8266e-05
*RES
1 *4772:Y *4773:C1 4.355 
*END

*D_NET *718 0.00346793
*CONN
*I *4781:D I *D sky130_fd_sc_hd__or4_1
*I *4776:A I *D sky130_fd_sc_hd__xnor2_1
*I *4774:Y O *D sky130_fd_sc_hd__xnor2_1
*CAP
1 *4781:D 0.000249204
2 *4776:A 0.000266325
3 *4774:Y 0.000220379
4 *718:6 0.000735907
5 *4776:A *4776:B 0.000117832
6 *4776:A *4780:A2 0
7 *4776:A *811:12 0
8 *4776:A *812:19 0
9 *4781:D *4746:B 3.09164e-05
10 *4781:D *4766:B 0.000329681
11 *4781:D *4774:B 0.000197264
12 *4781:D *4780:A2 0.000292046
13 *4781:D *962:88 0.000132096
14 *4781:D *962:90 0.000153794
15 *718:6 *4774:B 0.000464505
16 *4775:B1 *4776:A 0
17 *4781:C *4781:D 0.000277978
*RES
1 *4774:Y *718:6 5.845 
2 *718:6 *4776:A 10.295 
3 *718:6 *4781:D 14.93 
*END

*D_NET *719 0.000456599
*CONN
*I *4776:B I *D sky130_fd_sc_hd__xnor2_1
*I *4775:X O *D sky130_fd_sc_hd__o21a_1
*CAP
1 *4776:B 0.000168903
2 *4775:X 0.000168903
3 *4776:B *811:12 9.60582e-07
4 *4776:A *4776:B 0.000117832
*RES
1 *4775:X *4776:B 9.72 
*END

*D_NET *720 0.00108208
*CONN
*I *4778:A1 I *D sky130_fd_sc_hd__a211oi_1
*I *4776:Y O *D sky130_fd_sc_hd__xnor2_1
*CAP
1 *4778:A1 0.000506182
2 *4776:Y 0.000506182
3 *4778:A1 *4231:A 0
4 *4778:A1 *812:19 0
5 *4778:A1 *1002:12 6.97118e-05
*RES
1 *4776:Y *4778:A1 14.685 
*END

*D_NET *721 0.000736847
*CONN
*I *4778:B1 I *D sky130_fd_sc_hd__a211oi_1
*I *4777:Y O *D sky130_fd_sc_hd__nor2_1
*CAP
1 *4778:B1 0.000181645
2 *4777:Y 0.000181645
3 *4778:B1 *4778:A2 0
4 *4778:B1 *4790:A 9.54399e-05
5 *4778:B1 *1002:12 3.83041e-05
6 *4778:B1 *1002:22 0.000239813
7 *4909:D *4778:B1 0
*RES
1 *4777:Y *4778:B1 10.845 
*END

*D_NET *722 0.00307724
*CONN
*I *4783:B1 I *D sky130_fd_sc_hd__a21o_1
*I *4805:A I *D sky130_fd_sc_hd__or4_1
*I *4784:A I *D sky130_fd_sc_hd__nand3_1
*I *4779:Y O *D sky130_fd_sc_hd__xnor2_1
*CAP
1 *4783:B1 8.00532e-05
2 *4805:A 0
3 *4784:A 0.000207938
4 *4779:Y 0.000166204
5 *722:25 0.000140775
6 *722:10 0.000434863
7 *4783:B1 *4806:B1 0.000131069
8 *4783:B1 *837:89 2.45351e-05
9 *4783:B1 *1002:28 5.83121e-06
10 *4784:A *4785:A1 0.000218097
11 *4784:A *4785:A2 6.66353e-05
12 *4784:A *4936:A 4.66108e-05
13 *4784:A *833:6 0.000124007
14 *4784:A *833:13 0.000113237
15 *4784:A *833:46 0.000188957
16 *4784:A *971:39 0.000110511
17 *722:10 *4779:B 3.72916e-05
18 *722:10 *4936:A 1.70935e-05
19 *722:10 *813:25 0.000125501
20 *722:25 *4936:A 7.44453e-05
21 *4953:A *722:10 0.000317494
22 *671:47 *4783:B1 0.000306155
23 *671:51 *722:10 3.09233e-05
24 *671:51 *722:25 0.000109016
*RES
1 *4779:Y *722:10 8.325 
2 *722:10 *4784:A 9.585 
3 *722:10 *722:25 3.635 
4 *722:25 *4805:A 1.6 
5 *722:25 *4783:B1 4.465 
*END

*D_NET *723 0.00233954
*CONN
*I *4806:A1 I *D sky130_fd_sc_hd__a21oi_2
*I *4783:A1 I *D sky130_fd_sc_hd__a21o_1
*I *4784:B I *D sky130_fd_sc_hd__nand3_1
*I *4780:Y O *D sky130_fd_sc_hd__o41ai_2
*CAP
1 *4806:A1 0
2 *4783:A1 5.0513e-05
3 *4784:B 4.64818e-05
4 *4780:Y 0.000363079
5 *723:23 6.55549e-05
6 *723:10 0.000424602
7 *4783:A1 *4783:A2 0.000194498
8 *4783:A1 *4806:B1 1.61831e-05
9 *4784:B *725:14 0.000136877
10 *4784:B *780:12 0.000132842
11 *723:10 *4751:A 0
12 *723:10 *4780:A4 0
13 *723:10 *725:14 8.53113e-06
14 *723:10 *780:10 0.000116853
15 *723:10 *780:12 0.000193571
16 *723:10 *780:47 0.000187766
17 *723:10 *962:75 7.35813e-05
18 *723:10 *962:86 2.30292e-05
19 *723:23 *4783:A2 4.66108e-05
20 *671:47 *4783:A1 0.000239807
21 *671:47 *723:23 1.91597e-05
*RES
1 *4780:Y *723:10 10.8 
2 *723:10 *4784:B 5.235 
3 *723:10 *723:23 2.45 
4 *723:23 *4783:A1 4.135 
5 *723:23 *4806:A1 1.6 
*END

*D_NET *724 0.000667631
*CONN
*I *4782:B1 I *D sky130_fd_sc_hd__a21o_1
*I *4781:X O *D sky130_fd_sc_hd__or4_1
*CAP
1 *4782:B1 0.000288425
2 *4781:X 0.000288425
3 *4782:B1 *4751:B 0
4 *4781:A *4782:B1 0
5 *4782:A1 *4782:B1 0
6 *4782:A2 *4782:B1 4.18603e-06
7 *183:69 *4782:B1 0
8 *707:6 *4782:B1 8.65961e-05
*RES
1 *4781:X *4782:B1 11.415 
*END

*D_NET *725 0.00196925
*CONN
*I *4784:C I *D sky130_fd_sc_hd__nand3_1
*I *4783:A2 I *D sky130_fd_sc_hd__a21o_1
*I *4806:A2 I *D sky130_fd_sc_hd__a21oi_2
*I *4782:X O *D sky130_fd_sc_hd__a21o_1
*CAP
1 *4784:C 0
2 *4783:A2 8.70786e-05
3 *4806:A2 0
4 *4782:X 0.000118952
5 *725:14 0.00017697
6 *725:6 0.000208843
7 *4783:A2 *4806:B1 3.40435e-05
8 *4783:A2 *837:89 0.00011199
9 *725:6 *833:46 0.000542783
10 *725:6 *971:39 0.000135652
11 *725:14 *4751:A 0
12 *725:14 *833:46 4.82919e-05
13 *725:14 *971:39 3.00381e-05
14 *4783:A1 *4783:A2 0.000194498
15 *4784:B *725:14 0.000136877
16 *671:47 *4783:A2 1.19928e-05
17 *698:8 *725:6 7.60965e-05
18 *723:10 *725:14 8.53113e-06
19 *723:23 *4783:A2 4.66108e-05
*RES
1 *4782:X *725:6 6.535 
2 *725:6 *725:14 6.085 
3 *725:14 *4806:A2 1.6 
4 *725:14 *4783:A2 4.945 
5 *725:6 *4784:C 1.6 
*END

*D_NET *726 0.00162441
*CONN
*I *4788:B1_N I *D sky130_fd_sc_hd__a21boi_1
*I *4796:B2 I *D sky130_fd_sc_hd__a2bb2o_4
*I *4785:A1 I *D sky130_fd_sc_hd__a21bo_1
*I *4783:X O *D sky130_fd_sc_hd__a21o_1
*CAP
1 *4788:B1_N 1.25806e-05
2 *4796:B2 9.73191e-06
3 *4785:A1 0.000110545
4 *4783:X 0
5 *726:21 0.000268003
6 *726:6 0.000356236
7 *4785:A1 *780:12 0
8 *4785:A1 *962:21 6.47594e-05
9 *4785:A1 *971:39 0.000129808
10 *4788:B1_N *4926:A 7.57202e-05
11 *4788:B1_N *962:51 8.65961e-05
12 *4796:B2 *4926:A 4.82863e-05
13 *4796:B2 *962:51 4.82863e-05
14 *726:21 *4796:B1 6.02202e-05
15 *726:21 *745:24 0
16 *726:21 *780:12 0
17 *726:21 *813:38 2.16306e-05
18 *726:21 *835:77 0
19 *726:21 *962:21 0.000113907
20 *4784:A *4785:A1 0.000218097
*RES
1 *4783:X *726:6 3.6 
2 *726:6 *4785:A1 6.9825 
3 *726:6 *726:21 6.695 
4 *726:21 *4796:B2 2.05 
5 *726:21 *4788:B1_N 2.395 
*END

*D_NET *727 0.00031452
*CONN
*I *4785:A2 I *D sky130_fd_sc_hd__a21bo_1
*I *4784:Y O *D sky130_fd_sc_hd__nand3_1
*CAP
1 *4785:A2 9.68837e-05
2 *4784:Y 9.68837e-05
3 *4785:A2 *971:39 5.41176e-05
4 *4784:A *4785:A2 6.66353e-05
*RES
1 *4784:Y *4785:A2 5.06 
*END

*D_NET *728 0.000573712
*CONN
*I *4786:C1 I *D sky130_fd_sc_hd__o211a_1
*I *4785:X O *D sky130_fd_sc_hd__a21bo_1
*CAP
1 *4786:C1 0.000135212
2 *4785:X 0.000135212
3 *4786:C1 *4786:B1 5.53249e-06
4 *4786:C1 *780:12 0.000297754
5 *4786:C1 *833:17 0
*RES
1 *4785:X *4786:C1 10.62 
*END

*D_NET *729 0.00228524
*CONN
*I *4789:A I *D sky130_fd_sc_hd__xnor2_1
*I *4805:B I *D sky130_fd_sc_hd__or4_1
*I *4787:Y O *D sky130_fd_sc_hd__xnor2_1
*CAP
1 *4789:A 0.000134769
2 *4805:B 0.000224429
3 *4787:Y 0
4 *729:6 0.000359198
5 *4789:A *4787:B 0.000102014
6 *4789:A *4791:A1 5.05521e-05
7 *4789:A *837:85 4.38051e-05
8 *4789:A *1002:28 7.21296e-06
9 *4805:B *4787:B 0.000177495
10 *4805:B *4925:A 0.000221373
11 *4805:B *772:94 9.30787e-05
12 *4805:B *837:85 0.000809791
13 *4805:B *1002:28 6.15258e-05
*RES
1 *4787:Y *729:6 3.6 
2 *729:6 *4805:B 12.885 
3 *729:6 *4789:A 6.39 
*END

*D_NET *730 0.00120088
*CONN
*I *4789:B I *D sky130_fd_sc_hd__xnor2_1
*I *4788:Y O *D sky130_fd_sc_hd__a21boi_1
*CAP
1 *4789:B 0.000479699
2 *4788:Y 0.000479699
3 *4789:B *745:24 0.000241483
4 *4789:B *835:77 0
5 *4789:B *1002:28 0
*RES
1 *4788:Y *4789:B 14.835 
*END

*D_NET *731 0.000810361
*CONN
*I *4791:A1 I *D sky130_fd_sc_hd__a211oi_1
*I *4789:Y O *D sky130_fd_sc_hd__xnor2_1
*CAP
1 *4791:A1 0.000150513
2 *4789:Y 0.000150513
3 *4791:A1 *4791:B1 9.50342e-06
4 *4791:A1 *837:85 0.000320834
5 *4791:A1 *1002:22 5.98004e-06
6 *4791:A1 *1002:28 0.000122465
7 *4789:A *4791:A1 5.05521e-05
*RES
1 *4789:Y *4791:A1 11.67 
*END

*D_NET *732 0.000579269
*CONN
*I *4791:B1 I *D sky130_fd_sc_hd__a211oi_1
*I *4790:Y O *D sky130_fd_sc_hd__nor2_1
*CAP
1 *4791:B1 0.000118991
2 *4790:Y 0.000118991
3 *4791:B1 *837:85 0.000164059
4 *4791:B1 *1002:22 0.000167724
5 *4791:A1 *4791:B1 9.50342e-06
*RES
1 *4790:Y *4791:B1 11.07 
*END

*D_NET *733 0.00167674
*CONN
*I *4794:A I *D sky130_fd_sc_hd__nand2_1
*I *4792:X O *D sky130_fd_sc_hd__or2_1
*CAP
1 *4794:A 0.000449767
2 *4792:X 0.000449767
3 *4794:A *4807:A3 0.000571709
4 *4794:A *968:103 0.000134509
5 *4202:B2 *4794:A 7.09921e-05
*RES
1 *4792:X *4794:A 14.115 
*END

*D_NET *734 0.00151139
*CONN
*I *4794:B I *D sky130_fd_sc_hd__nand2_1
*I *4801:B1 I *D sky130_fd_sc_hd__o21ai_2
*I *4793:Y O *D sky130_fd_sc_hd__nand2_1
*CAP
1 *4794:B 0.000102882
2 *4801:B1 0.000107291
3 *4793:Y 0
4 *734:4 0.000210173
5 *4794:B *4807:A4 0.000157343
6 *4794:B *737:12 0.000120655
7 *4794:B *745:24 0.000101052
8 *4794:B *961:23 0.000163199
9 *4794:B *961:27 1.46828e-05
10 *4801:B1 *4807:A2 0.000118081
11 *4801:B1 *4807:A4 1.91597e-05
12 *4801:B1 *832:89 0.00015625
13 *4801:B1 *845:88 0.000154273
14 *4801:B1 *961:27 8.63479e-05
*RES
1 *4793:Y *734:4 1.6 
2 *734:4 *4801:B1 8.975 
3 *734:4 *4794:B 5.515 
*END

*D_NET *735 0.00299914
*CONN
*I *4797:A I *D sky130_fd_sc_hd__xnor2_2
*I *4801:A1 I *D sky130_fd_sc_hd__o21ai_2
*I *4805:C I *D sky130_fd_sc_hd__or4_1
*I *4794:Y O *D sky130_fd_sc_hd__nand2_1
*CAP
1 *4797:A 0
2 *4801:A1 8.88136e-05
3 *4805:C 0.000119031
4 *4794:Y 5.33132e-05
5 *735:23 0.000158286
6 *735:8 0.000241816
7 *4801:A1 *4798:B 4.82919e-05
8 *4801:A1 *4801:A2 0.000456803
9 *4801:A1 *835:54 0.000373657
10 *4805:C *4805:D 2.16833e-05
11 *4805:C *968:103 0.000180405
12 *4805:C *1002:28 0.000349592
13 *735:8 *968:103 0.000111459
14 *735:23 *4801:A2 3.66286e-05
15 *735:23 *835:54 0.000229536
16 *4202:B2 *4805:C 9.90903e-05
17 *4202:B2 *735:8 5.12617e-05
18 *5111:A *4805:C 0.000313857
19 *183:53 *735:23 6.56209e-05
*RES
1 *4794:Y *735:8 4.98 
2 *735:8 *4805:C 8.955 
3 *735:8 *735:23 4.175 
4 *735:23 *4801:A1 5.845 
5 *735:23 *4797:A 1.6 
*END

*D_NET *736 0.000349562
*CONN
*I *4796:B1 I *D sky130_fd_sc_hd__a2bb2o_4
*I *4795:Y O *D sky130_fd_sc_hd__o21ai_1
*CAP
1 *4796:B1 9.55662e-05
2 *4795:Y 9.55662e-05
3 *4796:B1 *813:38 7.06865e-05
4 *4796:B1 *835:77 2.75229e-05
5 *726:21 *4796:B1 6.02202e-05
*RES
1 *4795:Y *4796:B1 9.03 
*END

*D_NET *737 0.00267028
*CONN
*I *4797:B I *D sky130_fd_sc_hd__xnor2_2
*I *4801:A2 I *D sky130_fd_sc_hd__o21ai_2
*I *4796:X O *D sky130_fd_sc_hd__a2bb2o_4
*CAP
1 *4797:B 0
2 *4801:A2 0.00013389
3 *4796:X 0.00022866
4 *737:12 0.00036255
5 *4801:A2 *835:54 4.21973e-05
6 *737:12 *4236:B1 0
7 *737:12 *4792:B 8.15598e-05
8 *737:12 *4807:A4 0.00026617
9 *737:12 *745:24 0.000238896
10 *737:12 *772:94 6.96175e-05
11 *737:12 *961:23 9.19221e-05
12 *4794:B *737:12 0.000120655
13 *4801:A1 *4801:A2 0.000456803
14 *183:53 *4801:A2 0.000540727
15 *735:23 *4801:A2 3.66286e-05
*RES
1 *4796:X *737:12 11.81 
2 *737:12 *4801:A2 7.24 
3 *737:12 *4797:B 1.6 
*END

*D_NET *738 0.0016442
*CONN
*I *4798:B I *D sky130_fd_sc_hd__nand2_1
*I *4797:Y O *D sky130_fd_sc_hd__xnor2_2
*CAP
1 *4798:B 0.000225769
2 *4797:Y 0.000225769
3 *4798:B *4236:B1 6.40354e-05
4 *4798:B *4793:A 5.16348e-05
5 *4798:B *815:14 0.00035749
6 *4798:B *815:16 0.000149064
7 *4798:B *832:89 0.000470005
8 *4798:B *832:98 5.53249e-06
9 *4798:B *835:54 4.66108e-05
10 *4801:A1 *4798:B 4.82919e-05
*RES
1 *4797:Y *4798:B 15.66 
*END

*D_NET *739 0.000560194
*CONN
*I *4799:C1 I *D sky130_fd_sc_hd__o211a_1
*I *4798:Y O *D sky130_fd_sc_hd__nand2_1
*CAP
1 *4799:C1 0.000206553
2 *4798:Y 0.000206553
3 *4799:C1 *4236:B1 0.000116165
4 *4799:C1 *845:103 3.09233e-05
5 *4202:B2 *4799:C1 0
*RES
1 *4798:Y *4799:C1 10.065 
*END

*D_NET *740 0.00208583
*CONN
*I *4805:D I *D sky130_fd_sc_hd__or4_1
*I *4802:A I *D sky130_fd_sc_hd__xor2_1
*I *4800:Y O *D sky130_fd_sc_hd__xnor2_1
*CAP
1 *4805:D 0.000464751
2 *4802:A 0
3 *4800:Y 0.000118721
4 *740:10 0.000583471
5 *4805:D *4236:B1 0.000131401
6 *4805:D *961:23 0
7 *4805:D *970:27 0.000197264
8 *4805:D *1002:28 8.23627e-05
9 *740:10 *4236:B1 0.000162332
10 *740:10 *4800:B 4.82919e-05
11 *740:10 *961:23 0
12 *4805:C *4805:D 2.16833e-05
13 *5111:A *4805:D 0.000275553
*RES
1 *4800:Y *740:10 5.94 
2 *740:10 *4802:A 3.6 
3 *740:10 *4805:D 11.895 
*END

*D_NET *741 0.0011255
*CONN
*I *4802:B I *D sky130_fd_sc_hd__xor2_1
*I *4801:Y O *D sky130_fd_sc_hd__o21ai_2
*CAP
1 *4802:B 0.000164121
2 *4801:Y 0.000164121
3 *4802:B *4804:A1 8.57024e-05
4 *4802:B *816:21 3.25831e-05
5 *4802:B *816:30 0.000290677
6 *4802:B *845:88 0.000312097
7 *4802:B *971:39 7.61941e-05
*RES
1 *4801:Y *4802:B 12.705 
*END

*D_NET *742 0.00122386
*CONN
*I *4804:A1 I *D sky130_fd_sc_hd__a211oi_1
*I *4802:X O *D sky130_fd_sc_hd__xor2_1
*CAP
1 *4804:A1 0.000287302
2 *4802:X 0.000287302
3 *4804:A1 *4803:B 8.8266e-05
4 *4804:A1 *4804:A2 4.82863e-05
5 *4804:A1 *4804:B1 4.47209e-05
6 *4804:A1 *971:39 0.000382275
7 *4802:B *4804:A1 8.57024e-05
*RES
1 *4802:X *4804:A1 9.8 
*END

*D_NET *743 0.000375987
*CONN
*I *4804:B1 I *D sky130_fd_sc_hd__a211oi_1
*I *4803:Y O *D sky130_fd_sc_hd__nor2_1
*CAP
1 *4804:B1 4.37076e-05
2 *4803:Y 4.37076e-05
3 *4804:B1 *4804:A2 4.82863e-05
4 *4804:B1 *832:61 0.000163199
5 *4804:B1 *971:39 3.23663e-05
6 *4804:A1 *4804:B1 4.47209e-05
*RES
1 *4803:Y *4804:B1 5.03 
*END

*D_NET *744 0.000798386
*CONN
*I *4806:B1 I *D sky130_fd_sc_hd__a21oi_2
*I *4805:X O *D sky130_fd_sc_hd__or4_1
*CAP
1 *4806:B1 0.000103154
2 *4805:X 0.000103154
3 *4806:B1 *837:89 0.000385327
4 *4783:A1 *4806:B1 1.61831e-05
5 *4783:A2 *4806:B1 3.40435e-05
6 *4783:B1 *4806:B1 0.000131069
7 *671:47 *4806:B1 2.54557e-05
*RES
1 *4805:X *4806:B1 7.115 
*END

*D_NET *745 0.00578994
*CONN
*I *4825:A2 I *D sky130_fd_sc_hd__o211ai_2
*I *4808:A I *D sky130_fd_sc_hd__nor2_1
*I *4806:Y O *D sky130_fd_sc_hd__a21oi_2
*CAP
1 *4825:A2 0.000192059
2 *4808:A 0
3 *4806:Y 0.00138017
4 *745:24 0.00157223
5 *4825:A2 *4808:B 5.4155e-06
6 *4825:A2 *4825:A1 7.60965e-05
7 *4825:A2 *746:6 4.60584e-05
8 *745:24 *4796:A1_N 0.000164566
9 *745:24 *4807:A4 1.80685e-05
10 *745:24 *4807:B1 4.41761e-05
11 *745:24 *4926:A 1.34594e-05
12 *745:24 *746:6 0.000279787
13 *745:24 *780:12 4.83241e-05
14 *745:24 *835:77 0.000202095
15 *745:24 *961:23 8.95933e-05
16 *745:24 *961:27 0.000375056
17 *745:24 *962:34 0.000183738
18 *745:24 *962:51 0.000476187
19 *745:24 *962:75 4.14369e-05
20 *4789:B *745:24 0.000241483
21 *4794:B *745:24 0.000101052
22 *726:21 *745:24 0
23 *737:12 *745:24 0.000238896
*RES
1 *4806:Y *745:24 31.37 
2 *745:24 *4808:A 1.6 
3 *745:24 *4825:A2 5.185 
*END

*D_NET *746 0.000871664
*CONN
*I *4808:B I *D sky130_fd_sc_hd__nor2_1
*I *4825:A1 I *D sky130_fd_sc_hd__o211ai_2
*I *4807:X O *D sky130_fd_sc_hd__o41a_1
*CAP
1 *4808:B 1.88809e-05
2 *4825:A1 5.88117e-05
3 *4807:X 0.000154461
4 *746:6 0.000232153
5 *4825:A2 *4808:B 5.4155e-06
6 *4825:A2 *4825:A1 7.60965e-05
7 *4825:A2 *746:6 4.60584e-05
8 *745:24 *746:6 0.000279787
*RES
1 *4807:X *746:6 4.81 
2 *746:6 *4825:A1 2.74 
3 *746:6 *4808:B 1.96 
*END

*D_NET *747 0.00149783
*CONN
*I *4813:A I *D sky130_fd_sc_hd__xnor2_1
*I *4817:A1 I *D sky130_fd_sc_hd__o21ba_1
*I *4808:Y O *D sky130_fd_sc_hd__nor2_1
*CAP
1 *4813:A 0.000385512
2 *4817:A1 0.000125308
3 *4808:Y 0.000212823
4 *747:8 0.000723643
5 *4813:A *4814:B 5.05437e-05
6 *4813:A *4940:A 0
7 *747:8 *4940:A 0
*RES
1 *4808:Y *747:8 7.02 
2 *747:8 *4817:A1 5.43 
3 *747:8 *4813:A 9.96 
*END

*D_NET *748 0.000617924
*CONN
*I *4817:B1_N I *D sky130_fd_sc_hd__o21ba_1
*I *4811:A I *D sky130_fd_sc_hd__or2_1
*I *4809:X O *D sky130_fd_sc_hd__and2_1
*CAP
1 *4817:B1_N 0.000111214
2 *4811:A 0
3 *4809:X 7.7217e-05
4 *748:6 0.000188431
5 *4817:B1_N *4812:A 4.18603e-06
6 *4817:B1_N *4813:B 3.85797e-05
7 *4817:B1_N *750:10 5.50989e-05
8 *4817:B1_N *849:12 9.49116e-05
9 *748:6 *4811:B 4.82863e-05
*RES
1 *4809:X *748:6 2.74 
2 *748:6 *4811:A 1.6 
3 *748:6 *4817:B1_N 8.705 
*END

*D_NET *749 0.000548988
*CONN
*I *4811:B I *D sky130_fd_sc_hd__or2_1
*I *4810:Y O *D sky130_fd_sc_hd__nor2_1
*CAP
1 *4811:B 0.000170812
2 *4810:Y 0.000170812
3 *4811:B *4810:B 8.40213e-05
4 *4811:B *817:14 2.30292e-05
5 *4811:B *961:52 4.66108e-05
6 *4811:B *961:65 5.4155e-06
7 *748:6 *4811:B 4.82863e-05
*RES
1 *4810:Y *4811:B 6.185 
*END

*D_NET *750 0.00144994
*CONN
*I *4813:B I *D sky130_fd_sc_hd__xnor2_1
*I *4817:A2 I *D sky130_fd_sc_hd__o21ba_1
*I *4812:A I *D sky130_fd_sc_hd__inv_2
*I *4811:X O *D sky130_fd_sc_hd__or2_1
*CAP
1 *4813:B 9.29431e-05
2 *4817:A2 0
3 *4812:A 0.000153094
4 *4811:X 7.57003e-05
5 *750:10 0.000193014
6 *750:8 0.000208564
7 *4812:A *4825:B1 6.54766e-05
8 *4812:A *4940:A 0.000164686
9 *4812:A *849:12 0
10 *4813:B *4940:A 0.000257005
11 *4813:B *849:12 0
12 *750:10 *4940:A 0.000141592
13 *4817:B1_N *4812:A 4.18603e-06
14 *4817:B1_N *4813:B 3.85797e-05
15 *4817:B1_N *750:10 5.50989e-05
*RES
1 *4811:X *750:8 4.395 
2 *750:8 *750:10 1.635 
3 *750:10 *4812:A 6.975 
4 *750:10 *4817:A2 3.6 
5 *750:8 *4813:B 6.51 
*END

*D_NET *751 0.00070806
*CONN
*I *4825:B1 I *D sky130_fd_sc_hd__o211ai_2
*I *4812:Y O *D sky130_fd_sc_hd__inv_2
*CAP
1 *4825:B1 0.000292696
2 *4812:Y 0.000292696
3 *4825:B1 *4940:A 5.71917e-05
4 *4825:B1 *849:12 0
5 *4812:A *4825:B1 6.54766e-05
*RES
1 *4812:Y *4825:B1 11.355 
*END

*D_NET *752 0.000620412
*CONN
*I *4814:B I *D sky130_fd_sc_hd__nand2_1
*I *4813:Y O *D sky130_fd_sc_hd__xnor2_1
*CAP
1 *4814:B 0.000282841
2 *4813:Y 0.000282841
3 *4814:B *4239:B 4.18603e-06
4 *4814:B *4940:A 0
5 *4814:B *779:56 0
6 *4813:A *4814:B 5.05437e-05
*RES
1 *4813:Y *4814:B 11.265 
*END

*D_NET *753 0.00181985
*CONN
*I *4815:C1 I *D sky130_fd_sc_hd__o211a_1
*I *4814:Y O *D sky130_fd_sc_hd__nand2_1
*CAP
1 *4815:C1 0.00032397
2 *4814:Y 0.00032397
3 *4815:C1 *4239:A 2.61299e-05
4 *4815:C1 *4815:A1 0.0010068
5 *4815:C1 *4815:A2 9.49342e-05
6 *4240:B2 *4815:C1 4.40446e-05
*RES
1 *4814:Y *4815:C1 12.89 
*END

*D_NET *754 0.0011286
*CONN
*I *4825:C1 I *D sky130_fd_sc_hd__o211ai_2
*I *4818:A I *D sky130_fd_sc_hd__xor2_1
*I *4816:X O *D sky130_fd_sc_hd__xor2_1
*CAP
1 *4825:C1 6.49151e-05
2 *4818:A 0
3 *4816:X 0.000187012
4 *754:12 0.000251927
5 *4825:C1 *762:10 4.65698e-05
6 *754:12 *4816:B 0.000232111
7 *754:12 *849:12 9.45784e-05
8 *754:12 *961:35 3.66286e-05
9 *754:12 *961:50 0.00015998
10 *754:12 *970:100 6.58955e-06
11 *183:53 *754:12 4.82919e-05
*RES
1 *4816:X *754:12 10.265 
2 *754:12 *4818:A 1.6 
3 *754:12 *4825:C1 2.74 
*END

*D_NET *755 0.000787261
*CONN
*I *4818:B I *D sky130_fd_sc_hd__xor2_1
*I *4817:X O *D sky130_fd_sc_hd__o21ba_1
*CAP
1 *4818:B 0.000162126
2 *4817:X 0.000162126
3 *4818:B *849:12 0.000296074
4 *4818:B *961:50 0.000166935
*RES
1 *4817:X *4818:B 11.415 
*END

*D_NET *756 0.00193221
*CONN
*I *4820:A2 I *D sky130_fd_sc_hd__a211oi_1
*I *4818:X O *D sky130_fd_sc_hd__xor2_1
*CAP
1 *4820:A2 0.00044475
2 *4818:X 0.00044475
3 *4820:A2 *970:19 8.53113e-06
4 *4820:A2 *970:100 0.000370063
5 *4820:A2 *1002:30 0.000457339
6 *4200:B1 *4820:A2 0.000206776
*RES
1 *4818:X *4820:A2 18.645 
*END

*D_NET *757 0.000527835
*CONN
*I *4820:B1 I *D sky130_fd_sc_hd__a211oi_1
*I *4819:Y O *D sky130_fd_sc_hd__nor2_1
*CAP
1 *4820:B1 0.00019583
2 *4819:Y 0.00019583
3 *4820:B1 *4819:B 4.06238e-05
4 *4820:B1 *4915:CLK 1.83756e-05
5 *4915:D *4820:B1 7.71765e-05
*RES
1 *4819:Y *4820:B1 9.9 
*END

*D_NET *758 0.000319704
*CONN
*I *4823:A I *D sky130_fd_sc_hd__nor2_1
*I *4821:Y O *D sky130_fd_sc_hd__nor2_1
*CAP
1 *4823:A 0.000122573
2 *4821:Y 0.000122573
3 *4823:A *4822:A 2.75145e-05
4 *4823:A *4828:B 0
5 *4823:A *1009:121 4.7043e-05
*RES
1 *4821:Y *4823:A 9.285 
*END

*D_NET *759 0.00159994
*CONN
*I *4834:A1 I *D sky130_fd_sc_hd__o31a_1
*I *4823:B I *D sky130_fd_sc_hd__nor2_1
*I *4833:A1 I *D sky130_fd_sc_hd__o21ai_1
*I *4822:X O *D sky130_fd_sc_hd__and2_1
*CAP
1 *4834:A1 5.94819e-05
2 *4823:B 6.57344e-05
3 *4833:A1 0.000159352
4 *4822:X 0
5 *759:10 0.000288259
6 *759:6 0.000122655
7 *4823:B *4824:A 4.9253e-06
8 *4823:B *1009:121 0.0001249
9 *4833:A1 *1009:121 0.000387896
10 *4834:A1 *4244:C1 2.54606e-05
11 *4834:A1 *4832:B 0.000123225
12 *4834:A1 *4836:A2 8.65961e-05
13 *4834:A1 *764:12 2.05056e-05
14 *4834:A1 *1009:121 2.96466e-05
15 *759:10 *4244:C1 5.4256e-05
16 *759:10 *1009:121 4.7043e-05
*RES
1 *4822:X *759:6 3.6 
2 *759:6 *759:10 3.635 
3 *759:10 *4833:A1 5.155 
4 *759:10 *4823:B 3.085 
5 *759:6 *4834:A1 5.61 
*END

*D_NET *760 0.000792849
*CONN
*I *4824:A I *D sky130_fd_sc_hd__inv_2
*I *4823:Y O *D sky130_fd_sc_hd__nor2_1
*CAP
1 *4824:A 0.000356297
2 *4823:Y 0.000356297
3 *4824:A *4828:B 7.23602e-05
4 *4824:A *4829:B 0
5 *4824:A *820:16 2.97004e-06
6 *4824:A *1009:121 0
7 *4823:B *4824:A 4.9253e-06
*RES
1 *4823:Y *4824:A 11.7 
*END

*D_NET *761 0.0010809
*CONN
*I *4827:B1 I *D sky130_fd_sc_hd__a21oi_1
*I *4828:B I *D sky130_fd_sc_hd__and3_1
*I *4824:Y O *D sky130_fd_sc_hd__inv_2
*CAP
1 *4827:B1 8.10332e-05
2 *4828:B 0.00027839
3 *4824:Y 0
4 *761:4 0.000359424
5 *4827:B1 *4822:A 0
6 *4827:B1 *961:65 0
7 *4827:B1 *961:77 9.22715e-05
8 *4828:B *4828:C 3.42227e-05
9 *4828:B *4829:B 0.000163199
10 *4823:A *4828:B 0
11 *4824:A *4828:B 7.23602e-05
*RES
1 *4824:Y *761:4 1.6 
2 *761:4 *4828:B 10.64 
3 *761:4 *4827:B1 3.265 
*END

*D_NET *762 0.00252357
*CONN
*I *4827:A1 I *D sky130_fd_sc_hd__a21oi_1
*I *4828:A I *D sky130_fd_sc_hd__and3_1
*I *4825:Y O *D sky130_fd_sc_hd__o211ai_2
*CAP
1 *4827:A1 0.000297644
2 *4828:A 0
3 *4825:Y 0.000652161
4 *762:10 0.000949805
5 *4827:A1 *4243:A 1.70935e-05
6 *4827:A1 *4826:A2 6.97118e-05
7 *4827:A1 *4827:A2 0.000124895
8 *4827:A1 *818:23 0.000121102
9 *4827:A1 *845:18 0
10 *4827:A1 *961:65 9.80943e-06
11 *4827:A1 *961:77 2.55587e-05
12 *762:10 *5045:A 5.30673e-05
13 *762:10 *818:23 0.000156155
14 *762:10 *845:18 0
15 *4825:C1 *762:10 4.65698e-05
*RES
1 *4825:Y *762:10 12.39 
2 *762:10 *4828:A 3.6 
3 *762:10 *4827:A1 9.375 
*END

*D_NET *763 0.000777888
*CONN
*I *4827:A2 I *D sky130_fd_sc_hd__a21oi_1
*I *4828:C I *D sky130_fd_sc_hd__and3_1
*I *4826:Y O *D sky130_fd_sc_hd__o21ai_1
*CAP
1 *4827:A2 6.46223e-05
2 *4828:C 0.000132887
3 *4826:Y 0
4 *763:6 0.000197509
5 *4827:A2 *4829:B 0
6 *4827:A2 *818:23 4.13171e-05
7 *4827:A2 *961:65 2.05056e-05
8 *4827:A2 *961:77 8.8266e-05
9 *4828:C *4829:B 0
10 *4828:C *818:23 7.3664e-05
11 *4827:A1 *4827:A2 0.000124895
12 *4828:B *4828:C 3.42227e-05
*RES
1 *4826:Y *763:6 3.6 
2 *763:6 *4828:C 6.09 
3 *763:6 *4827:A2 5.61 
*END

*D_NET *764 0.00284379
*CONN
*I *4829:A I *D sky130_fd_sc_hd__or2_4
*I *4834:A2 I *D sky130_fd_sc_hd__o31a_1
*I *4833:A2 I *D sky130_fd_sc_hd__o21ai_1
*I *4827:Y O *D sky130_fd_sc_hd__a21oi_1
*CAP
1 *4829:A 6.94456e-05
2 *4834:A2 0
3 *4833:A2 0.000220083
4 *4827:Y 3.28319e-05
5 *764:12 0.000746252
6 *764:6 0.000628447
7 *4829:A *4243:A 0
8 *4829:A *4829:B 5.20968e-05
9 *4829:A *820:16 0
10 *4833:A2 *4244:C1 9.54399e-05
11 *4833:A2 *4834:B1 5.02217e-05
12 *4833:A2 *1009:121 0.000164352
13 *764:6 *961:77 3.9806e-05
14 *764:12 *4244:C1 9.54399e-05
15 *764:12 *4832:B 2.57314e-05
16 *764:12 *4834:B1 2.34423e-05
17 *764:12 *4836:A2 0.000122331
18 *764:12 *961:77 0.000392136
19 *764:12 *961:79 6.52265e-05
20 *4834:A1 *764:12 2.05056e-05
*RES
1 *4827:Y *764:6 2.0725 
2 *764:6 *764:12 9.785 
3 *764:12 *4833:A2 7.245 
4 *764:12 *4834:A2 3.6 
5 *764:6 *4829:A 6.98 
*END

*D_NET *765 0.000825742
*CONN
*I *4829:B I *D sky130_fd_sc_hd__or2_4
*I *4828:X O *D sky130_fd_sc_hd__and3_1
*CAP
1 *4829:B 0.000305223
2 *4828:X 0.000305223
3 *4829:B *4243:A 0
4 *4824:A *4829:B 0
5 *4827:A2 *4829:B 0
6 *4828:B *4829:B 0.000163199
7 *4828:C *4829:B 0
8 *4829:A *4829:B 5.20968e-05
*RES
1 *4828:X *4829:B 11.85 
*END

*D_NET *766 0.0011906
*CONN
*I *4831:A1 I *D sky130_fd_sc_hd__a211oi_2
*I *4829:X O *D sky130_fd_sc_hd__or2_4
*CAP
1 *4831:A1 0.000333306
2 *4829:X 0.000333306
3 *4831:A1 *4244:A2 0.000122155
4 *4831:A1 *4830:A 8.8266e-05
5 *4831:A1 *4831:B1 4.87179e-05
6 *4831:A1 *4914:CLK 8.53113e-06
7 *4831:A1 *820:16 0.000208025
8 *4831:A1 *1009:121 4.82919e-05
*RES
1 *4829:X *4831:A1 14.955 
*END

*D_NET *767 0.000559978
*CONN
*I *4831:B1 I *D sky130_fd_sc_hd__a211oi_2
*I *4830:Y O *D sky130_fd_sc_hd__nor2_1
*CAP
1 *4831:B1 0.000173186
2 *4830:Y 0.000173186
3 *4831:B1 *4244:A2 3.99879e-05
4 *4831:B1 *4830:A 7.66083e-05
5 *4831:B1 *1009:121 4.82919e-05
6 *4831:A1 *4831:B1 4.87179e-05
*RES
1 *4830:Y *4831:B1 6.425 
*END

*D_NET *768 0.000830687
*CONN
*I *4834:A3 I *D sky130_fd_sc_hd__o31a_1
*I *4833:B1 I *D sky130_fd_sc_hd__o21ai_1
*I *4832:Y O *D sky130_fd_sc_hd__xnor2_1
*CAP
1 *4834:A3 7.355e-05
2 *4833:B1 0.000187011
3 *4832:Y 0
4 *768:4 0.000260561
5 *4833:B1 *4832:A 1.08758e-05
6 *4833:B1 *4832:B 0.00012657
7 *4833:B1 *4834:B1 0
8 *4833:B1 *4836:A1 0
9 *4833:B1 *4836:A2 9.80943e-06
10 *4833:B1 *1002:78 0
11 *4834:A3 *4832:B 0.000162311
*RES
1 *4832:Y *768:4 1.6 
2 *768:4 *4833:B1 8.72 
3 *768:4 *4834:A3 3.085 
*END

*D_NET *769 0.000685739
*CONN
*I *4836:A1 I *D sky130_fd_sc_hd__a211oi_1
*I *4833:Y O *D sky130_fd_sc_hd__o21ai_1
*CAP
1 *4836:A1 0.000255185
2 *4833:Y 0.000255185
3 *4836:A1 *4831:C1 1.22676e-05
4 *4836:A1 *4836:B1 3.86607e-05
5 *4836:A1 *1002:78 2.03321e-05
6 *4836:A1 *1009:121 0.000104108
7 *4833:B1 *4836:A1 0
*RES
1 *4833:Y *4836:A1 11.01 
*END

*D_NET *770 0.00104998
*CONN
*I *4836:A2 I *D sky130_fd_sc_hd__a211oi_1
*I *4834:X O *D sky130_fd_sc_hd__o31a_1
*CAP
1 *4836:A2 0.000266964
2 *4834:X 0.000266964
3 *4836:A2 *4832:A 9.91257e-05
4 *4836:A2 *4832:B 0.000198186
5 *4833:B1 *4836:A2 9.80943e-06
6 *4834:A1 *4836:A2 8.65961e-05
7 *764:12 *4836:A2 0.000122331
*RES
1 *4834:X *4836:A2 8.825 
*END

*D_NET *771 0.000422525
*CONN
*I *4836:B1 I *D sky130_fd_sc_hd__a211oi_1
*I *4835:Y O *D sky130_fd_sc_hd__nor2_1
*CAP
1 *4836:B1 0.000134113
2 *4835:Y 0.000134113
3 *4836:B1 *4835:B 1.56428e-05
4 *4836:B1 *1002:78 7.23602e-05
5 *4836:B1 *1009:121 2.76356e-05
6 *4836:A1 *4836:B1 3.86607e-05
*RES
1 *4835:Y *4836:B1 9.21 
*END

*D_NET *772 0.0386596
*CONN
*I *4923:A I *D sky130_fd_sc_hd__clkbuf_16
*I *4924:A I *D sky130_fd_sc_hd__clkbuf_16
*I *4925:A I *D sky130_fd_sc_hd__clkbuf_16
*I *4926:A I *D sky130_fd_sc_hd__clkbuf_16
*I *4922:A I *D sky130_fd_sc_hd__clkbuf_16
*I *4921:A I *D sky130_fd_sc_hd__clkbuf_16
*I *4919:A I *D sky130_fd_sc_hd__clkbuf_16
*I *4920:A I *D sky130_fd_sc_hd__clkbuf_16
*I *4918:X O *D sky130_fd_sc_hd__clkbuf_16
*CAP
1 *4923:A 0.000216241
2 *4924:A 9.17014e-05
3 *4925:A 5.28566e-05
4 *4926:A 0.000177168
5 *4922:A 0
6 *4921:A 0
7 *4919:A 0.000329962
8 *4920:A 0.000276934
9 *4918:X 0.000464302
10 *772:118 0.00380742
11 *772:94 0.0016518
12 *772:48 0.00162709
13 *772:46 0.00203796
14 *772:38 0.00345396
15 *772:16 0.00485466
16 *772:6 0.00496048
17 *4919:A *4382:B 8.23457e-05
18 *4920:A *4199:A1 5.98004e-06
19 *4920:A *4199:A2 0.000374947
20 *4920:A *4427:B 5.82757e-05
21 *4920:A *4473:A2 4.66108e-05
22 *4920:A *988:55 0.000200304
23 *4920:A *988:66 3.09164e-05
24 *4920:A *990:18 4.82863e-05
25 *4920:A *990:44 1.50624e-05
26 *4920:A *995:48 7.92083e-05
27 *4920:A *995:68 0.000243539
28 *4920:A *995:110 3.66286e-05
29 *4923:A *4588:B1 0.000674698
30 *4923:A *4902:CLK 0.000509682
31 *4923:A *846:47 7.44453e-05
32 *4923:A *846:62 1.23331e-05
33 *4925:A *4787:B 0.000210151
34 *4925:A *1002:28 1.15688e-05
35 *4926:A *4788:A1 0.000347917
36 *4926:A *4807:A4 0.000197269
37 *4926:A *962:38 4.66108e-05
38 *4926:A *962:51 0.000300421
39 *772:16 *4940:A 0
40 *772:16 *832:29 9.54399e-05
41 *772:16 *849:16 0
42 *772:38 *4935:A 0.000198046
43 *772:38 *832:23 0.000102178
44 *772:38 *849:16 0
45 *772:48 *4192:A1 7.23533e-05
46 *772:48 *4195:A1 0.000318427
47 *772:48 *4199:A2 0.00104139
48 *772:48 *4303:A2 8.08153e-06
49 *772:48 *859:29 0.000133639
50 *772:48 *973:35 0.000152127
51 *772:48 *988:66 0.000705528
52 *772:48 *988:102 9.60974e-05
53 *772:48 *1007:136 0.000170881
54 *772:94 *4792:B 0.000176266
55 *772:94 *4795:A1 0.000131069
56 *772:94 *832:23 1.56428e-05
57 *772:94 *835:54 0.000218118
58 *772:94 *845:43 0.000461941
59 *772:94 *961:23 6.06573e-05
60 *772:94 *968:103 0
61 *772:94 *970:27 0.000407087
62 *772:94 *970:33 1.71013e-05
63 *772:94 *1002:28 4.75576e-05
64 *772:118 *4588:A1 1.34503e-05
65 *772:118 *4588:B1 0.000163012
66 *772:118 *846:47 9.05299e-05
67 *772:118 *1012:23 7.35813e-05
68 *4192:B1 *772:48 5.02217e-05
69 *4193:B1 *772:46 0
70 *4193:B1 *772:48 0
71 *4196:B1 *772:48 0.000462173
72 *4202:B2 *772:94 0.000412562
73 *4327:A *772:46 2.49909e-05
74 *4358:C *772:38 0.000241483
75 *4401:B *772:38 0.000398324
76 *4448:B *772:38 4.43591e-05
77 *4448:C *772:38 4.82863e-05
78 *4451:A1 *772:38 8.65905e-05
79 *4451:A2 *772:38 8.8266e-05
80 *4455:A2 *772:16 4.28483e-05
81 *4456:C1 *772:16 9.54399e-05
82 *4477:A1 *4919:A 1.74678e-05
83 *4477:A1 *4920:A 2.13396e-05
84 *4493:A1 *772:6 0.000207887
85 *4493:A1 *772:118 6.90876e-05
86 *4493:A2 *772:6 3.1562e-06
87 *4496:B *772:16 2.03321e-05
88 *4500:A1 *772:16 6.00217e-05
89 *4585:A1 *772:118 9.27495e-05
90 *4586:A *772:118 3.59311e-05
91 *4587:B *772:118 6.47326e-05
92 *4788:B1_N *4926:A 7.57202e-05
93 *4796:B2 *4926:A 4.82863e-05
94 *4805:B *4925:A 0.000221373
95 *4805:B *772:94 9.30787e-05
96 *261:12 *772:48 0.00011852
97 *264:8 *772:48 0.000251595
98 *264:21 *772:48 0.000219751
99 *266:10 *772:46 9.30717e-05
100 *266:10 *772:48 0.000157602
101 *266:23 *772:46 4.11678e-06
102 *267:12 *772:46 0
103 *319:14 *772:38 4.60584e-05
104 *320:6 *772:38 4.99619e-05
105 *320:38 *772:38 0.00041967
106 *321:12 *772:38 8.8266e-05
107 *343:21 *4919:A 5.83121e-06
108 *372:23 *772:38 0
109 *386:12 *4920:A 0.000289004
110 *408:6 *772:38 0.000226431
111 *409:6 *772:38 0.00012657
112 *412:28 *772:38 0
113 *416:10 *772:16 0.000277796
114 *416:16 *772:16 0.000269119
115 *452:6 *772:118 7.48616e-05
116 *452:15 *772:118 1.4389e-05
117 *454:10 *772:16 0
118 *542:10 *772:118 0.000237243
119 *737:12 *772:94 6.96175e-05
120 *745:24 *4926:A 1.34594e-05
*RES
1 *4918:X *772:6 7.225 
2 *772:6 *772:16 24.04 
3 *772:16 *772:38 46.795 
4 *772:38 *772:46 13.595 
5 *772:46 *772:48 32.745 
6 *772:48 *4920:A 12.66 
7 *772:48 *4919:A 8.19 
8 *772:46 *4921:A 3.6 
9 *772:38 *4922:A 1.6 
10 *772:16 *772:94 34.185 
11 *772:94 *4926:A 9.57 
12 *772:94 *4925:A 6.255 
13 *772:6 *772:118 42.98 
14 *772:118 *4924:A 4.74 
15 *772:118 *4923:A 11.61 
*END

*D_NET *773 0.0119217
*CONN
*I *4886:CLK I *D sky130_fd_sc_hd__dfxtp_1
*I *4839:CLK I *D sky130_fd_sc_hd__dfxtp_1
*I *4927:A I *D sky130_fd_sc_hd__clkinv_4
*I *4846:CLK I *D sky130_fd_sc_hd__dfxtp_1
*I *4887:CLK I *D sky130_fd_sc_hd__dfxtp_1
*I *4847:CLK I *D sky130_fd_sc_hd__dfxtp_1
*I *4838:CLK I *D sky130_fd_sc_hd__dfxtp_1
*I *4880:CLK I *D sky130_fd_sc_hd__dfxtp_1
*I *4881:CLK I *D sky130_fd_sc_hd__dfxtp_2
*I *4919:X O *D sky130_fd_sc_hd__clkbuf_16
*CAP
1 *4886:CLK 0.000193751
2 *4839:CLK 8.28899e-05
3 *4927:A 2.08101e-05
4 *4846:CLK 0
5 *4887:CLK 0.000381965
6 *4847:CLK 0
7 *4838:CLK 8.11784e-05
8 *4880:CLK 2.12116e-05
9 *4881:CLK 0.000916891
10 *4919:X 0
11 *773:85 0.000276641
12 *773:53 0.000858132
13 *773:47 0.000677952
14 *773:14 0.00150403
15 *773:12 0.000683559
16 *773:10 0.000690639
17 *773:6 0.00065045
18 *773:4 0.000177241
19 *4839:CLK *4269:A 0.000160658
20 *4839:CLK *866:25 0
21 *4881:CLK *4162:A1 0
22 *4881:CLK *4256:A1 0
23 *4881:CLK *4257:A 0
24 *4881:CLK *840:12 0
25 *4881:CLK *840:14 0
26 *4886:CLK *4266:A1 0.000160641
27 *4886:CLK *4269:A 0.00035208
28 *4886:CLK *866:25 0
29 *4886:CLK *1005:17 0
30 *4887:CLK *4161:A 0.000256154
31 *4887:CLK *4182:A1 0
32 *4887:CLK *841:22 0
33 *4887:CLK *1010:52 0
34 *773:6 *1007:23 4.9253e-06
35 *773:10 *4156:A0 1.77665e-05
36 *773:10 *4991:A 0.000230799
37 *773:10 *1007:23 4.05684e-05
38 *773:12 *841:39 0.000156842
39 *773:12 *986:48 0.000163019
40 *773:14 *4943:A 0
41 *773:14 *4971:A 0.000187071
42 *773:14 *840:10 0
43 *773:14 *840:12 0
44 *773:14 *841:39 9.50342e-06
45 *773:14 *841:43 0.000780264
46 *773:14 *986:21 0.000110683
47 *773:14 *986:48 0.000943598
48 *773:47 *841:37 0.000163019
49 *773:47 *841:39 2.14129e-05
50 *773:47 *986:48 0.000186099
51 *773:53 *4161:A 0.000237692
52 *773:53 *4179:A2 0
53 *773:53 *4182:A1 0
54 *773:53 *839:23 0
55 *4157:B *4838:CLK 0.000122801
56 *4162:S *4881:CLK 0
57 *4163:B *4881:CLK 0
58 *4257:B *4881:CLK 0
59 *4269:B *4886:CLK 4.40812e-05
60 *4846:D *773:53 1.43717e-05
61 *4880:D *4880:CLK 4.82863e-05
62 *4887:D *4887:CLK 0.000199324
63 *170:12 *773:14 0
64 *170:27 *4881:CLK 0
65 *170:27 *773:14 0
66 *181:44 *4886:CLK 9.27495e-05
*RES
1 *4919:X *773:4 1.6 
2 *773:4 *773:6 2.52 
3 *773:6 *773:10 9.005 
4 *773:10 *773:12 1.89 
5 *773:12 *773:14 16.68 
6 *773:14 *4881:CLK 17.73 
7 *773:14 *4880:CLK 4.05 
8 *773:12 *4838:CLK 5.085 
9 *773:10 *773:47 6.32 
10 *773:47 *773:53 10.655 
11 *773:53 *4847:CLK 3.6 
12 *773:53 *4887:CLK 12.09 
13 *773:47 *4846:CLK 1.6 
14 *773:6 *4927:A 1.96 
15 *773:4 *773:85 2 
16 *773:85 *4839:CLK 5.49 
17 *773:85 *4886:CLK 9.27 
*END

*D_NET *774 0.018679
*CONN
*I *4928:A I *D sky130_fd_sc_hd__clkbuf_8
*I *4879:CLK I *D sky130_fd_sc_hd__dfxtp_1
*I *4842:CLK I *D sky130_fd_sc_hd__dfxtp_1
*I *4845:CLK I *D sky130_fd_sc_hd__dfxtp_2
*I *4884:CLK I *D sky130_fd_sc_hd__dfxtp_1
*I *4844:CLK I *D sky130_fd_sc_hd__dfxtp_1
*I *4885:CLK I *D sky130_fd_sc_hd__dfxtp_2
*I *4882:CLK I *D sky130_fd_sc_hd__dfxtp_1
*I *4841:CLK I *D sky130_fd_sc_hd__dfxtp_1
*I *4878:CLK I *D sky130_fd_sc_hd__dfxtp_4
*I *4840:CLK I *D sky130_fd_sc_hd__dfxtp_1
*I *4883:CLK I *D sky130_fd_sc_hd__dfxtp_1
*I *4843:CLK I *D sky130_fd_sc_hd__dfxtp_1
*I *4920:X O *D sky130_fd_sc_hd__clkbuf_16
*CAP
1 *4928:A 0.000164974
2 *4879:CLK 0
3 *4842:CLK 0
4 *4845:CLK 0
5 *4884:CLK 5.50323e-05
6 *4844:CLK 0.00034316
7 *4885:CLK 0
8 *4882:CLK 0
9 *4841:CLK 0.00049267
10 *4878:CLK 0
11 *4840:CLK 0.000437568
12 *4883:CLK 0.000292043
13 *4843:CLK 0.000329543
14 *4920:X 3.58965e-05
15 *774:113 0.000878589
16 *774:104 0.000974945
17 *774:100 0.000989357
18 *774:89 0.000649711
19 *774:68 0.00101668
20 *774:64 0.000624373
21 *774:44 0.000537362
22 *774:42 0.000566437
23 *774:40 0.00078623
24 *774:12 0.000913243
25 *774:10 0.000900567
26 *774:8 0.000234926
27 *4840:CLK *4943:A 6.0011e-05
28 *4840:CLK *4988:A 5.26837e-05
29 *4840:CLK *841:60 4.17521e-05
30 *4840:CLK *841:69 4.24744e-05
31 *4840:CLK *852:8 0.000594731
32 *4841:CLK *4162:A0 0.000199498
33 *4841:CLK *884:16 0.000233741
34 *4843:CLK *4261:A 2.4997e-05
35 *4843:CLK *840:53 0.00011562
36 *4843:CLK *975:105 0.000400061
37 *4843:CLK *978:10 7.23533e-05
38 *4843:CLK *978:20 0.000201407
39 *4844:CLK *4168:A1 0.000291467
40 *4844:CLK *4963:A 0
41 *4844:CLK *4979:A 0.000159269
42 *4884:CLK *975:31 3.64998e-06
43 *4928:A *4199:B2 0
44 *4928:A *4974:A 2.54606e-05
45 *4928:A *859:16 6.69341e-05
46 *4928:A *975:105 0.00018714
47 *774:8 *988:21 2.75145e-05
48 *774:10 *4974:A 2.37321e-05
49 *774:10 *975:105 3.67779e-05
50 *774:12 *4974:A 1.22676e-05
51 *774:12 *975:105 0.000311167
52 *774:40 *4169:A 7.44911e-05
53 *774:42 *4169:A 2.59926e-05
54 *774:42 *841:69 5.21706e-05
55 *774:42 *841:101 9.51192e-05
56 *774:42 *852:8 0.000128545
57 *774:44 *841:69 9.5043e-05
58 *774:44 *852:8 0.000221242
59 *774:64 *784:19 0.000698211
60 *774:64 *1004:43 0.000204456
61 *774:68 *4162:A0 0.000141606
62 *774:68 *784:19 0.00045201
63 *774:89 *4162:A0 3.66286e-05
64 *774:89 *4259:A 4.43682e-05
65 *774:100 *4259:A 0.000246957
66 *774:100 *840:55 0
67 *774:100 *840:57 0
68 *774:104 *840:57 0
69 *774:104 *840:61 0
70 *774:113 *4262:A1 8.52972e-05
71 *4162:S *4841:CLK 6.5525e-05
72 *4162:S *774:68 0
73 *4167:B *4843:CLK 4.99619e-05
74 *4169:B *4844:CLK 6.28765e-05
75 *4253:B *774:42 4.82863e-05
76 *4254:S *774:64 0.000187409
77 *4262:S *774:113 0.000224506
78 *4840:D *4840:CLK 1.43717e-05
79 *4842:D *774:68 3.89528e-05
80 *4843:D *4843:CLK 4.82919e-05
81 *4845:D *774:104 3.59997e-05
82 *4878:D *4840:CLK 4.89295e-05
83 *4878:D *774:44 0.000113847
84 *4879:D *774:40 3.09111e-05
85 *4879:D *774:42 3.00381e-05
86 *4882:D *774:89 2.30292e-05
87 *4882:D *774:100 0.000113663
88 *4883:D *4843:CLK 0
89 *4883:D *4883:CLK 7.82691e-05
90 *4885:D *774:113 8.89676e-05
91 *224:10 *774:64 6.34101e-06
92 *224:44 *774:100 0
93 *224:46 *774:100 0
94 *224:46 *774:104 0
95 *224:56 *774:104 0
96 *224:56 *774:113 0.000358707
*RES
1 *4920:X *774:8 4.05 
2 *774:8 *774:10 0.87 
3 *774:10 *774:12 6.48 
4 *774:12 *4843:CLK 12.57 
5 *774:12 *4883:CLK 7.86 
6 *774:10 *774:40 8.93 
7 *774:40 *774:42 4.935 
8 *774:42 *774:44 3.555 
9 *774:44 *4840:CLK 12.52 
10 *774:44 *4878:CLK 1.6 
11 *774:42 *774:64 10.52 
12 *774:64 *774:68 10.01 
13 *774:68 *4841:CLK 13.67 
14 *774:68 *774:89 2.88 
15 *774:89 *4882:CLK 1.6 
16 *774:89 *774:100 11.12 
17 *774:100 *774:104 10.265 
18 *774:104 *4885:CLK 1.6 
19 *774:104 *774:113 10.125 
20 *774:113 *4844:CLK 13.61 
21 *774:113 *4884:CLK 2.395 
22 *774:100 *4845:CLK 3.6 
23 *774:64 *4842:CLK 3.6 
24 *774:40 *4879:CLK 1.6 
25 *774:8 *4928:A 7.485 
*END

*D_NET *775 0.0130512
*CONN
*I *4929:A I *D sky130_fd_sc_hd__clkinv_4
*I *4851:CLK I *D sky130_fd_sc_hd__dfxtp_1
*I *4890:CLK I *D sky130_fd_sc_hd__dfxtp_1
*I *4850:CLK I *D sky130_fd_sc_hd__dfxtp_1
*I *4837:CLK I *D sky130_fd_sc_hd__dfxtp_1
*I *4889:CLK I *D sky130_fd_sc_hd__dfxtp_1
*I *4849:CLK I *D sky130_fd_sc_hd__dfxtp_1
*I *4888:CLK I *D sky130_fd_sc_hd__dfxtp_1
*I *4848:CLK I *D sky130_fd_sc_hd__dfxtp_1
*I *4921:X O *D sky130_fd_sc_hd__clkbuf_16
*CAP
1 *4929:A 0.00017062
2 *4851:CLK 0
3 *4890:CLK 0.00023608
4 *4850:CLK 0
5 *4837:CLK 0.000553615
6 *4889:CLK 0
7 *4849:CLK 2.23805e-05
8 *4888:CLK 0.000254439
9 *4848:CLK 0.000295768
10 *4921:X 0
11 *775:89 0.000597624
12 *775:70 0.00111931
13 *775:59 0.000594533
14 *775:26 0.000822307
15 *775:22 0.00104975
16 *775:16 0.00123803
17 *775:14 0.000653693
18 *775:4 0.000731941
19 *4837:CLK *4191:C1 4.66108e-05
20 *4837:CLK *4939:A 6.5354e-05
21 *4848:CLK *4184:A1 0.000255683
22 *4848:CLK *4185:C1 0.000201719
23 *4848:CLK *4293:A2 0.000159957
24 *4848:CLK *819:23 2.23407e-05
25 *4848:CLK *839:40 0
26 *4848:CLK *1010:52 0
27 *4888:CLK *4293:A1 0.000118081
28 *4890:CLK *4945:A 4.82863e-05
29 *4890:CLK *843:10 2.10673e-05
30 *4890:CLK *843:108 0.000245488
31 *4890:CLK *843:116 0.000146484
32 *4929:A *4186:A1 2.75145e-05
33 *775:14 *4186:A1 0.000379905
34 *775:14 *4186:B2 0.000342018
35 *775:14 *822:12 4.44927e-05
36 *775:14 *972:16 0.000200063
37 *775:14 *973:10 0.000180988
38 *775:22 *839:62 0
39 *775:26 *4293:A2 0.000131401
40 *775:26 *819:23 0.000105849
41 *775:26 *839:62 0
42 *775:26 *843:50 0.000213147
43 *775:59 *4312:A 0
44 *775:59 *839:81 0
45 *775:59 *843:16 0.000208484
46 *775:59 *843:28 9.54399e-05
47 *775:59 *843:42 0
48 *775:59 *1009:16 0
49 *775:59 *1010:22 0
50 *775:70 *843:10 2.92496e-05
51 *775:70 *843:16 0.000366116
52 *775:70 *1009:16 0
53 *775:70 *1009:42 0
54 *775:89 *4191:A1 6.61336e-05
55 *775:89 *4191:C1 0.000149438
56 *775:89 *839:93 1.91597e-05
57 *775:89 *843:10 0.000108073
58 *775:89 *1009:42 3.70486e-05
59 *4188:B1 *4849:CLK 2.11084e-05
60 *4188:B1 *775:26 7.26551e-05
61 *4190:B1 *4929:A 0
62 *4191:B1 *775:70 0
63 *4837:D *4837:CLK 1.43717e-05
64 *4850:D *775:89 0.000101422
65 *4851:D *775:16 1.50866e-05
66 *4851:D *775:59 9.71067e-05
67 *4888:D *4888:CLK 0.000202686
68 *4889:D *775:59 0.00011852
69 *4889:D *775:70 3.25831e-05
70 *180:12 *775:22 0
71 *180:12 *775:26 0
72 *182:68 *775:26 0
73 *249:29 *4929:A 0
*RES
1 *4921:X *775:4 1.6 
2 *775:4 *775:14 17.71 
3 *775:14 *775:16 1.485 
4 *775:16 *775:22 13.19 
5 *775:22 *775:26 6.93 
6 *775:26 *4848:CLK 11.61 
7 *775:26 *4888:CLK 8.19 
8 *775:22 *4849:CLK 4.05 
9 *775:16 *775:59 10.115 
10 *775:59 *4889:CLK 3.6 
11 *775:59 *775:70 6.695 
12 *775:70 *4837:CLK 9.655 
13 *775:70 *775:89 11.02 
14 *775:89 *4850:CLK 1.6 
15 *775:89 *4890:CLK 6.895 
16 *775:14 *4851:CLK 1.6 
17 *775:4 *4929:A 8.45 
*END

*D_NET *776 0.014068
*CONN
*I *4876:CLK I *D sky130_fd_sc_hd__dfxtp_1
*I *4877:CLK I *D sky130_fd_sc_hd__dfxtp_1
*I *4852:CLK I *D sky130_fd_sc_hd__dfxtp_1
*I *4917:CLK I *D sky130_fd_sc_hd__dfxtp_1
*I *4892:CLK I *D sky130_fd_sc_hd__dfxtp_1
*I *4891:CLK I *D sky130_fd_sc_hd__dfxtp_1
*I *4930:A I *D sky130_fd_sc_hd__inv_6
*I *4922:X O *D sky130_fd_sc_hd__clkbuf_16
*CAP
1 *4876:CLK 0.00126426
2 *4877:CLK 0
3 *4852:CLK 0.000144857
4 *4917:CLK 0.000372814
5 *4892:CLK 0
6 *4891:CLK 0
7 *4930:A 0
8 *4922:X 5.9216e-05
9 *776:71 0.00163811
10 *776:56 0.000916927
11 *776:32 0.000756262
12 *776:21 0.000494986
13 *776:17 0.00101393
14 *776:8 0.000563386
15 *4876:CLK *5021:A 0.000316421
16 *4917:CLK *4196:A1 2.05056e-05
17 *4917:CLK *1002:78 9.87538e-05
18 *4917:CLK *1009:100 0.000517558
19 *776:21 *4196:A1 0.000256207
20 *776:21 *836:29 0.000141496
21 *776:21 *844:52 4.21973e-05
22 *776:21 *1009:55 0.00054457
23 *776:32 *4196:A1 0.00123739
24 *776:32 *5037:A 0.000168213
25 *776:32 *824:10 2.36716e-05
26 *776:32 *836:29 0.000272983
27 *776:56 *843:131 4.49498e-05
28 *776:71 *839:110 0.000925826
29 *776:71 *972:131 0.000450833
30 *4369:B *776:17 0
31 *4408:A2 *776:17 0
32 *4852:D *4852:CLK 4.82319e-06
33 *4852:D *776:56 6.0011e-05
34 *4877:D *4876:CLK 1.43717e-05
35 *4877:D *776:71 4.91189e-05
36 *4891:D *776:32 7.82691e-05
37 *199:10 *776:8 0.000138551
38 *199:10 *776:17 0.00102392
39 *199:10 *776:56 0.000301111
40 *199:10 *776:71 0
41 *288:10 *776:8 0
42 *291:10 *776:8 4.05358e-05
43 *291:10 *776:17 7.09921e-05
44 *294:12 *776:17 0
*RES
1 *4922:X *776:8 5.235 
2 *776:8 *4930:A 3.6 
3 *776:8 *776:17 12.09 
4 *776:17 *776:21 7.625 
5 *776:21 *4891:CLK 1.6 
6 *776:21 *776:32 12.12 
7 *776:32 *4892:CLK 1.6 
8 *776:32 *4917:CLK 14.06 
9 *776:17 *776:56 8.54 
10 *776:56 *4852:CLK 3.355 
11 *776:56 *776:71 16.855 
12 *776:71 *4877:CLK 1.6 
13 *776:71 *4876:CLK 19.93 
*END

*D_NET *777 0.0149397
*CONN
*I *4863:CLK I *D sky130_fd_sc_hd__dfxtp_1
*I *4905:CLK I *D sky130_fd_sc_hd__dfxtp_1
*I *4870:CLK I *D sky130_fd_sc_hd__dfxtp_1
*I *4866:CLK I *D sky130_fd_sc_hd__dfxtp_1
*I *4906:CLK I *D sky130_fd_sc_hd__dfxtp_2
*I *4902:CLK I *D sky130_fd_sc_hd__dfxtp_1
*I *4931:A I *D sky130_fd_sc_hd__bufinv_16
*I *4865:CLK I *D sky130_fd_sc_hd__dfxtp_1
*I *4864:CLK I *D sky130_fd_sc_hd__dfxtp_1
*I *4855:CLK I *D sky130_fd_sc_hd__dfxtp_1
*I *4904:CLK I *D sky130_fd_sc_hd__dfxtp_1
*I *4923:X O *D sky130_fd_sc_hd__clkbuf_16
*CAP
1 *4863:CLK 0
2 *4905:CLK 0
3 *4870:CLK 0
4 *4866:CLK 0.000557269
5 *4906:CLK 0
6 *4902:CLK 0.000369323
7 *4931:A 0
8 *4865:CLK 0.000328026
9 *4864:CLK 0.000313186
10 *4855:CLK 0.000195705
11 *4904:CLK 0
12 *4923:X 0.000203579
13 *777:117 0.00111255
14 *777:102 0.000899137
15 *777:78 0.00081635
16 *777:76 0.000880504
17 *777:70 0.000660981
18 *777:62 0.000818517
19 *777:49 0.000831871
20 *777:23 0.000672751
21 *777:21 0.000568996
22 *777:12 0.000352027
23 *4855:CLK *838:103 1.88636e-05
24 *4855:CLK *846:29 0
25 *4855:CLK *971:70 0
26 *4864:CLK *966:84 0.000264425
27 *4865:CLK *4224:A1 0.00012657
28 *4865:CLK *4224:C1 8.65961e-05
29 *4866:CLK *4225:A 0.000294211
30 *4866:CLK *4226:A1 0.00012657
31 *4866:CLK *4226:B1 4.82919e-05
32 *4866:CLK *4226:C1 8.65961e-05
33 *4866:CLK *4234:A1 4.18603e-06
34 *4866:CLK *970:52 1.12578e-05
35 *4866:CLK *970:58 4.77757e-05
36 *4902:CLK *4588:B1 8.3215e-05
37 *4902:CLK *4733:A2 1.16578e-05
38 *4902:CLK *804:8 0.000158072
39 *4902:CLK *846:62 8.07863e-05
40 *777:12 *4221:B 4.82919e-05
41 *777:12 *971:62 0.000198939
42 *777:23 *4221:A 0.000164679
43 *777:23 *846:29 0
44 *777:23 *971:70 0
45 *777:49 *4221:A 7.70828e-05
46 *777:49 *806:29 0
47 *777:49 *846:25 0
48 *777:49 *846:27 0
49 *777:62 *846:25 0
50 *777:62 *967:91 0
51 *777:70 *4750:A1 0
52 *777:70 *4948:A 0.000359794
53 *777:70 *807:10 1.91597e-05
54 *777:70 *833:87 0
55 *777:70 *833:95 5.12947e-05
56 *777:76 *833:87 9.83662e-06
57 *777:76 *833:95 4.21757e-05
58 *777:78 *4588:B1 0.000535818
59 *777:78 *4745:A1 0
60 *777:78 *4750:A2 0.000116165
61 *777:78 *4750:B1 5.21288e-05
62 *777:78 *833:74 0
63 *777:78 *833:95 0
64 *777:102 *833:74 0
65 *777:117 *4225:A 3.57929e-05
66 *777:117 *4234:B1 0.000122325
67 *777:117 *4234:C1 4.66108e-05
68 *777:117 *809:14 0.000316421
69 *777:117 *833:74 0
70 *777:117 *967:87 9.87327e-05
71 *4224:B2 *4865:CLK 0.000243296
72 *4226:B2 *4866:CLK 0.000123227
73 *4732:A2 *4902:CLK 0.000114492
74 *4733:C1 *4902:CLK 7.08076e-06
75 *4855:D *4855:CLK 4.77719e-05
76 *4863:D *777:62 9.71067e-05
77 *4870:D *777:117 5.85852e-05
78 *4902:D *4902:CLK 4.99477e-05
79 *4904:D *777:21 0.000110161
80 *4905:D *777:70 0.000113663
81 *4905:D *777:76 2.30292e-05
82 *4906:D *777:117 0.000116573
83 *4923:A *4902:CLK 0.000509682
84 *181:60 *4866:CLK 0
85 *181:60 *777:12 0
86 *181:71 *4866:CLK 0
*RES
1 *4923:X *777:12 9.665 
2 *777:12 *4904:CLK 1.6 
3 *777:12 *777:21 4.52 
4 *777:21 *777:23 3.93 
5 *777:23 *4855:CLK 6.75 
6 *777:23 *4864:CLK 9.225 
7 *777:21 *777:49 4.44 
8 *777:49 *4865:CLK 10.26 
9 *777:49 *777:62 6.185 
10 *777:62 *777:70 10.59 
11 *777:70 *777:76 3.845 
12 *777:76 *777:78 8.775 
13 *777:78 *4931:A 3.6 
14 *777:78 *4902:CLK 13.65 
15 *777:76 *777:102 5.715 
16 *777:102 *4906:CLK 3.6 
17 *777:102 *777:117 12.05 
18 *777:117 *4866:CLK 16.475 
19 *777:117 *4870:CLK 1.6 
20 *777:70 *4905:CLK 1.6 
21 *777:62 *4863:CLK 1.6 
*END

*D_NET *778 0.018556
*CONN
*I *4897:CLK I *D sky130_fd_sc_hd__dfxtp_1
*I *4895:CLK I *D sky130_fd_sc_hd__dfxtp_1
*I *4896:CLK I *D sky130_fd_sc_hd__dfxtp_1
*I *4900:CLK I *D sky130_fd_sc_hd__dfxtp_1
*I *4857:CLK I *D sky130_fd_sc_hd__dfxtp_1
*I *4899:CLK I *D sky130_fd_sc_hd__dfxtp_1
*I *4859:CLK I *D sky130_fd_sc_hd__dfxtp_1
*I *4862:CLK I *D sky130_fd_sc_hd__dfxtp_1
*I *4861:CLK I *D sky130_fd_sc_hd__dfxtp_1
*I *4856:CLK I *D sky130_fd_sc_hd__dfxtp_1
*I *4860:CLK I *D sky130_fd_sc_hd__dfxtp_1
*I *4858:CLK I *D sky130_fd_sc_hd__dfxtp_1
*I *4898:CLK I *D sky130_fd_sc_hd__dfxtp_1
*I *4901:CLK I *D sky130_fd_sc_hd__dfxtp_1
*I *4924:X O *D sky130_fd_sc_hd__clkbuf_16
*CAP
1 *4897:CLK 0.000288613
2 *4895:CLK 0.000458168
3 *4896:CLK 0.000224143
4 *4900:CLK 0
5 *4857:CLK 0.000498669
6 *4899:CLK 0
7 *4859:CLK 7.72554e-05
8 *4862:CLK 0.000403221
9 *4861:CLK 3.37585e-05
10 *4856:CLK 5.66328e-05
11 *4860:CLK 0
12 *4858:CLK 0
13 *4898:CLK 0.00024753
14 *4901:CLK 0.000129568
15 *4924:X 9.85717e-05
16 *778:163 0.000816331
17 *778:161 0.00130595
18 *778:91 0.000590118
19 *778:80 0.00036613
20 *778:71 0.000544682
21 *778:67 0.0008594
22 *778:50 0.00105236
23 *778:33 0.00114409
24 *778:31 0.000417304
25 *778:29 0.00107973
26 *778:27 0.000712625
27 *778:25 0.00159306
28 *778:8 0.000627037
29 *4857:CLK *4208:A2 0.000102067
30 *4857:CLK *849:55 0
31 *4862:CLK *4218:A1 0.00011852
32 *4862:CLK *838:75 8.87475e-05
33 *4862:CLK *838:88 0.000221534
34 *4895:CLK *4995:A 0.000474429
35 *4896:CLK *4995:A 5.4256e-05
36 *4897:CLK *4620:B1 5.16348e-05
37 *4897:CLK *4995:A 0
38 *4897:CLK *849:43 0.000139245
39 *4897:CLK *1011:21 0.000116165
40 *4897:CLK *1011:36 0.000162325
41 *4898:CLK *4656:A1 0
42 *4898:CLK *800:14 6.96579e-05
43 *4898:CLK *1011:54 0
44 *4901:CLK *4725:A1 0
45 *4901:CLK *4725:A2 0
46 *778:25 *4725:A1 8.09021e-06
47 *778:25 *4725:A2 0.000228262
48 *778:25 *846:47 0
49 *778:27 *4725:A1 1.0183e-05
50 *778:27 *1011:38 0
51 *778:27 *1011:40 0
52 *778:27 *1011:116 0
53 *778:29 *849:51 0.000362278
54 *778:29 *849:55 0
55 *778:29 *849:102 0
56 *778:29 *1011:40 0
57 *778:29 *1011:42 0
58 *778:31 *4210:C1 0
59 *778:31 *849:55 0
60 *778:31 *1011:42 0
61 *778:31 *1011:44 0
62 *778:31 *1011:54 0
63 *778:33 *4210:C1 0
64 *778:33 *1011:54 0
65 *778:67 *4210:A1 7.35813e-05
66 *778:67 *4210:B1 0.000163204
67 *778:67 *5024:A 0
68 *778:71 *4210:B1 0
69 *778:71 *4212:A2 2.59981e-05
70 *778:71 *4212:C1 0
71 *778:71 *838:57 0.000291475
72 *778:80 *4212:C1 0
73 *778:80 *838:57 0.00011562
74 *778:80 *838:66 9.16315e-05
75 *778:91 *838:66 0.00011562
76 *778:91 *838:75 9.428e-05
77 *778:161 *4720:A 5.30673e-05
78 *778:161 *4721:B 4.36241e-05
79 *778:161 *4725:A1 8.73359e-05
80 *778:161 *964:14 0.000257815
81 rdata[16] *4862:CLK 0
82 *4703:A *778:161 5.05521e-05
83 *4713:C1 *778:29 0.000116151
84 *4722:B *778:161 9.02259e-05
85 *4723:A1 *778:161 0.00023468
86 *4723:A2 *778:161 0.000208109
87 *4725:B1 *778:25 5.57736e-05
88 *4725:B2 *778:27 0
89 *4728:A *778:25 0
90 *4856:D *778:80 2.97004e-06
91 *4856:D *778:91 5.72091e-05
92 *4857:D *4857:CLK 2.75229e-05
93 *4858:D *778:67 8.45076e-05
94 *4859:D *778:71 0
95 *4860:D *778:71 4.18603e-06
96 *4860:D *778:80 5.92849e-05
97 *4861:D *4862:CLK 7.70938e-05
98 *4861:D *778:91 4.43871e-06
99 *4862:D *4862:CLK 4.99619e-05
100 *4897:D *4897:CLK 1.73877e-05
101 *4900:D *778:29 0
102 *4941:A *4857:CLK 1.85465e-05
103 *181:60 *4901:CLK 0
104 *181:60 *778:8 0
105 *656:23 *778:161 6.52265e-05
106 *663:21 *778:161 2.91399e-05
107 *671:14 *4897:CLK 0
108 *672:8 *778:161 4.7672e-05
109 *674:6 *778:161 9.80032e-06
*RES
1 *4924:X *778:8 5.235 
2 *778:8 *4901:CLK 6 
3 *778:8 *778:25 11.05 
4 *778:25 *778:27 4.695 
5 *778:27 *778:29 7.755 
6 *778:29 *778:31 2.655 
7 *778:31 *778:33 3.93 
8 *778:33 *4898:CLK 7.335 
9 *778:33 *778:50 11.765 
10 *778:50 *4858:CLK 1.6 
11 *778:50 *778:67 10.6 
12 *778:67 *778:71 10.01 
13 *778:71 *4860:CLK 3.6 
14 *778:71 *778:80 4.185 
15 *778:80 *4856:CLK 4.395 
16 *778:80 *778:91 4.185 
17 *778:91 *4861:CLK 4.05 
18 *778:91 *4862:CLK 13.215 
19 *778:67 *4859:CLK 2.74 
20 *778:31 *4899:CLK 3.6 
21 *778:29 *4857:CLK 15.175 
22 *778:27 *4900:CLK 3.6 
23 *778:25 *778:161 18.32 
24 *778:161 *778:163 1.83 
25 *778:163 *4896:CLK 9.065 
26 *778:163 *4895:CLK 15.395 
27 *778:161 *4897:CLK 12.08 
*END

*D_NET *779 0.0194652
*CONN
*I *4872:CLK I *D sky130_fd_sc_hd__dfxtp_1
*I *4854:CLK I *D sky130_fd_sc_hd__dfxtp_1
*I *4871:CLK I *D sky130_fd_sc_hd__dfxtp_1
*I *4874:CLK I *D sky130_fd_sc_hd__dfxtp_1
*I *4853:CLK I *D sky130_fd_sc_hd__dfxtp_1
*I *4875:CLK I *D sky130_fd_sc_hd__dfxtp_1
*I *4916:CLK I *D sky130_fd_sc_hd__dfxtp_1
*I *4914:CLK I *D sky130_fd_sc_hd__dfxtp_1
*I *4873:CLK I *D sky130_fd_sc_hd__dfxtp_1
*I *4912:CLK I *D sky130_fd_sc_hd__dfxtp_1
*I *4913:CLK I *D sky130_fd_sc_hd__dfxtp_1
*I *4893:CLK I *D sky130_fd_sc_hd__dfxtp_1
*I *4915:CLK I *D sky130_fd_sc_hd__dfxtp_1
*I *4894:CLK I *D sky130_fd_sc_hd__dfxtp_1
*I *4925:X O *D sky130_fd_sc_hd__clkbuf_16
*CAP
1 *4872:CLK 0.000238319
2 *4854:CLK 7.51397e-05
3 *4871:CLK 0
4 *4874:CLK 2.0132e-05
5 *4853:CLK 0
6 *4875:CLK 0
7 *4916:CLK 0.000231435
8 *4914:CLK 0.000346949
9 *4873:CLK 0.000381058
10 *4912:CLK 0
11 *4913:CLK 0
12 *4893:CLK 0
13 *4915:CLK 0.000832825
14 *4894:CLK 0.000443103
15 *4925:X 0.000246796
16 *779:158 0.000568745
17 *779:110 0.00100675
18 *779:102 0.000543839
19 *779:100 0.00087986
20 *779:92 0.0012466
21 *779:82 0.000563578
22 *779:80 0.000607474
23 *779:65 0.000995489
24 *779:56 0.000708368
25 *779:29 0.00139039
26 *779:25 0.00095188
27 *779:10 0.00137571
28 *779:8 0.00112972
29 *4854:CLK *4202:A1 6.04361e-05
30 *4872:CLK *4202:A1 4.77769e-05
31 *4872:CLK *5019:A 3.59784e-05
32 *4872:CLK *944:8 0.000341439
33 *4872:CLK *967:41 4.77807e-05
34 *4873:CLK *4240:A1 0.000138808
35 *4873:CLK *5023:A 0.000241483
36 *4873:CLK *5088:A 7.67345e-05
37 *4894:CLK *4502:S 9.4087e-05
38 *4894:CLK *4503:A 0
39 *4894:CLK *4800:A 4.43871e-06
40 *4894:CLK *845:28 0
41 *4894:CLK *845:88 0
42 *4914:CLK *820:16 6.23206e-05
43 *4914:CLK *820:36 1.7396e-05
44 *4915:CLK *4244:C1 0
45 *4915:CLK *4819:B 4.82863e-05
46 *4916:CLK *4243:B 0.000646648
47 *779:8 *4792:B 4.99619e-05
48 *779:8 *4807:A3 0.000101608
49 *779:10 *4239:A 3.84331e-05
50 *779:10 *4800:A 4.20983e-05
51 *779:10 *4807:A3 0.000162325
52 *779:10 *816:21 7.18817e-05
53 *779:10 *816:30 0.000258477
54 *779:10 *961:35 0.000132865
55 *779:25 *816:8 5.07419e-05
56 *779:56 *4239:A 0.000398963
57 *779:65 *4236:B1 0
58 *779:65 *4239:A 2.78732e-05
59 *779:65 *4240:C1 0
60 *779:80 *4240:C1 0
61 *779:82 *4242:A1 3.33839e-05
62 *779:92 *4242:A1 3.54721e-05
63 *779:100 *4950:A 0.000156767
64 *779:100 *849:8 4.66108e-05
65 *779:102 *4947:A 8.64599e-05
66 *779:102 *845:10 3.0933e-05
67 *779:110 *4244:A1 1.82571e-05
68 *779:110 *4244:A2 0
69 *779:110 *820:36 4.91927e-05
70 *779:158 *944:8 6.63221e-05
71 *4202:B2 *4872:CLK 4.71087e-05
72 *4236:B2 *779:65 0
73 *4236:B2 *779:80 0
74 *4244:B2 *4916:CLK 0.000193801
75 *4814:B *779:56 0
76 *4820:B1 *4915:CLK 1.83756e-05
77 *4831:A1 *4914:CLK 8.53113e-06
78 *4854:D *4854:CLK 0.000115945
79 *4871:D *779:80 5.00317e-05
80 *4871:D *779:82 0.000126488
81 *4871:D *779:158 7.32625e-05
82 *4873:D *4873:CLK 9.03376e-05
83 *4874:D *779:92 3.00216e-05
84 *4875:D *779:110 3.28339e-05
85 *4893:D *779:29 1.43717e-05
86 *4913:D *779:25 5.01066e-05
87 *4915:D *4915:CLK 7.48667e-05
88 *4916:D *4916:CLK 1.43717e-05
89 *365:12 *4915:CLK 1.83756e-05
*RES
1 *4925:X *779:8 7.155 
2 *779:8 *779:10 10.815 
3 *779:10 *4894:CLK 11.055 
4 *779:10 *779:25 8.315 
5 *779:25 *779:29 8.055 
6 *779:29 *4915:CLK 18.935 
7 *779:29 *4893:CLK 1.6 
8 *779:25 *4913:CLK 1.6 
9 *779:8 *779:56 8.01 
10 *779:56 *4912:CLK 3.6 
11 *779:56 *779:65 5.97 
12 *779:65 *4873:CLK 11.4 
13 *779:65 *779:80 6.185 
14 *779:80 *779:82 2.175 
15 *779:82 *779:92 9.895 
16 *779:92 *779:100 15.4 
17 *779:100 *779:102 2.175 
18 *779:102 *779:110 9.215 
19 *779:110 *4914:CLK 9.21 
20 *779:110 *4916:CLK 9.93 
21 *779:102 *4875:CLK 1.6 
22 *779:100 *4853:CLK 1.6 
23 *779:92 *4874:CLK 1.96 
24 *779:82 *4871:CLK 1.6 
25 *779:80 *779:158 4.605 
26 *779:158 *4854:CLK 7.49 
27 *779:158 *4872:CLK 6.88 
*END

*D_NET *780 0.0178923
*CONN
*I *4869:CLK I *D sky130_fd_sc_hd__dfxtp_1
*I *4908:CLK I *D sky130_fd_sc_hd__dfxtp_1
*I *4868:CLK I *D sky130_fd_sc_hd__dfxtp_1
*I *4867:CLK I *D sky130_fd_sc_hd__dfxtp_1
*I *4907:CLK I *D sky130_fd_sc_hd__dfxtp_1
*I *4911:CLK I *D sky130_fd_sc_hd__dfxtp_1
*I *4909:CLK I *D sky130_fd_sc_hd__dfxtp_1
*I *4932:A I *D sky130_fd_sc_hd__clkinvlp_4
*I *4910:CLK I *D sky130_fd_sc_hd__dfxtp_2
*I *4903:CLK I *D sky130_fd_sc_hd__dfxtp_1
*I *4926:X O *D sky130_fd_sc_hd__clkbuf_16
*CAP
1 *4869:CLK 0.000508599
2 *4908:CLK 0
3 *4868:CLK 0.000111452
4 *4867:CLK 0.000438137
5 *4907:CLK 0
6 *4911:CLK 0.000212452
7 *4909:CLK 0
8 *4932:A 6.15449e-05
9 *4910:CLK 0.000119096
10 *4903:CLK 0.00056545
11 *4926:X 0.000414634
12 *780:112 0.00113844
13 *780:101 0.00124851
14 *780:89 0.00135921
15 *780:73 0.00188519
16 *780:49 0.000227082
17 *780:47 0.00135376
18 *780:12 0.00119936
19 *780:10 0.000610572
20 *780:8 0.00111094
21 *4867:CLK *4228:A2 3.47837e-05
22 *4867:CLK *4228:B1 0
23 *4867:CLK *4228:C1 0
24 *4867:CLK *837:91 2.24336e-05
25 *4868:CLK *4228:C1 0
26 *4868:CLK *4230:B1 0
27 *4903:CLK *4786:B1 8.09021e-06
28 *4903:CLK *805:10 0.000158066
29 *4903:CLK *805:42 0.000103974
30 *4903:CLK *845:49 5.00612e-05
31 *4903:CLK *971:41 0
32 *4910:CLK *845:43 2.75145e-05
33 *4911:CLK *4777:A 0.000134011
34 *4911:CLK *4777:B 5.84064e-05
35 *780:8 *809:28 0.000119762
36 *780:10 *962:34 6.18754e-05
37 *780:12 *4751:A 0
38 *780:12 *4786:B1 2.24992e-05
39 *780:12 *833:17 0
40 *780:12 *962:34 1.71013e-05
41 *780:12 *971:39 2.24968e-05
42 *780:12 *971:41 0
43 *780:47 *4780:A4 0
44 *780:47 *4790:A 6.44307e-05
45 *780:47 *834:60 0
46 *780:47 *835:77 0
47 *780:47 *962:34 2.23407e-05
48 *780:47 *962:75 0.000103974
49 *780:49 *4777:A 1.34503e-05
50 *780:49 *4777:B 2.75145e-05
51 *780:73 *4777:A 0.000111302
52 *780:73 *4777:B 0.000255506
53 *780:73 *812:6 2.75229e-05
54 *780:89 *4773:B1 3.79253e-05
55 *780:89 *811:6 5.03301e-05
56 *780:89 *811:12 1.03323e-05
57 *780:89 *834:12 0.000467962
58 *780:89 *847:12 7.06865e-05
59 *780:89 *847:33 0.000239813
60 *780:101 *4763:B1_N 0
61 *780:101 *4765:A1 0.000382287
62 *780:101 *4773:A1 0
63 *780:101 *4773:B1 0
64 *780:101 *810:6 7.83602e-05
65 *780:101 *834:12 0
66 *780:101 *834:18 0
67 *780:101 *847:33 0
68 *780:101 *847:35 0
69 *780:112 *4227:A 7.41429e-05
70 *780:112 *4765:A2 0
71 *780:112 *810:6 0.000573776
72 *4765:C1 *780:101 1.94892e-05
73 *4784:B *780:12 0.000132842
74 *4785:A1 *780:12 0
75 *4786:C1 *780:12 0.000297754
76 *4867:D *4867:CLK 0
77 *4903:D *4903:CLK 0.000396771
78 *4907:D *780:101 4.99619e-05
79 *4907:D *780:112 0.000104377
80 *4908:D *780:89 1.83756e-05
81 *4909:D *780:47 1.22676e-05
82 *4909:D *780:73 5.20335e-05
83 *4910:D *4903:CLK 8.53113e-06
84 *4910:D *4910:CLK 1.43717e-05
85 *4910:D *780:12 0.00015212
86 *183:53 *4932:A 6.97118e-05
87 *723:10 *780:10 0.000116853
88 *723:10 *780:12 0.000193571
89 *723:10 *780:47 0.000187766
90 *726:21 *780:12 0
91 *745:24 *780:12 4.83241e-05
*RES
1 *4926:X *780:8 8.19 
2 *780:8 *780:10 1.38 
3 *780:10 *780:12 10.815 
4 *780:12 *4903:CLK 14.88 
5 *780:12 *4910:CLK 5.445 
6 *780:10 *4932:A 4.74 
7 *780:8 *780:47 14.855 
8 *780:47 *780:49 0.45 
9 *780:49 *4909:CLK 1.6 
10 *780:49 *4911:CLK 5.905 
11 *780:47 *780:73 14.18 
12 *780:73 *780:89 17.595 
13 *780:89 *780:101 16.045 
14 *780:101 *4907:CLK 1.6 
15 *780:101 *780:112 13.16 
16 *780:112 *4867:CLK 10.875 
17 *780:112 *4868:CLK 5.235 
18 *780:89 *4908:CLK 1.6 
19 *780:73 *4869:CLK 11.865 
*END

*D_NET *781 0.00952647
*CONN
*I *4992:A I *D sky130_fd_sc_hd__clkbuf_2
*I *4991:A I *D sky130_fd_sc_hd__buf_2
*I *4838:Q O *D sky130_fd_sc_hd__dfxtp_1
*CAP
1 *4992:A 0
2 *4991:A 0.000115854
3 *4838:Q 0
4 *781:39 0.00320053
5 *781:4 0.00331639
6 *4991:A *4975:A 7.44375e-05
7 *4991:A *1004:43 7.63125e-05
8 *4991:A *1007:23 0.000129365
9 *781:39 *4199:A2 7.23602e-05
10 *781:39 *4269:A 9.66021e-05
11 *781:39 *4423:A1 6.50091e-05
12 *781:39 *4423:B1 4.22057e-05
13 *781:39 *4423:B2 4.82863e-05
14 *781:39 *4989:A 8.88523e-06
15 *781:39 *4990:A 0.000193319
16 *781:39 *841:77 4.66826e-05
17 *781:39 *977:68 6.58423e-05
18 *781:39 *988:55 6.58339e-05
19 *781:39 *1003:45 0.000114492
20 *781:39 *1003:54 0.000199953
21 *781:39 *1006:30 9.30787e-05
22 *781:39 *1006:45 0.000233231
23 *4424:B *781:39 4.99619e-05
24 *4429:A1 *781:39 0.000480368
25 *4429:A2 *781:39 1.31519e-05
26 *4483:C *781:39 2.32506e-05
27 *4484:A1 *781:39 0.000241483
28 *4484:B1 *781:39 2.75229e-05
29 *4839:D *781:39 4.88258e-05
30 *343:21 *781:39 1.91597e-05
31 *386:25 *781:39 7.06865e-05
32 *442:6 *781:39 6.25897e-05
33 *773:10 *4991:A 0.000230799
*RES
1 *4838:Q *781:4 1.6 
2 *781:4 *4991:A 9.41 
3 *781:4 *781:39 49.71 
4 *781:39 *4992:A 3.6 
*END

*D_NET *782 0.00608666
*CONN
*I *4990:A I *D sky130_fd_sc_hd__clkbuf_2
*I *4989:A I *D sky130_fd_sc_hd__buf_2
*I *4839:Q O *D sky130_fd_sc_hd__dfxtp_1
*CAP
1 *4990:A 0.00227414
2 *4989:A 0.00016449
3 *4839:Q 0
4 *782:4 0.00243863
5 *4989:A *1005:17 0
6 *4990:A *977:68 1.92979e-05
7 *4990:A *999:29 1.79536e-05
8 *4477:B1_N *4990:A 1.03323e-05
9 *199:10 *4990:A 0
10 *386:12 *4990:A 4.66108e-05
11 *386:25 *4990:A 0.000108886
12 *436:14 *4990:A 0.000804115
13 *781:39 *4989:A 8.88523e-06
14 *781:39 *4990:A 0.000193319
*RES
1 *4839:Q *782:4 1.6 
2 *782:4 *4989:A 7.775 
3 *782:4 *4990:A 23.9946 
*END

*D_NET *783 0.000158169
*CONN
*I *4988:A I *D sky130_fd_sc_hd__buf_2
*I *4840:Q O *D sky130_fd_sc_hd__dfxtp_1
*CAP
1 *4988:A 5.27427e-05
2 *4840:Q 5.27427e-05
3 *4840:CLK *4988:A 5.26837e-05
*RES
1 *4840:Q *4988:A 4.265 
*END

*D_NET *784 0.0111442
*CONN
*I *4986:A I *D sky130_fd_sc_hd__clkbuf_2
*I *4985:A I *D sky130_fd_sc_hd__buf_2
*I *4841:Q O *D sky130_fd_sc_hd__dfxtp_1
*CAP
1 *4986:A 0.000603477
2 *4985:A 3.37164e-05
3 *4841:Q 3.47575e-05
4 *784:19 0.00252985
5 *784:6 0.00199485
6 *4985:A *884:16 9.13949e-06
7 *4986:A *4271:A 0.000151346
8 *4986:A *4271:B 0.00010596
9 *4986:A *5067:A 0.000194108
10 *4986:A *843:42 8.61546e-05
11 *4986:A *972:16 0
12 *4986:A *972:32 0.000602098
13 *4986:A *974:14 0.000122083
14 *4986:A *989:48 0.00022209
15 *4986:A *1001:44 0.000773593
16 *4986:A *1004:57 6.19761e-05
17 *784:6 *884:16 2.19313e-05
18 *784:19 *4155:C 0
19 *784:19 *4165:A 0.00011099
20 *784:19 *4972:A 0
21 *784:19 *974:24 0
22 *784:19 *974:26 0
23 *784:19 *989:48 9.23924e-06
24 *784:19 *1004:27 4.86642e-05
25 *784:19 *1004:43 0.000404378
26 *784:19 *1004:49 0.000191528
27 *784:19 *1004:57 3.43291e-05
28 *4162:S *784:19 0
29 *4268:B *784:19 9.03081e-05
30 *5068:A *4986:A 0.000124471
31 *170:27 *784:19 0
32 *170:98 *784:19 7.04264e-05
33 *180:44 *784:19 7.14438e-05
34 *182:14 *784:19 0.000643694
35 *182:39 *784:19 3.41713e-05
36 *234:25 *784:19 0.000613167
37 *245:27 *4986:A 0
38 *774:64 *784:19 0.000698211
39 *774:68 *784:19 0.00045201
*RES
1 *4841:Q *784:6 2.05 
2 *784:6 *4985:A 2.215 
3 *784:6 *784:19 44.9375 
4 *784:19 *4986:A 21.9825 
*END

*D_NET *785 0.000147216
*CONN
*I *4984:A I *D sky130_fd_sc_hd__buf_2
*I *4842:Q O *D sky130_fd_sc_hd__dfxtp_1
*CAP
1 *4984:A 5.98508e-05
2 *4842:Q 5.98508e-05
3 *4984:A *4983:A 2.75145e-05
*RES
1 *4842:Q *4984:A 4.265 
*END

*D_NET *786 0.000955503
*CONN
*I *4982:A I *D sky130_fd_sc_hd__buf_2
*I *4843:Q O *D sky130_fd_sc_hd__dfxtp_1
*CAP
1 *4982:A 0.000241245
2 *4843:Q 0.000241245
3 *4982:A *4166:A1 7.35729e-05
4 *4982:A *995:40 0.000173199
5 *4982:A *997:23 6.05513e-05
6 *4982:A *998:25 0.00016569
7 *4167:B *4982:A 0
8 *170:59 *4982:A 0
*RES
1 *4843:Q *4982:A 13.395 
*END

*D_NET *787 0.000787394
*CONN
*I *4980:A I *D sky130_fd_sc_hd__clkbuf_4
*I *4844:Q O *D sky130_fd_sc_hd__dfxtp_1
*CAP
1 *4980:A 0.000274155
2 *4844:Q 0.000274155
3 *4980:A *792:25 0.000192409
4 *4980:A *981:21 4.66742e-05
5 *4980:A *981:31 0
6 *4980:A *983:10 0
7 *4980:A *983:29 0
*RES
1 *4844:Q *4980:A 12.045 
*END

*D_NET *788 0.00497355
*CONN
*I *4978:A I *D sky130_fd_sc_hd__buf_6
*I *4977:A I *D sky130_fd_sc_hd__buf_2
*I *4845:Q O *D sky130_fd_sc_hd__dfxtp_2
*CAP
1 *4978:A 0.000714209
2 *4977:A 0.000302897
3 *4845:Q 0.000529867
4 *788:8 0.00154697
5 *4977:A *4168:A0 0.000201503
6 *4977:A *4168:A1 6.27114e-05
7 *4977:A *4979:A 0.000239813
8 *4977:A *992:25 4.99619e-05
9 *4977:A *992:29 4.20983e-05
10 *4977:A *994:17 3.90266e-05
11 *4978:A *4554:A2 0
12 *4978:A *4979:A 0
13 *4978:A *981:31 0.000118527
14 *4978:A *981:68 0.00024139
15 *4978:A *981:85 0.000219019
16 *4978:A *981:98 0.000154488
17 *4978:A *992:29 3.31282e-05
18 *4978:A *993:19 0
19 *4978:A *994:43 2.75538e-05
20 *4978:A *995:21 0
21 *4978:A *995:40 0
22 *788:8 *4169:A 0.000184866
23 *788:8 *984:27 2.8585e-06
24 *788:8 *992:25 0.000210034
25 *4168:S *4977:A 4.70919e-05
26 *4522:A2 *4978:A 5.53249e-06
*RES
1 *4845:Q *788:8 10.605 
2 *788:8 *4977:A 10.605 
3 *788:8 *4978:A 17.475 
*END

*D_NET *789 0.00161948
*CONN
*I *4933:A I *D sky130_fd_sc_hd__clkbuf_1
*I *5102:A I *D sky130_fd_sc_hd__dlygate4sd1_1
*I *4976:A I *D sky130_fd_sc_hd__buf_8
*I *4878:Q O *D sky130_fd_sc_hd__dfxtp_4
*CAP
1 *4933:A 0.000153002
2 *5102:A 0
3 *4976:A 0.000170743
4 *4878:Q 7.12803e-05
5 *789:21 0.000234313
6 *789:8 0.000323334
7 *4933:A *859:16 5.30673e-05
8 *4976:A *990:10 0.000267331
9 *4976:A *990:14 4.41506e-05
10 *789:8 *4158:A1 0.000139933
11 *789:8 *4250:A0 0
12 *789:8 *4252:A1 8.53113e-06
13 *789:21 *4158:A1 0.000153794
14 *789:21 *4250:A0 0
*RES
1 *4878:Q *789:8 5.235 
2 *789:8 *4976:A 6.81 
3 *789:8 *789:21 3.89 
4 *789:21 *5102:A 1.6 
5 *789:21 *4933:A 4.12 
*END

*D_NET *790 0.00100731
*CONN
*I *4974:A I *D sky130_fd_sc_hd__buf_6
*I *4879:Q O *D sky130_fd_sc_hd__dfxtp_1
*CAP
1 *4974:A 0.000159025
2 *4879:Q 0.000159025
3 *4974:A *988:21 0.000393024
4 *4974:A *990:14 0.000234777
5 *4928:A *4974:A 2.54606e-05
6 *774:10 *4974:A 2.37321e-05
7 *774:12 *4974:A 1.22676e-05
*RES
1 *4879:Q *4974:A 12.645 
*END

*D_NET *791 0.00115622
*CONN
*I *4972:A I *D sky130_fd_sc_hd__buf_4
*I *4880:Q O *D sky130_fd_sc_hd__dfxtp_1
*CAP
1 *4972:A 0.000432429
2 *4880:Q 0.000432429
3 *170:27 *4972:A 0.000291365
4 *784:19 *4972:A 0
*RES
1 *4880:Q *4972:A 13.935 
*END

*D_NET *792 0.0156335
*CONN
*I *4378:A1 I *D sky130_fd_sc_hd__a22o_1
*I *4314:A1 I *D sky130_fd_sc_hd__a22oi_1
*I *4970:A I *D sky130_fd_sc_hd__buf_6
*I *4881:Q O *D sky130_fd_sc_hd__dfxtp_2
*CAP
1 *4378:A1 0
2 *4314:A1 0.000969521
3 *4970:A 8.94503e-05
4 *4881:Q 9.36969e-05
5 *792:33 0.00258874
6 *792:25 0.00335917
7 *792:8 0.0019231
8 *4314:A1 *4314:A2 0.000109906
9 *4314:A1 *4314:B1 0.000163199
10 *4314:A1 *4378:B1 2.49909e-05
11 *4314:A1 *982:38 3.96088e-05
12 *4314:A1 *982:49 0
13 *4314:A1 *982:83 2.25157e-05
14 *4314:A1 *984:78 0.000344168
15 *4314:A1 *1000:97 0
16 *4314:A1 *1001:77 8.23457e-05
17 *4970:A *984:8 5.83121e-06
18 *4970:A *984:27 0.000110764
19 *792:8 *4162:A1 0
20 *792:25 *4162:A1 0
21 *792:25 *4258:A1 3.09088e-05
22 *792:25 *981:21 0.000460545
23 *792:25 *981:31 0.000457691
24 *792:25 *984:46 0.000462835
25 *792:25 *995:8 1.83847e-05
26 *792:33 *4422:D 0.000785653
27 *792:33 *4632:A_N 5.64226e-05
28 *792:33 *4968:A 0
29 *792:33 *982:23 0.000205828
30 *792:33 *982:38 6.26955e-05
31 *792:33 *983:60 5.51901e-05
32 *792:33 *983:70 8.07785e-05
33 *792:33 *983:89 2.94152e-05
34 *792:33 *984:46 0
35 *792:33 *984:59 0
36 *792:33 *998:29 0.000441825
37 *792:33 *998:46 0.000116853
38 *792:33 *1000:43 0.000543971
39 *792:33 *1000:76 2.68721e-05
40 *792:33 *1000:89 0.000753496
41 *4258:S *792:25 4.82919e-05
42 *4259:B *792:25 9.73618e-05
43 *4351:B *4314:A1 0
44 *4433:A2 *792:33 5.16418e-05
45 *4600:A *792:33 0.000310629
46 *4625:A2 *792:33 9.84957e-05
47 *4980:A *792:25 0.000192409
48 *310:12 *4314:A1 0
49 *314:14 *4314:A1 0.000116158
50 *339:14 *792:33 3.68682e-05
51 *350:14 *4314:A1 1.61831e-05
52 *385:12 *792:33 7.26551e-05
53 *554:8 *792:25 7.64501e-05
*RES
1 *4881:Q *792:8 4.98 
2 *792:8 *4970:A 5.43 
3 *792:8 *792:25 36.355 
4 *792:25 *792:33 44.225 
5 *792:33 *4314:A1 25.58 
6 *792:33 *4378:A1 1.6 
*END

*D_NET *793 0.00909015
*CONN
*I *4968:A I *D sky130_fd_sc_hd__clkbuf_2
*I *4967:A I *D sky130_fd_sc_hd__buf_2
*I *4882:Q O *D sky130_fd_sc_hd__dfxtp_1
*CAP
1 *4968:A 0.00129069
2 *4967:A 0.000230155
3 *4882:Q 0
4 *793:21 0.00315514
5 *793:4 0.0020946
6 *4967:A *840:53 0
7 *4967:A *1000:37 0.000140145
8 *4968:A *4423:A1 0.000252786
9 *4968:A *4468:A 0.000162318
10 *4968:A *4468:C 2.75538e-05
11 *4968:A *4469:B1 0.000140905
12 *4968:A *981:102 0.000551807
13 *4968:A *983:70 0
14 *4968:A *983:89 0
15 *4968:A *984:46 0.000523201
16 *4968:A *985:65 0.000135658
17 *4968:A *985:90 3.26084e-05
18 *4968:A *996:49 9.96816e-05
19 *4968:A *996:53 5.98004e-06
20 *4968:A *1000:97 0.00020613
21 *793:21 *4259:A 4.07937e-05
22 *4459:B1 *4968:A 0
23 *224:44 *4967:A 0
24 *382:10 *4968:A 0
25 *385:12 *4968:A 0
26 *516:23 *4968:A 0
27 *792:33 *4968:A 0
*RES
1 *4882:Q *793:4 1.6 
2 *793:4 *4967:A 9.41 
3 *793:4 *793:21 22.115 
4 *793:21 *4968:A 33.795 
*END

*D_NET *794 0.000453248
*CONN
*I *4966:A I *D sky130_fd_sc_hd__buf_2
*I *4883:Q O *D sky130_fd_sc_hd__dfxtp_1
*CAP
1 *4966:A 8.89174e-05
2 *4883:Q 8.89174e-05
3 *4966:A *4169:A 0.00013687
4 *4966:A *975:105 0.000138544
*RES
1 *4883:Q *4966:A 9.285 
*END

*D_NET *795 0.000905945
*CONN
*I *4964:A I *D sky130_fd_sc_hd__buf_2
*I *4884:Q O *D sky130_fd_sc_hd__dfxtp_1
*CAP
1 *4964:A 0.000174449
2 *4884:Q 0.000174449
3 *4964:A *796:23 0.000393024
4 *4964:A *977:31 0.000164024
*RES
1 *4884:Q *4964:A 12.39 
*END

*D_NET *796 0.0118054
*CONN
*I *4417:D I *D sky130_fd_sc_hd__and4b_1
*I *4461:D I *D sky130_fd_sc_hd__and4b_1
*I *4507:D I *D sky130_fd_sc_hd__and4b_1
*I *4962:A I *D sky130_fd_sc_hd__buf_6
*I *4885:Q O *D sky130_fd_sc_hd__dfxtp_2
*CAP
1 *4417:D 0.000528625
2 *4461:D 7.96372e-05
3 *4507:D 1.28078e-05
4 *4962:A 0
5 *4885:Q 0.000146473
6 *796:36 0.00100602
7 *796:25 0.00180037
8 *796:23 0.00326298
9 *796:12 0.00201965
10 *4417:D *4418:B2 3.59394e-05
11 *4461:D *4461:C 0.0001249
12 *796:12 *4168:A1 0
13 *796:12 *4170:A1 7.89689e-05
14 *796:23 *975:63 0.000118081
15 *796:23 *977:6 1.4389e-05
16 *796:23 *977:31 0.000556416
17 *796:23 *994:94 8.73389e-06
18 *796:25 *4549:D 0
19 *796:25 *975:74 0
20 *796:25 *977:46 0.000343399
21 *796:36 *977:52 0
22 *4262:S *796:12 2.75229e-05
23 *4415:A *4417:D 2.06083e-05
24 *4418:A1_N *4417:D 0.000111922
25 *4418:B1 *4417:D 0.00037741
26 *4418:B1 *796:36 1.0183e-05
27 *4419:A *4417:D 6.26955e-05
28 *4462:B *4417:D 0
29 *4508:A *4507:D 2.05864e-05
30 *4550:B *796:25 0
31 *4593:B *796:25 0
32 *4623:A1 *796:25 5.33085e-05
33 *4633:B *796:25 0
34 *4634:A *796:25 0
35 *4964:A *796:23 0.000393024
36 *224:56 *796:12 2.49909e-05
37 *377:6 *4417:D 4.99619e-05
38 *465:23 *796:25 0
39 *466:12 *796:36 0
40 *479:18 *796:25 0
41 *507:12 *796:25 0.000296081
42 *509:10 *796:25 0
43 *519:22 *796:25 0
44 *546:10 *796:25 0.000219699
45 *547:27 *796:25 0
46 *549:12 *796:25 0
47 *585:10 *796:25 0
48 *587:10 *796:25 0
49 *590:10 *796:25 0
*RES
1 *4885:Q *796:12 8.03 
2 *796:12 *4962:A 1.6 
3 *796:12 *796:23 32.135 
4 *796:23 *796:25 25.86 
5 *796:25 *4507:D 3.79875 
6 *796:25 *796:36 6.48 
7 *796:36 *4461:D 5.17875 
8 *796:36 *4417:D 14.5763 
*END

*D_NET *797 0.00324569
*CONN
*I *4266:B1 I *D sky130_fd_sc_hd__a31o_1
*I *4267:A I *D sky130_fd_sc_hd__and3_1
*I *4177:B2 I *D sky130_fd_sc_hd__a22o_1
*I *4886:Q O *D sky130_fd_sc_hd__dfxtp_1
*CAP
1 *4266:B1 0
2 *4267:A 0
3 *4177:B2 0.000110677
4 *4886:Q 0.000276761
5 *797:24 0.000497807
6 *797:12 0.000663891
7 *4177:B2 *4177:A1 2.0514e-05
8 *4177:B2 *4975:A 0.00013521
9 *4177:B2 *1004:43 0.000136884
10 *4177:B2 *1007:42 4.41506e-05
11 *797:24 *4178:A1 8.23457e-05
12 *797:24 *4180:A1 6.6564e-05
13 *797:24 *4180:B2 0.00031882
14 *797:24 *4975:A 0.000123225
15 *797:24 *1005:17 0.000339886
16 *4178:B1 *4177:B2 2.49909e-05
17 *4268:B *4177:B2 0.000155491
18 *4269:C *797:24 0.00022667
19 *180:86 *797:12 0
20 *181:44 *4177:B2 2.18022e-05
*RES
1 *4886:Q *797:12 10.19 
2 *797:12 *797:24 14.365 
3 *797:24 *4177:B2 9.065 
4 *797:24 *4267:A 1.6 
5 *797:12 *4266:B1 1.6 
*END

*D_NET *798 0.00863422
*CONN
*I *4205:A I *D sky130_fd_sc_hd__and2_1
*I *4588:A2 I *D sky130_fd_sc_hd__o211a_1
*I *4582:A I *D sky130_fd_sc_hd__nand2_1
*I *4583:A I *D sky130_fd_sc_hd__xnor2_1
*I *4896:Q O *D sky130_fd_sc_hd__dfxtp_1
*CAP
1 *4205:A 0.00112314
2 *4588:A2 4.80504e-05
3 *4582:A 0.000176487
4 *4583:A 0
5 *4896:Q 0
6 *798:16 0.000781055
7 *798:8 0.00126134
8 *798:4 0.00173186
9 *4205:A *4588:B1 0.000613786
10 *4205:A *5041:A 0
11 *4205:A *803:12 0.00131577
12 *4205:A *846:41 0.000123239
13 *4205:A *846:47 2.16833e-05
14 *4205:A *964:8 0.000163204
15 *4205:A *971:83 0
16 *4205:A *971:87 0
17 *4588:A2 *4588:B1 9.53428e-06
18 *798:8 *4588:B1 7.79545e-05
19 *798:16 *4588:B1 6.60261e-06
20 *4618:A2 *4582:A 7.23533e-05
21 *4725:B1 *4205:A 4.21973e-05
22 *4725:B2 *4205:A 0.000199833
23 *4727:B1_N *4205:A 8.65905e-05
24 *4896:D *798:8 4.68485e-05
25 *4901:D *4205:A 0.000167476
26 *181:60 *4205:A 0.000205368
27 *540:12 *798:16 0
28 *542:10 *4582:A 0.000137578
29 *542:10 *798:16 0
30 *604:12 *4582:A 0.000200198
31 *679:14 *4205:A 2.20732e-05
*RES
1 *4896:Q *798:4 1.6 
2 *798:4 *798:8 7.365 
3 *798:8 *798:16 11.665 
4 *798:16 *4583:A 1.6 
5 *798:16 *4582:A 9.83 
6 *798:8 *4588:A2 2.47 
7 *798:4 *4205:A 34.04 
*END

*D_NET *799 0.00442192
*CONN
*I *5038:A I *D sky130_fd_sc_hd__dlygate4sd3_1
*I *4207:A I *D sky130_fd_sc_hd__and2_1
*I *4616:A I *D sky130_fd_sc_hd__and2_1
*I *4617:A I *D sky130_fd_sc_hd__xnor2_1
*I *4897:Q O *D sky130_fd_sc_hd__dfxtp_1
*CAP
1 *5038:A 0.000163907
2 *4207:A 0.00057166
3 *4616:A 0
4 *4617:A 0.000184407
5 *4897:Q 0
6 *799:14 0.000603361
7 *799:8 0.00110182
8 *799:6 0.000275117
9 *4616:B *4617:A 0.000168349
10 *4616:B *799:14 8.8266e-05
11 *4707:A1 *799:8 1.22762e-05
12 *4707:A1 *799:14 5.51245e-05
13 *181:56 *4207:A 0.000539035
14 *572:6 *799:14 0.000658589
15 *654:18 *5038:A 0
16 *654:18 *799:8 0
17 *671:14 *5038:A 0
18 *671:14 *799:8 0
19 *671:14 *799:14 0
*RES
1 *4897:Q *799:6 3.6 
2 *799:6 *799:8 1.89 
3 *799:8 *799:14 11.24 
4 *799:14 *4617:A 5.095 
5 *799:14 *4616:A 1.6 
6 *799:8 *4207:A 14.43 
7 *799:6 *5038:A 6.255 
*END

*D_NET *800 0.00380592
*CONN
*I *4209:A I *D sky130_fd_sc_hd__and2_1
*I *4652:A I *D sky130_fd_sc_hd__and2_1
*I *4653:B I *D sky130_fd_sc_hd__xnor2_2
*I *4656:A2 I *D sky130_fd_sc_hd__o211a_1
*I *4898:Q O *D sky130_fd_sc_hd__dfxtp_1
*CAP
1 *4209:A 0.000416087
2 *4652:A 0.000119818
3 *4653:B 0.000119372
4 *4656:A2 0
5 *4898:Q 0
6 *800:27 0.000568583
7 *800:14 0.000766585
8 *800:4 0.000853279
9 *4209:A *4210:C1 0
10 *800:14 *4655:A 1.61831e-05
11 *800:14 *4656:A1 1.90686e-05
12 *800:14 *1011:54 6.43251e-05
13 *800:27 *4655:A 0.000160641
14 *800:27 *4656:A1 3.26889e-05
15 *4653:A *4652:A 0
16 *4654:A *4652:A 1.01661e-05
17 *4654:A *800:27 2.30292e-05
18 *4654:B *800:27 0.000122337
19 *4655:B *800:27 4.23245e-05
20 *4656:C1 *800:14 1.37328e-05
21 *4656:C1 *800:27 5.30673e-05
22 *4898:CLK *800:14 6.96579e-05
23 *4898:D *800:14 0.000151967
24 *607:8 *4652:A 4.40643e-05
25 *608:10 *4652:A 3.09164e-05
26 *654:18 *4652:A 2.86623e-05
27 *654:18 *4653:B 7.93632e-05
*RES
1 *4898:Q *800:4 1.6 
2 *800:4 *800:14 8.7 
3 *800:14 *4656:A2 1.6 
4 *800:14 *800:27 6.45 
5 *800:27 *4653:B 3.445 
6 *800:27 *4652:A 8 
7 *800:4 *4209:A 11.195 
*END

*D_NET *801 0.00471595
*CONN
*I *4211:A I *D sky130_fd_sc_hd__and2_1
*I *4685:A2 I *D sky130_fd_sc_hd__o211a_1
*I *4709:A1 I *D sky130_fd_sc_hd__o21ai_2
*I *4708:A1 I *D sky130_fd_sc_hd__a21o_1
*I *4681:A I *D sky130_fd_sc_hd__xor2_1
*I *4899:Q O *D sky130_fd_sc_hd__dfxtp_1
*CAP
1 *4211:A 0.000150453
2 *4685:A2 1.83981e-05
3 *4709:A1 0
4 *4708:A1 0.000121778
5 *4681:A 0.000196378
6 *4899:Q 0
7 *801:12 0.0003688
8 *801:10 0.000425298
9 *801:8 0.000991385
10 *801:4 0.000748787
11 *4211:A *4208:A2 2.30292e-05
12 *4211:A *4956:A 1.61831e-05
13 *4681:A *968:111 6.88941e-05
14 *4685:A2 *4685:B1 9.53428e-06
15 *4685:A2 *849:76 4.00541e-06
16 *801:8 *4956:A 3.82966e-05
17 *801:8 *849:76 0.000178002
18 *801:10 *4656:B1 9.66106e-05
19 *801:10 *4956:A 8.26245e-05
20 *801:10 *849:76 2.05056e-05
21 *801:10 *968:111 0.000213579
22 *801:12 *968:111 9.27495e-05
23 *4682:B1_N *4708:A1 0
24 *4706:A_N *801:10 0.000234674
25 *4709:A2 *4708:A1 8.78813e-05
26 *4709:B1 *4681:A 5.05521e-05
27 *4709:B1 *4708:A1 0
28 *4941:A *4211:A 0.000199496
29 *635:12 *4708:A1 4.18603e-06
30 *662:14 *801:10 0.000187276
31 *662:14 *801:12 8.65961e-05
32 *671:14 *4708:A1 0
*RES
1 *4899:Q *801:4 1.6 
2 *801:4 *801:8 7.62 
3 *801:8 *801:10 9.075 
4 *801:10 *801:12 1.485 
5 *801:12 *4681:A 5.095 
6 *801:12 *4708:A1 7.745 
7 *801:10 *4709:A1 1.6 
8 *801:8 *4685:A2 1.96 
9 *801:4 *4211:A 4.735 
*END

*D_NET *802 0.00396406
*CONN
*I *4213:A I *D sky130_fd_sc_hd__and2_1
*I *5031:A I *D sky130_fd_sc_hd__dlygate4sd3_1
*I *4704:A I *D sky130_fd_sc_hd__nor2_1
*I *4702:A I *D sky130_fd_sc_hd__nand2_1
*I *4900:Q O *D sky130_fd_sc_hd__dfxtp_1
*CAP
1 *4213:A 0.000156068
2 *5031:A 0
3 *4704:A 0
4 *4702:A 4.25958e-05
5 *4900:Q 0
6 *802:46 0.000382511
7 *802:26 0.000979904
8 *802:4 0.00116375
9 *4213:A *4206:C1 0
10 *4213:A *971:87 0.000137571
11 *4213:A *971:89 3.09164e-05
12 *802:26 *1011:40 0
13 *4704:B *4702:A 5.04034e-05
14 *4704:B *802:26 0
15 *4710:A1 *802:26 8.8262e-05
16 *4710:A2 *802:26 9.37769e-05
17 *4710:B1 *802:26 6.94424e-05
18 *4711:A *802:26 0
19 *4712:A1 *802:26 2.30292e-05
20 *4712:A2 *802:26 8.58339e-06
21 *4713:C1 *802:26 0.000123225
22 *4900:D *802:26 0.000128642
23 *655:10 *802:26 9.80032e-06
24 *657:12 *4702:A 2.7441e-05
25 *657:12 *802:26 4.92062e-05
26 *660:8 *802:26 0
27 *660:12 *802:26 0.000120506
28 *662:14 *4702:A 0.00012657
29 *662:14 *802:26 2.05056e-05
30 *662:42 *802:26 0.000131353
*RES
1 *4900:Q *802:4 1.6 
2 *802:4 *802:26 18.895 
3 *802:26 *4702:A 3.46 
4 *802:26 *4704:A 1.6 
5 *802:4 *802:46 3.48 
6 *802:46 *5031:A 1.6 
7 *802:46 *4213:A 8.285 
*END

*D_NET *803 0.00481467
*CONN
*I *4215:A I *D sky130_fd_sc_hd__and2_1
*I *5041:A I *D sky130_fd_sc_hd__dlygate4sd3_1
*I *4721:A I *D sky130_fd_sc_hd__and2_4
*I *4720:A I *D sky130_fd_sc_hd__nor2_1
*I *4901:Q O *D sky130_fd_sc_hd__dfxtp_1
*CAP
1 *4215:A 4.21505e-05
2 *5041:A 0.000110824
3 *4721:A 0
4 *4720:A 3.09418e-05
5 *4901:Q 0
6 *803:28 0.000189374
7 *803:12 0.0013809
8 *803:4 0.00138636
9 *4215:A *4215:B 5.83121e-06
10 *4215:A *846:41 2.8185e-05
11 *4720:A *4721:B 9.78003e-05
12 *5041:A *971:81 6.80428e-05
13 *5041:A *971:83 2.85837e-05
14 *803:12 *846:41 3.27623e-05
15 *4205:A *5041:A 0
16 *4205:A *803:12 0.00131577
17 *4722:B *803:12 2.15738e-05
18 *4727:B1_N *803:12 2.25075e-05
19 *181:60 *5041:A 0
20 *778:161 *4720:A 5.30673e-05
*RES
1 *4901:Q *803:4 1.6 
2 *803:4 *803:12 22.045 
3 *803:12 *4720:A 2.755 
4 *803:12 *4721:A 1.6 
5 *803:4 *803:28 0.615 
6 *803:28 *5041:A 7.745 
7 *803:28 *4215:A 2.395 
*END

*D_NET *804 0.00840664
*CONN
*I *4217:A I *D sky130_fd_sc_hd__and2_1
*I *4733:A2 I *D sky130_fd_sc_hd__o211a_1
*I *4754:A4 I *D sky130_fd_sc_hd__o41a_1
*I *4741:A2 I *D sky130_fd_sc_hd__o21ai_1
*I *4735:A1 I *D sky130_fd_sc_hd__a21bo_1
*I *4726:A I *D sky130_fd_sc_hd__xnor2_4
*I *4902:Q O *D sky130_fd_sc_hd__dfxtp_1
*CAP
1 *4217:A 0.000168247
2 *4733:A2 2.56664e-05
3 *4754:A4 8.43503e-05
4 *4741:A2 0.000763146
5 *4735:A1 0
6 *4726:A 0
7 *4902:Q 0
8 *804:44 0.00100142
9 *804:31 0.000405194
10 *804:22 0.00101696
11 *804:8 0.00139983
12 *804:4 0.000776727
13 *4217:A *971:70 8.60799e-05
14 *4741:A2 *4741:B1 5.05521e-05
15 *4741:A2 *805:66 7.40016e-05
16 *4741:A2 *806:56 5.09376e-05
17 *4754:A4 *4754:A2 4.82863e-05
18 *4754:A4 *805:42 4.82919e-05
19 *4754:A4 *805:53 7.49327e-05
20 *804:22 *4733:A1 8.23457e-05
21 *804:22 *964:32 0
22 *804:31 *4740:A 0
23 *4733:C1 *4733:A2 4.29151e-06
24 *4753:A2 *804:22 0.000274496
25 *4753:C1 *804:22 1.6418e-05
26 *4902:CLK *4733:A2 1.16578e-05
27 *4902:CLK *804:8 0.000158072
28 *4902:D *4733:A2 1.47347e-05
29 *4902:D *804:8 3.54965e-05
30 *4902:D *804:22 1.61831e-05
31 *671:39 *4754:A4 9.14049e-05
32 *671:39 *804:31 1.71013e-05
33 *671:39 *804:44 0.000259242
34 *679:14 *804:22 6.95921e-05
35 *700:10 *4754:A4 3.26822e-05
36 *700:10 *804:22 0.000338385
37 *700:10 *804:31 0.000502554
38 *700:10 *804:44 0.000407359
*RES
1 *4902:Q *804:4 1.6 
2 *804:4 *804:8 7.62 
3 *804:8 *804:22 14.84 
4 *804:22 *4726:A 3.6 
5 *804:22 *804:31 5.97 
6 *804:31 *4735:A1 3.6 
7 *804:31 *804:44 5.85 
8 *804:44 *4741:A2 12.33 
9 *804:44 *4754:A4 5.865 
10 *804:8 *4733:A2 2.41 
11 *804:4 *4217:A 4.39 
*END

*D_NET *805 0.00747636
*CONN
*I *4219:A I *D sky130_fd_sc_hd__and2_1
*I *4741:A1 I *D sky130_fd_sc_hd__o21ai_1
*I *4742:A1_N I *D sky130_fd_sc_hd__a2bb2o_4
*I *4754:A3 I *D sky130_fd_sc_hd__o41a_1
*I *4738:A2 I *D sky130_fd_sc_hd__o211a_1
*I *4734:A I *D sky130_fd_sc_hd__xnor2_4
*I *4903:Q O *D sky130_fd_sc_hd__dfxtp_1
*CAP
1 *4219:A 0.000482006
2 *4741:A1 0
3 *4742:A1_N 0.000155465
4 *4754:A3 0
5 *4738:A2 0
6 *4734:A 0.000247189
7 *4903:Q 0.000107658
8 *805:66 0.00063826
9 *805:53 0.000683551
10 *805:42 0.00083469
11 *805:16 0.000388098
12 *805:10 0.000711424
13 *4219:A *4223:A 0.000159253
14 *4219:A *833:95 0
15 *4219:A *847:70 8.53113e-06
16 *4734:A *4736:B1_N 0.000235585
17 *4734:A *833:19 9.50342e-06
18 *4742:A1_N *4739:A 4.9968e-05
19 *4742:A1_N *4741:B1 5.64057e-05
20 *4742:A1_N *806:56 7.06865e-05
21 *4742:A1_N *856:38 8.17924e-05
22 *805:16 *833:19 1.97804e-05
23 *805:16 *845:49 9.54399e-05
24 *805:42 *845:49 0.000199953
25 *805:42 *970:33 0.000564771
26 *805:53 *4588:B1 0
27 *805:53 *4741:B1 1.22762e-05
28 *805:53 *4746:A 4.82863e-05
29 *805:53 *4754:A2 0.000130445
30 *805:53 *807:27 0.000643479
31 *805:53 *970:33 4.60584e-05
32 *805:66 *4741:B1 8.65961e-05
33 *4738:C1 *4734:A 9.78734e-05
34 *4738:C1 *805:16 4.18603e-06
35 *4741:A2 *805:66 7.40016e-05
36 *4745:C1 *4219:A 4.65607e-05
37 *4748:B *4742:A1_N 0
38 *4748:B *805:53 0
39 *4752:D *4742:A1_N 0
40 *4754:A4 *805:42 4.82919e-05
41 *4754:A4 *805:53 7.49327e-05
42 *4903:CLK *805:10 0.000158066
43 *4903:CLK *805:42 0.000103974
44 *181:60 *4219:A 0
45 *689:25 *4742:A1_N 0.000101317
*RES
1 *4903:Q *805:10 5.445 
2 *805:10 *805:16 2.535 
3 *805:16 *4734:A 8.79 
4 *805:16 *4738:A2 3.6 
5 *805:10 *805:42 13.13 
6 *805:42 *4754:A3 1.6 
7 *805:42 *805:53 11.15 
8 *805:53 *4742:A1_N 7.785 
9 *805:53 *805:66 4.865 
10 *805:66 *4741:A1 1.6 
11 *805:66 *4219:A 13.82 
*END

*D_NET *806 0.00721379
*CONN
*I *4745:A2 I *D sky130_fd_sc_hd__o211a_1
*I *4754:A2 I *D sky130_fd_sc_hd__o41a_1
*I *4740:A I *D sky130_fd_sc_hd__xnor2_2
*I *4739:A I *D sky130_fd_sc_hd__nand2_1
*I *4221:A I *D sky130_fd_sc_hd__and2_1
*I *4904:Q O *D sky130_fd_sc_hd__dfxtp_1
*CAP
1 *4745:A2 1.55346e-05
2 *4754:A2 0.000295468
3 *4740:A 0.000273938
4 *4739:A 5.66512e-05
5 *4221:A 0.000293164
6 *4904:Q 0.000108658
7 *806:56 0.000959251
8 *806:37 0.00111569
9 *806:29 0.0013359
10 *806:6 0.00105299
11 *4221:A *4221:B 8.69583e-05
12 *4221:A *846:27 0
13 *4221:A *846:29 0
14 *4745:A2 *4745:A1 9.53428e-06
15 *806:6 *4222:C1 3.64998e-06
16 *806:29 *4745:A1 2.30292e-05
17 *806:29 *846:27 5.62035e-05
18 *806:37 *4745:A1 0.000154782
19 *4741:A2 *806:56 5.09376e-05
20 *4742:A1_N *4739:A 4.9968e-05
21 *4742:A1_N *806:56 7.06865e-05
22 *4743:A *4739:A 4.82919e-05
23 *4743:A *806:37 0.000165869
24 *4744:B *806:37 4.99619e-05
25 *4747:B1 *4739:A 8.40269e-05
26 *4747:B1 *806:37 0.000122331
27 *4752:D *4739:A 0
28 *4752:D *4740:A 0.000189037
29 *4752:D *4754:A2 7.24949e-05
30 *4754:A4 *4754:A2 4.82863e-05
31 *671:39 *4740:A 0
32 *671:39 *4754:A2 0
33 *689:25 *4739:A 4.82863e-05
34 *777:23 *4221:A 0.000164679
35 *777:49 *4221:A 7.70828e-05
36 *777:49 *806:29 0
37 *804:31 *4740:A 0
38 *805:53 *4754:A2 0.000130445
*RES
1 *4904:Q *806:6 2.74 
2 *806:6 *4221:A 10.535 
3 *806:6 *806:29 13.24 
4 *806:29 *806:37 11.195 
5 *806:37 *4739:A 5.01 
6 *806:37 *806:56 8.77 
7 *806:56 *4740:A 9.06 
8 *806:56 *4754:A2 8.265 
9 *806:29 *4745:A2 1.96 
*END

*D_NET *807 0.00552777
*CONN
*I *5040:A I *D sky130_fd_sc_hd__dlygate4sd3_1
*I *4754:A1 I *D sky130_fd_sc_hd__o41a_1
*I *4746:A I *D sky130_fd_sc_hd__xnor2_1
*I *4223:A I *D sky130_fd_sc_hd__and2_1
*I *4905:Q O *D sky130_fd_sc_hd__dfxtp_1
*CAP
1 *5040:A 0
2 *4754:A1 0
3 *4746:A 0.000129947
4 *4223:A 0.000358927
5 *4905:Q 0.000177134
6 *807:27 0.000407423
7 *807:25 0.000277476
8 *807:10 0.000536061
9 *4223:A *833:95 0
10 *4223:A *847:70 2.92496e-05
11 *4746:A *4746:B 8.65905e-05
12 *4746:A *970:33 4.66108e-05
13 *807:10 *4948:A 0.0001249
14 *807:10 *847:70 0.000114492
15 *807:27 *847:70 0.000616046
16 *807:27 *970:33 0.00152765
17 *4219:A *4223:A 0.000159253
18 *671:39 *4746:A 0.000160658
19 *700:10 *4746:A 6.4422e-05
20 *777:70 *807:10 1.91597e-05
21 *805:53 *4746:A 4.82863e-05
22 *805:53 *807:27 0.000643479
*RES
1 *4905:Q *807:10 6.465 
2 *807:10 *4223:A 9.405 
3 *807:10 *807:25 2 
4 *807:25 *807:27 13.905 
5 *807:27 *4746:A 9.08 
6 *807:27 *4754:A1 1.6 
7 *807:25 *5040:A 1.6 
*END

*D_NET *808 0.00440568
*CONN
*I *4274:B1 I *D sky130_fd_sc_hd__a21oi_1
*I *4273:A I *D sky130_fd_sc_hd__and3_1
*I *5032:A I *D sky130_fd_sc_hd__dlygate4sd3_1
*I *4181:A1 I *D sky130_fd_sc_hd__a211o_1
*I *4887:Q O *D sky130_fd_sc_hd__dfxtp_1
*CAP
1 *4274:B1 0
2 *4273:A 0.000303365
3 *5032:A 1.79211e-05
4 *4181:A1 0.000143118
5 *4887:Q 0.000131917
6 *808:34 0.000720368
7 *808:21 0.000568718
8 *808:8 0.000408828
9 *4181:A1 *972:51 0.000489644
10 *4181:A1 *986:48 0.000489644
11 *4273:A *1004:43 0
12 *4273:A *1005:48 0
13 *4273:A *1007:74 0.000204034
14 *4273:A *1010:80 7.17811e-05
15 *808:8 *4278:A2 0.000124895
16 *808:21 *4161:A 4.57249e-05
17 *808:34 *4161:A 3.98155e-05
18 *808:34 *841:18 4.66108e-05
19 *808:34 *844:22 0.00045967
20 *808:34 *1004:43 0
21 *808:34 *1005:48 0
22 *4273:C *4273:A 3.49688e-05
23 *182:53 *808:8 8.34281e-06
24 *182:53 *808:21 4.41506e-05
25 *239:12 *4273:A 5.21627e-05
*RES
1 *4887:Q *808:8 3.445 
2 *808:8 *4181:A1 11.315 
3 *808:8 *808:21 2.175 
4 *808:21 *5032:A 1.96 
5 *808:21 *808:34 9.26 
6 *808:34 *4273:A 9.57 
7 *808:34 *4274:B1 3.6 
*END

*D_NET *809 0.00773147
*CONN
*I *4225:A I *D sky130_fd_sc_hd__and2_1
*I *5043:A I *D sky130_fd_sc_hd__dlygate4sd3_1
*I *4762:A1 I *D sky130_fd_sc_hd__a21bo_1
*I *4769:A2 I *D sky130_fd_sc_hd__o21ai_1
*I *4780:A4 I *D sky130_fd_sc_hd__o41ai_2
*I *4751:A I *D sky130_fd_sc_hd__xnor2_1
*I *4906:Q O *D sky130_fd_sc_hd__dfxtp_2
*CAP
1 *4225:A 0.000322853
2 *5043:A 1.55137e-05
3 *4762:A1 3.36206e-05
4 *4769:A2 2.08101e-05
5 *4780:A4 0.000142562
6 *4751:A 0.000262293
7 *4906:Q 0
8 *809:28 0.000993602
9 *809:24 0.000791625
10 *809:20 0.000482782
11 *809:14 0.000555293
12 *809:4 0.000595538
13 *4225:A *4234:B1 6.1357e-05
14 *4225:A *4234:C1 2.49909e-05
15 *4225:A *967:87 4.82863e-05
16 *4225:A *970:52 0.000131701
17 *4225:A *970:58 0
18 *4751:A *4751:B 0.000205422
19 *4762:A1 *4763:B1_N 0
20 *4780:A4 *962:86 8.65905e-05
21 *5043:A *4760:B1 7.57202e-05
22 *809:14 *847:60 0
23 *809:14 *967:87 0
24 *809:20 *4760:B1 0.000507936
25 *809:24 *4762:A2 5.83498e-05
26 *809:24 *4769:B1 2.75229e-05
27 *809:28 *4762:A2 0.00014785
28 *4223:B *4225:A 0.000124895
29 *4231:B *4751:A 0.000174323
30 *4231:B *4780:A4 0.000229897
31 *4762:B1_N *809:24 2.16833e-05
32 *4770:B1 *4762:A1 4.43871e-06
33 *4866:CLK *4225:A 0.000294211
34 *181:60 *4225:A 9.24049e-05
35 *183:69 *4751:A 5.7344e-05
36 *183:69 *5043:A 5.05521e-05
37 *183:69 *809:20 0.00030135
38 *704:12 *809:20 0
39 *704:25 *4762:A1 2.15594e-05
40 *704:25 *809:20 0.000173965
41 *707:23 *809:24 0.000120655
42 *723:10 *4751:A 0
43 *723:10 *4780:A4 0
44 *725:14 *4751:A 0
45 *777:117 *4225:A 3.57929e-05
46 *777:117 *809:14 0.000316421
47 *780:8 *809:28 0.000119762
48 *780:12 *4751:A 0
49 *780:47 *4780:A4 0
*RES
1 *4906:Q *809:4 1.6 
2 *809:4 *809:14 9.37 
3 *809:14 *809:20 10.52 
4 *809:20 *809:24 5.21 
5 *809:24 *809:28 11.075 
6 *809:28 *4751:A 9.315 
7 *809:28 *4780:A4 7.05 
8 *809:24 *4769:A2 1.96 
9 *809:20 *4762:A1 4.215 
10 *809:14 *5043:A 2.395 
11 *809:4 *4225:A 13.565 
*END

*D_NET *810 0.00755164
*CONN
*I *4227:A I *D sky130_fd_sc_hd__and2_1
*I *4765:A2 I *D sky130_fd_sc_hd__o211a_1
*I *4770:A1_N I *D sky130_fd_sc_hd__a2bb2o_4
*I *4761:A I *D sky130_fd_sc_hd__xnor2_1
*I *4780:A3 I *D sky130_fd_sc_hd__o41ai_2
*I *4769:A1 I *D sky130_fd_sc_hd__o21ai_1
*I *4907:Q O *D sky130_fd_sc_hd__dfxtp_1
*CAP
1 *4227:A 0.000183233
2 *4765:A2 3.33099e-05
3 *4770:A1_N 1.77753e-05
4 *4761:A 0.000213762
5 *4780:A3 6.83915e-05
6 *4769:A1 0.000127478
7 *4907:Q 0
8 *810:29 0.000946486
9 *810:14 0.000893273
10 *810:12 0.000846356
11 *810:6 0.00126182
12 *810:4 0.000684627
13 *4227:A *4229:B 9.49116e-05
14 *4761:A *4780:A1 5.16348e-05
15 *4765:A2 *4765:A1 9.53428e-06
16 *4769:A1 *4766:B 0
17 *4769:A1 *962:88 0
18 *4769:A1 *962:90 0
19 *4769:A1 *963:23 1.89685e-05
20 *4769:A1 *963:34 9.9535e-05
21 *4769:A1 *963:49 1.1561e-05
22 *4780:A3 *4780:A2 4.35648e-05
23 *4780:A3 *4780:B1 0
24 *4780:A3 *962:86 1.19928e-05
25 *810:6 *4765:A1 1.61831e-05
26 *810:12 *4765:A1 0.000165471
27 *810:14 *4770:A2_N 4.82919e-05
28 *810:29 *4780:A2 0.000490252
29 *810:29 *962:86 2.54431e-05
30 *4231:B *4761:A 0.000406764
31 *4765:C1 *810:12 5.05521e-05
32 *715:10 *4769:A1 4.18603e-06
33 *780:101 *810:6 7.83602e-05
34 *780:112 *4227:A 7.41429e-05
35 *780:112 *4765:A2 0
36 *780:112 *810:6 0.000573776
*RES
1 *4907:Q *810:4 1.6 
2 *810:4 *810:6 7.005 
3 *810:6 *810:12 9.195 
4 *810:12 *810:14 1.485 
5 *810:14 *4769:A1 8.255 
6 *810:14 *810:29 8.4 
7 *810:29 *4780:A3 2.665 
8 *810:29 *4761:A 10.295 
9 *810:12 *4770:A1_N 1.96 
10 *810:6 *4765:A2 2.215 
11 *810:4 *4227:A 9.05 
*END

*D_NET *811 0.00770508
*CONN
*I *4229:A I *D sky130_fd_sc_hd__and2_1
*I *4773:A2 I *D sky130_fd_sc_hd__o211a_1
*I *4766:A I *D sky130_fd_sc_hd__or2_1
*I *4767:A I *D sky130_fd_sc_hd__nand2_1
*I *4780:A2 I *D sky130_fd_sc_hd__o41ai_2
*I *4908:Q O *D sky130_fd_sc_hd__dfxtp_1
*CAP
1 *4229:A 0.000157325
2 *4773:A2 3.48664e-05
3 *4766:A 0
4 *4767:A 4.35223e-05
5 *4780:A2 0.000223747
6 *4908:Q 0
7 *811:29 0.000108901
8 *811:12 0.00106684
9 *811:6 0.00140269
10 *811:4 0.000747438
11 *4229:A *847:33 0
12 *4229:A *847:147 0.000423397
13 *4229:A *967:64 0.000135304
14 *4229:A *967:68 1.26626e-05
15 *4767:A *4767:B 0
16 *4767:A *4774:B 0.000124007
17 *4773:A2 *4773:B1 5.06204e-06
18 *4780:A2 *4766:B 2.34423e-05
19 *4780:A2 *4780:A1 4.82919e-05
20 *4780:A2 *962:86 0.000269974
21 *811:6 *847:33 2.07108e-05
22 *811:12 *4773:B1 3.00381e-05
23 *811:29 *4766:B 4.66108e-05
24 *811:29 *4774:B 7.99093e-05
25 *4230:A2 *4229:A 0.00037511
26 *4232:A2 *4229:A 0.000320306
27 *4768:A *4767:A 4.82919e-05
28 *4771:A *811:12 6.52265e-05
29 *4772:B *811:12 0.000191243
30 *4773:C1 *4773:A2 7.33843e-06
31 *4773:C1 *811:12 8.8266e-05
32 *4775:B1 *4767:A 3.77036e-05
33 *4775:B1 *811:12 3.86529e-05
34 *4775:B1 *811:29 0.000124007
35 *4776:A *4780:A2 0
36 *4776:A *811:12 0
37 *4776:B *811:12 9.60582e-07
38 *4780:A3 *4780:A2 4.35648e-05
39 *4781:C *4780:A2 0.000271327
40 *4781:D *4780:A2 0.000292046
41 *4908:D *811:6 0.000149404
42 *181:71 *4229:A 2.92496e-05
43 *713:27 *4780:A2 8.08153e-06
44 *713:27 *811:12 5.86423e-05
45 *780:89 *811:6 5.03301e-05
46 *780:89 *811:12 1.03323e-05
47 *810:29 *4780:A2 0.000490252
*RES
1 *4908:Q *811:4 1.6 
2 *811:4 *811:6 7.005 
3 *811:6 *811:12 12.2 
4 *811:12 *4780:A2 12.735 
5 *811:12 *811:29 3.83 
6 *811:29 *4767:A 3.1 
7 *811:29 *4766:A 1.6 
8 *811:6 *4773:A2 2.215 
9 *811:4 *4229:A 12.92 
*END

*D_NET *812 0.00417984
*CONN
*I *4231:A I *D sky130_fd_sc_hd__and2_1
*I *4774:A I *D sky130_fd_sc_hd__xnor2_1
*I *4780:A1 I *D sky130_fd_sc_hd__o41ai_2
*I *4777:B I *D sky130_fd_sc_hd__nor2_1
*I *4909:Q O *D sky130_fd_sc_hd__dfxtp_1
*CAP
1 *4231:A 0.000227257
2 *4774:A 0.000135843
3 *4780:A1 0.000205505
4 *4777:B 0.000422168
5 *4909:Q 2.88526e-05
6 *812:19 0.000583006
7 *812:17 0.000468915
8 *812:6 0.00045102
9 *4231:A *1002:12 1.34361e-05
10 *4774:A *4774:B 0.000275548
11 *4780:A1 *962:86 4.99619e-05
12 *4231:B *4231:A 0.000365281
13 *4231:B *4780:A1 0.000169526
14 *4231:B *812:19 0.000260938
15 *4761:A *4780:A1 5.16348e-05
16 *4776:A *812:19 0
17 *4778:A1 *4231:A 0
18 *4778:A1 *812:19 0
19 *4780:A2 *4780:A1 4.82919e-05
20 *4909:D *4777:B 5.37091e-05
21 *4911:CLK *4777:B 5.84064e-05
22 *780:49 *4777:B 2.75145e-05
23 *780:73 *4777:B 0.000255506
24 *780:73 *812:6 2.75229e-05
*RES
1 *4909:Q *812:6 2.05 
2 *812:6 *4777:B 7.495 
3 *812:6 *812:17 2 
4 *812:17 *812:19 5.46 
5 *812:19 *4780:A1 8.235 
6 *812:19 *4774:A 6.465 
7 *812:17 *4231:A 8.85 
*END

*D_NET *813 0.0115732
*CONN
*I *4233:A I *D sky130_fd_sc_hd__and2_1
*I *5042:A I *D sky130_fd_sc_hd__dlygate4sd3_1
*I *4788:A1 I *D sky130_fd_sc_hd__a21boi_1
*I *4807:A4 I *D sky130_fd_sc_hd__o41a_1
*I *4795:A2 I *D sky130_fd_sc_hd__o21ai_1
*I *4779:A I *D sky130_fd_sc_hd__xnor2_1
*I *4910:Q O *D sky130_fd_sc_hd__dfxtp_2
*CAP
1 *4233:A 0.00145254
2 *5042:A 0
3 *4788:A1 0.000228218
4 *4807:A4 0.000999845
5 *4795:A2 6.22102e-05
6 *4779:A 0.000210942
7 *4910:Q 5.53999e-05
8 *813:62 0.00147654
9 *813:38 0.00131006
10 *813:25 0.000409702
11 *813:12 0.000961185
12 *813:8 0.000564136
13 *4233:A *971:41 7.53115e-05
14 *4779:A *4779:B 0.000278117
15 *4779:A *962:21 1.34503e-05
16 *4807:A4 *4795:A1 5.4003e-05
17 *4807:A4 *4796:A1_N 0.000113247
18 *4807:A4 *4807:A2 0.00022786
19 *4807:A4 *4807:A3 1.19928e-05
20 *4807:A4 *4807:B1 4.9559e-06
21 *4807:A4 *814:12 6.28498e-05
22 *4807:A4 *961:27 6.07575e-06
23 *4807:A4 *968:103 0.000118513
24 *813:8 *971:41 5.20968e-05
25 *813:12 *4786:A2 0.000126028
26 *813:12 *962:21 1.83847e-05
27 *813:25 *4936:A 0.000284976
28 *813:25 *833:17 0
29 *813:25 *833:19 0
30 *813:25 *836:46 0
31 *813:25 *962:21 0.000617032
32 *813:38 *4936:A 4.14369e-05
33 *813:38 *962:21 4.9968e-05
34 *813:38 *1002:28 4.91927e-05
35 *813:62 *971:41 2.60986e-05
36 *4755:A *4233:A 0
37 *4755:A *813:8 0
38 *4755:A *813:62 0
39 *4794:B *4807:A4 0.000157343
40 *4796:B1 *813:38 7.06865e-05
41 *4801:B1 *4807:A4 1.91597e-05
42 *4910:D *813:12 0.000272984
43 *4926:A *4788:A1 0.000347917
44 *4926:A *4807:A4 0.000197269
45 *4953:A *813:25 0
46 *183:53 *4795:A2 8.40213e-05
47 *703:12 *4233:A 3.00381e-05
48 *722:10 *813:25 0.000125501
49 *726:21 *813:38 2.16306e-05
50 *737:12 *4807:A4 0.00026617
51 *745:24 *4807:A4 1.80685e-05
*RES
1 *4910:Q *813:8 4.725 
2 *813:8 *813:12 10.385 
3 *813:12 *4779:A 5.425 
4 *813:12 *813:25 10.01 
5 *813:25 *4795:A2 4.395 
6 *813:25 *813:38 4.145 
7 *813:38 *4807:A4 19.265 
8 *813:38 *4788:A1 4.81 
9 *813:8 *813:62 0.615 
10 *813:62 *5042:A 3.6 
11 *813:62 *4233:A 24.78 
*END

*D_NET *814 0.00712271
*CONN
*I *4790:B I *D sky130_fd_sc_hd__nor2_1
*I *4235:A I *D sky130_fd_sc_hd__and2_1
*I *4787:A I *D sky130_fd_sc_hd__xnor2_1
*I *4807:A3 I *D sky130_fd_sc_hd__o41a_1
*I *4796:A1_N I *D sky130_fd_sc_hd__a2bb2o_4
*I *4795:A1 I *D sky130_fd_sc_hd__o21ai_1
*I *4911:Q O *D sky130_fd_sc_hd__dfxtp_1
*CAP
1 *4790:B 0.000169676
2 *4235:A 0.000387149
3 *4787:A 3.37454e-05
4 *4807:A3 0.000392261
5 *4796:A1_N 4.91756e-05
6 *4795:A1 0.000188276
7 *4911:Q 0
8 *814:62 0.000611285
9 *814:12 0.000331158
10 *814:10 0.000681673
11 *814:8 0.000516023
12 *814:6 0.000341031
13 *4235:A *4237:B 0.000440617
14 *4235:A *968:95 4.43682e-05
15 *4235:A *970:125 8.8266e-05
16 *4790:B *4790:A 5.59676e-05
17 *4795:A1 *835:54 0.000308713
18 *4795:A1 *836:46 5.05716e-06
19 *4795:A1 *837:85 0
20 *4795:A1 *968:103 5.28263e-05
21 *4807:A3 *4239:A 0.000149766
22 *4807:A3 *4792:B 0.000188719
23 *4807:A3 *4807:A2 5.83121e-06
24 *4807:A3 *816:30 8.53113e-06
25 *4807:A3 *961:27 4.82919e-05
26 *814:8 *837:85 0
27 *814:8 *968:103 0.000328118
28 *814:10 *837:85 0
29 *814:10 *968:103 0.000230466
30 *814:12 *837:85 0
31 *814:12 *968:103 4.5783e-05
32 *814:62 *837:85 0
33 *814:62 *968:103 4.65643e-05
34 *4794:A *4807:A3 0.000571709
35 *4807:A4 *4795:A1 5.4003e-05
36 *4807:A4 *4796:A1_N 0.000113247
37 *4807:A4 *4807:A3 1.19928e-05
38 *4807:A4 *814:12 6.28498e-05
39 *745:24 *4796:A1_N 0.000164566
40 *772:94 *4795:A1 0.000131069
41 *779:8 *4807:A3 0.000101608
42 *779:10 *4807:A3 0.000162325
*RES
1 *4911:Q *814:6 3.6 
2 *814:6 *814:8 6.735 
3 *814:8 *814:10 4.695 
4 *814:10 *814:12 1.89 
5 *814:12 *4795:A1 8.355 
6 *814:12 *4796:A1_N 5.43 
7 *814:10 *4807:A3 17.635 
8 *814:8 *4787:A 4.05 
9 *814:6 *814:62 3.125 
10 *814:62 *4235:A 9.07 
11 *814:62 *4790:B 4.495 
*END

*D_NET *815 0.00431598
*CONN
*I *4237:A I *D sky130_fd_sc_hd__and2_1
*I *5036:A I *D sky130_fd_sc_hd__dlygate4sd3_1
*I *4792:A I *D sky130_fd_sc_hd__or2_1
*I *4807:A2 I *D sky130_fd_sc_hd__o41a_1
*I *4793:A I *D sky130_fd_sc_hd__nand2_1
*I *4912:Q O *D sky130_fd_sc_hd__dfxtp_1
*CAP
1 *4237:A 0.000169835
2 *5036:A 9.75168e-05
3 *4792:A 0
4 *4807:A2 6.97188e-05
5 *4793:A 1.57715e-05
6 *4912:Q 2.90091e-05
7 *815:16 0.000134395
8 *815:14 0.000431952
9 *815:8 0.000516115
10 *815:6 0.000234395
11 *4237:A *845:103 0
12 *4793:A *4236:B1 5.16348e-05
13 *4807:A2 *4807:A1 2.49909e-05
14 *4807:A2 *961:27 1.81431e-05
15 *5036:A *4791:A2 0.000224698
16 *815:14 *4236:B1 0.00071574
17 *815:14 *4791:A2 0.000201508
18 *815:14 *832:98 6.02273e-05
19 *815:14 *832:134 8.77073e-05
20 *815:16 *4236:B1 0.000157595
21 *4202:B2 *4237:A 0.000165068
22 *4798:B *4793:A 5.16348e-05
23 *4798:B *815:14 0.00035749
24 *4798:B *815:16 0.000149064
25 *4801:B1 *4807:A2 0.000118081
26 *4807:A3 *4807:A2 5.83121e-06
27 *4807:A4 *4807:A2 0.00022786
*RES
1 *4912:Q *815:6 2.05 
2 *815:6 *815:8 0.615 
3 *815:8 *815:14 13.475 
4 *815:14 *815:16 1.89 
5 *815:16 *4793:A 4.215 
6 *815:16 *4807:A2 5.775 
7 *815:14 *4792:A 3.6 
8 *815:8 *5036:A 3.775 
9 *815:6 *4237:A 9.02 
*END

*D_NET *816 0.00528997
*CONN
*I *4239:A I *D sky130_fd_sc_hd__and2_1
*I *4807:A1 I *D sky130_fd_sc_hd__o41a_1
*I *5046:A I *D sky130_fd_sc_hd__dlygate4sd3_1
*I *4800:A I *D sky130_fd_sc_hd__xnor2_1
*I *4913:Q O *D sky130_fd_sc_hd__dfxtp_1
*CAP
1 *4239:A 0.000627317
2 *4807:A1 1.65033e-05
3 *5046:A 0
4 *4800:A 8.19879e-05
5 *4913:Q 0.000151581
6 *816:30 0.000829414
7 *816:21 0.000234208
8 *816:8 0.000282182
9 *4239:A *4815:A1 7.5268e-06
10 *4239:A *832:98 1.34361e-05
11 *4239:A *832:134 0.000445743
12 *4239:A *845:88 0.000695022
13 *4800:A *845:88 4.20983e-05
14 *4807:A1 *961:27 4.66108e-05
15 *816:21 *845:88 5.73518e-05
16 *816:30 *845:88 0.000191806
17 *4802:B *816:21 3.25831e-05
18 *4802:B *816:30 0.000290677
19 *4807:A2 *4807:A1 2.49909e-05
20 *4807:A3 *4239:A 0.000149766
21 *4807:A3 *816:30 8.53113e-06
22 *4815:C1 *4239:A 2.61299e-05
23 *4894:CLK *4800:A 4.43871e-06
24 *4912:D *4239:A 0.000141599
25 *779:10 *4239:A 3.84331e-05
26 *779:10 *4800:A 4.20983e-05
27 *779:10 *816:21 7.18817e-05
28 *779:10 *816:30 0.000258477
29 *779:25 *816:8 5.07419e-05
30 *779:56 *4239:A 0.000398963
31 *779:65 *4239:A 2.78732e-05
*RES
1 *4913:Q *816:8 5.43 
2 *816:8 *4800:A 5.265 
3 *816:8 *816:21 1.635 
4 *816:21 *5046:A 3.6 
5 *816:21 *816:30 5.97 
6 *816:30 *4807:A1 4.05 
7 *816:30 *4239:A 19.875 
*END

*D_NET *817 0.0030224
*CONN
*I *5035:A I *D sky130_fd_sc_hd__dlygate4sd3_1
*I *4241:A I *D sky130_fd_sc_hd__and2_1
*I *4809:A I *D sky130_fd_sc_hd__and2_1
*I *4810:A I *D sky130_fd_sc_hd__nor2_1
*I *4826:A2 I *D sky130_fd_sc_hd__o21ai_1
*I *4914:Q O *D sky130_fd_sc_hd__dfxtp_1
*CAP
1 *5035:A 0.000207963
2 *4241:A 6.81791e-05
3 *4809:A 0
4 *4810:A 2.08101e-05
5 *4826:A2 0.000121214
6 *4914:Q 0
7 *817:14 0.00017075
8 *817:12 0.00018802
9 *817:8 0.000306384
10 *817:4 0.000286874
11 *4241:A *970:100 0.000257005
12 *4810:A *961:65 0
13 *4826:A2 *961:65 0.000347023
14 *817:12 *970:100 0.000487978
15 *817:14 *4810:B 4.82863e-05
16 *817:14 *961:65 0.000114024
17 *4200:B1 *4241:A 0.000105929
18 *4200:B1 *817:12 0.000199221
19 *4811:B *817:14 2.30292e-05
20 *4827:A1 *4826:A2 6.97118e-05
*RES
1 *4914:Q *817:4 1.6 
2 *817:4 *817:8 2.795 
3 *817:8 *817:12 7.715 
4 *817:12 *817:14 1.14 
5 *817:14 *4826:A2 4.81 
6 *817:14 *4810:A 1.96 
7 *817:12 *4809:A 1.6 
8 *817:8 *4241:A 6.51 
9 *817:4 *5035:A 4.735 
*END

*D_NET *818 0.00326199
*CONN
*I *4816:A I *D sky130_fd_sc_hd__xor2_1
*I *4243:A I *D sky130_fd_sc_hd__and2_1
*I *4826:A1 I *D sky130_fd_sc_hd__o21ai_1
*I *5045:A I *D sky130_fd_sc_hd__dlygate4sd3_1
*I *4915:Q O *D sky130_fd_sc_hd__dfxtp_1
*CAP
1 *4816:A 4.22612e-05
2 *4243:A 0.00064747
3 *4826:A1 0
4 *5045:A 8.22142e-05
5 *4915:Q 7.89031e-05
6 *818:23 0.000914363
7 *818:12 0.000480964
8 *818:8 0.00025302
9 *4243:A *845:12 0
10 *4243:A *845:18 0
11 *4816:A *835:27 0.0001249
12 *818:8 *4816:B 0
13 *818:8 *4819:B 4.9253e-06
14 *818:8 *835:27 2.54557e-05
15 *818:12 *4819:B 4.80085e-05
16 *818:12 *4938:A 0
17 *818:12 *845:18 0
18 *818:23 *845:18 0
19 *4827:A1 *4243:A 1.70935e-05
20 *4827:A1 *818:23 0.000121102
21 *4827:A2 *818:23 4.13171e-05
22 *4828:C *818:23 7.3664e-05
23 *4829:A *4243:A 0
24 *4829:B *4243:A 0
25 *4914:D *4243:A 9.71067e-05
26 *762:10 *5045:A 5.30673e-05
27 *762:10 *818:23 0.000156155
*RES
1 *4915:Q *818:8 3.01 
2 *818:8 *818:12 4.145 
3 *818:12 *5045:A 5.085 
4 *818:12 *818:23 6.225 
5 *818:23 *4826:A1 3.6 
6 *818:23 *4243:A 14.475 
7 *818:8 *4816:A 2.74 
*END

*D_NET *819 0.00330494
*CONN
*I *4287:A I *D sky130_fd_sc_hd__nand2_1
*I *4288:A I *D sky130_fd_sc_hd__or2_1
*I *5033:A I *D sky130_fd_sc_hd__dlygate4sd3_1
*I *4184:A1 I *D sky130_fd_sc_hd__a211o_1
*I *4888:Q O *D sky130_fd_sc_hd__dfxtp_1
*CAP
1 *4287:A 0.000113162
2 *4288:A 3.93359e-05
3 *5033:A 3.00522e-05
4 *4184:A1 0.000261207
5 *4888:Q 0
6 *819:34 0.000509944
7 *819:23 0.000534
8 *819:6 0.00040771
9 *4184:A1 *4184:A2 3.95724e-05
10 *4184:A1 *1010:52 0
11 *4287:A *974:14 1.36727e-05
12 *4287:A *1001:44 2.61115e-05
13 *4288:A *1010:22 0
14 *819:23 *1010:52 0
15 *4184:B1 *4184:A1 1.85674e-05
16 *4289:A *4287:A 0.000231791
17 *4289:A *819:34 6.30772e-05
18 *4289:B *819:34 0.000122801
19 *4293:C1 *4184:A1 0.000118527
20 *4293:C1 *819:23 9.50342e-06
21 *4310:A1 *4287:A 7.36227e-05
22 *4310:A1 *4288:A 2.61115e-05
23 *4310:A1 *819:34 0.000159503
24 *4848:CLK *4184:A1 0.000255683
25 *4848:CLK *819:23 2.23407e-05
26 *182:68 *819:23 0
27 *252:6 *4287:A 3.6355e-05
28 *274:10 *4287:A 8.64421e-05
29 *775:26 *819:23 0.000105849
*RES
1 *4888:Q *819:6 3.6 
2 *819:6 *4184:A1 9.96 
3 *819:6 *819:23 4.655 
4 *819:23 *5033:A 2.05 
5 *819:23 *819:34 5.985 
6 *819:34 *4288:A 6.215 
7 *819:34 *4287:A 8.735 
*END

*D_NET *820 0.0033963
*CONN
*I *5044:A I *D sky130_fd_sc_hd__dlygate4sd3_1
*I *4245:A I *D sky130_fd_sc_hd__and2_1
*I *4821:A I *D sky130_fd_sc_hd__nor2_1
*I *4822:A I *D sky130_fd_sc_hd__and2_1
*I *4916:Q O *D sky130_fd_sc_hd__dfxtp_1
*CAP
1 *5044:A 0
2 *4245:A 0.000313723
3 *4821:A 0
4 *4822:A 5.94875e-05
5 *4916:Q 4.30761e-05
6 *820:36 0.000529644
7 *820:16 0.000439386
8 *820:10 0.000638895
9 *4245:A *5025:A 0
10 *4245:A *5092:A 0
11 *4245:A *968:44 0
12 *4245:A *972:144 5.53249e-06
13 *4822:A *4832:B 0
14 *4822:A *961:77 4.4465e-05
15 *4822:A *961:79 4.99619e-05
16 *820:16 *4830:B 0.000187071
17 *820:16 *961:77 8.65905e-05
18 *820:16 *1009:121 0
19 *820:36 *4244:A2 2.4997e-05
20 *820:36 *4830:B 0.000126679
21 *4244:B2 *820:10 4.82919e-05
22 *4823:A *4822:A 2.75145e-05
23 *4824:A *820:16 2.97004e-06
24 *4827:B1 *4822:A 0
25 *4829:A *820:16 0
26 *4831:A1 *820:16 0.000208025
27 *4914:CLK *820:16 6.23206e-05
28 *4914:CLK *820:36 1.7396e-05
29 *163:19 *4245:A 0.000250093
30 *163:19 *820:36 0.000180988
31 *779:110 *820:36 4.91927e-05
*RES
1 *4916:Q *820:10 4.41 
2 *820:10 *820:16 10.805 
3 *820:16 *4822:A 3.1 
4 *820:16 *4821:A 1.6 
5 *820:10 *820:36 7.01 
6 *820:36 *4245:A 11.39 
7 *820:36 *5044:A 1.6 
*END

*D_NET *821 0.00443202
*CONN
*I *4832:A I *D sky130_fd_sc_hd__xnor2_1
*I *4247:A I *D sky130_fd_sc_hd__and2_1
*I *5047:A I *D sky130_fd_sc_hd__dlygate4sd3_1
*I *4917:Q O *D sky130_fd_sc_hd__dfxtp_1
*CAP
1 *4832:A 0.000589179
2 *4247:A 0.000602817
3 *5047:A 0.00032963
4 *4917:Q 0
5 *821:8 0.00097375
6 *821:4 0.000630482
7 *4247:A *972:144 0.00104419
8 *4833:B1 *4832:A 1.08758e-05
9 *4836:A2 *4832:A 9.91257e-05
10 *4917:D *4832:A 0.000151967
*RES
1 *4917:Q *821:4 1.6 
2 *821:4 *821:8 2.45 
3 *821:8 *5047:A 8.43 
4 *821:8 *4247:A 16.44 
5 *821:4 *4832:A 11.77 
*END

*D_NET *822 0.00407282
*CONN
*I *5034:A I *D sky130_fd_sc_hd__dlygate4sd3_1
*I *4307:A I *D sky130_fd_sc_hd__nand2_1
*I *4308:A I *D sky130_fd_sc_hd__or2_1
*I *4186:B2 I *D sky130_fd_sc_hd__a22o_1
*I *4889:Q O *D sky130_fd_sc_hd__dfxtp_1
*CAP
1 *5034:A 0.000261488
2 *4307:A 0
3 *4308:A 0.000299722
4 *4186:B2 0.000201161
5 *4889:Q 0
6 *822:12 0.000514589
7 *822:10 0.000291217
8 *822:4 0.000538999
9 *4186:B2 *4186:A1 0.000347441
10 *4186:B2 *4186:B1 3.46502e-05
11 *4186:B2 *5067:A 4.66108e-05
12 *4186:B2 *844:22 0.000114483
13 *4186:B2 *973:10 6.05513e-05
14 *822:10 *844:22 0.000265383
15 *822:10 *972:16 0.00027169
16 *822:12 *844:22 1.82563e-05
17 *4186:A2 *4186:B2 0
18 *4187:C1 *4186:B2 0
19 *4307:B *822:10 1.22505e-05
20 *4307:B *822:12 5.53249e-06
21 *4309:A *4308:A 3.57349e-05
22 *4335:A1 *4308:A 0.000164902
23 *4335:A2 *4308:A 4.20273e-05
24 *271:6 *4308:A 0.000122325
25 *298:10 *4308:A 3.72916e-05
26 *775:14 *4186:B2 0.000342018
27 *775:14 *822:12 4.44927e-05
*RES
1 *4889:Q *822:4 1.6 
2 *822:4 *822:10 10.205 
3 *822:10 *822:12 0.615 
4 *822:12 *4186:B2 10.59 
5 *822:12 *4308:A 9.36 
6 *822:10 *4307:A 3.6 
7 *822:4 *5034:A 5.17 
*END

*D_NET *823 0.00496047
*CONN
*I *4333:B1 I *D sky130_fd_sc_hd__a21o_1
*I *4332:A I *D sky130_fd_sc_hd__and3_1
*I *4190:A1 I *D sky130_fd_sc_hd__a211o_1
*I *4337:A0 I *D sky130_fd_sc_hd__mux2_1
*I *4890:Q O *D sky130_fd_sc_hd__dfxtp_1
*CAP
1 *4333:B1 0
2 *4332:A 6.97213e-05
3 *4190:A1 0.000293682
4 *4337:A0 0.000109929
5 *4890:Q 0
6 *823:40 0.000629852
7 *823:12 0.000557618
8 *823:4 0.000714137
9 *4190:A1 *4193:A2 2.48249e-05
10 *4190:A1 *972:10 0.000349924
11 *4190:A1 *972:99 0.000246937
12 *4337:A0 *839:93 0.000239807
13 *823:12 *839:93 0.000190633
14 *823:40 *4196:A1 0.000121938
15 *823:40 *843:116 0.000186204
16 *823:40 *972:131 2.25075e-05
17 *4190:C1 *4190:A1 0.00062196
18 *4196:B1 *4332:A 0.000140912
19 *4196:B1 *823:40 0.000357262
20 *4334:A_N *4332:A 2.97004e-06
21 *4334:A_N *823:40 1.44259e-05
22 *4337:A1 *4190:A1 0
23 *182:91 *4332:A 0
24 *182:91 *823:40 0
25 *183:18 *4190:A1 6.52265e-05
*RES
1 *4890:Q *823:4 1.6 
2 *823:4 *823:12 6.955 
3 *823:12 *4337:A0 3.775 
4 *823:12 *4190:A1 15.02 
5 *823:4 *823:40 12.62 
6 *823:40 *4332:A 5.235 
7 *823:40 *4333:B1 3.6 
*END

*D_NET *824 0.00684816
*CONN
*I *5037:A I *D sky130_fd_sc_hd__dlygate4sd3_1
*I *4366:B1 I *D sky130_fd_sc_hd__a31o_1
*I *4365:A I *D sky130_fd_sc_hd__and4_1
*I *4193:A1 I *D sky130_fd_sc_hd__a211o_1
*I *4891:Q O *D sky130_fd_sc_hd__dfxtp_1
*CAP
1 *5037:A 0.000144718
2 *4366:B1 0.000121339
3 *4365:A 0
4 *4193:A1 0.00121968
5 *4891:Q 0
6 *824:35 0.000139434
7 *824:10 0.0017533
8 *824:4 0.000660243
9 *824:10 *4371:A2 4.05256e-05
10 *4326:A2 *4193:A1 4.82863e-05
11 *4326:B1 *4193:A1 0.000163204
12 *4328:C *4193:A1 0.000123059
13 *4329:A1 *4193:A1 3.52624e-05
14 *4329:A2 *4193:A1 0.000233786
15 *4331:B1_N *4193:A1 4.58166e-05
16 *4361:A *4193:A1 0.000161623
17 *4362:B *4193:A1 5.16418e-05
18 *4364:A *4193:A1 8.15598e-05
19 *4364:A *824:10 9.33406e-05
20 *4365:B *4366:B1 9.27255e-06
21 *4366:A2 *4366:B1 0.000160641
22 *4366:A2 *824:35 8.49205e-05
23 *4369:A *824:10 0
24 *4370:B *824:10 0
25 *199:10 *4193:A1 0.000155928
26 *268:23 *4193:A1 0.000223194
27 *289:6 *4193:A1 0.000198046
28 *292:12 *4193:A1 0
29 *293:10 *4193:A1 0.000313857
30 *293:28 *4193:A1 4.82863e-05
31 *323:44 *4366:B1 3.00381e-05
32 *324:12 *4193:A1 9.30787e-05
33 *324:12 *824:10 4.38051e-05
34 *326:12 *824:10 3.86529e-05
35 *327:12 *824:10 1.73877e-05
36 *328:14 *4366:B1 3.74161e-05
37 *328:14 *824:10 0
38 *328:14 *824:35 8.49205e-05
39 *776:32 *5037:A 0.000168213
40 *776:32 *824:10 2.36716e-05
*RES
1 *4891:Q *824:4 1.6 
2 *824:4 *824:10 10.805 
3 *824:10 *4193:A1 32.275 
4 *824:10 *824:35 2.795 
5 *824:35 *4365:A 1.6 
6 *824:35 *4366:B1 4.135 
7 *824:4 *5037:A 4.735 
*END

*D_NET *825 0.00911184
*CONN
*I *5039:A I *D sky130_fd_sc_hd__dlygate4sd3_1
*I *4405:A I *D sky130_fd_sc_hd__and3_1
*I *4406:B1 I *D sky130_fd_sc_hd__a21o_1
*I *4196:A1 I *D sky130_fd_sc_hd__a211o_1
*I *4892:Q O *D sky130_fd_sc_hd__dfxtp_1
*CAP
1 *5039:A 0.000145323
2 *4405:A 0.000149028
3 *4406:B1 0
4 *4196:A1 0.00199959
5 *4892:Q 0
6 *825:25 0.000493453
7 *825:19 0.000665334
8 *825:4 0.00217517
9 *4196:A1 *4196:A2 7.3253e-05
10 *4196:A1 *836:29 0.000442507
11 *4196:A1 *839:93 6.33103e-05
12 *4196:A1 *972:131 0.000167135
13 *4196:A1 *1002:46 0.000238137
14 *4196:A1 *1009:55 9.63838e-05
15 *5039:A *4819:A 0
16 *825:25 *4244:C1 0.000202988
17 *825:25 *4834:B1 0.00015703
18 *4196:B1 *4196:A1 8.53113e-06
19 *4405:B *4405:A 4.60584e-05
20 *4405:B *825:25 4.05358e-05
21 *4406:A2 *4405:A 5.46657e-05
22 *4407:A_N *4405:A 3.26889e-05
23 *4892:D *4196:A1 2.39362e-05
24 *4917:CLK *4196:A1 2.05056e-05
25 *365:12 *4405:A 4.0106e-05
26 *366:8 *4405:A 0.000160641
27 *776:21 *4196:A1 0.000256207
28 *776:32 *4196:A1 0.00123739
29 *823:40 *4196:A1 0.000121938
*RES
1 *4892:Q *825:4 1.6 
2 *825:4 *4196:A1 34.145 
3 *825:4 *825:19 1.83 
4 *825:19 *825:25 10.99 
5 *825:25 *4406:B1 1.6 
6 *825:25 *4405:A 5.44 
7 *825:19 *5039:A 3.355 
*END

*D_NET *826 0.00386368
*CONN
*I *4198:A I *D sky130_fd_sc_hd__and2_1
*I *4451:B1 I *D sky130_fd_sc_hd__a21oi_1
*I *4450:A I *D sky130_fd_sc_hd__and3_1
*I *5029:A I *D sky130_fd_sc_hd__dlygate4sd3_1
*I *4893:Q O *D sky130_fd_sc_hd__dfxtp_1
*CAP
1 *4198:A 0.000319085
2 *4451:B1 0
3 *4450:A 0.000232009
4 *5029:A 0
5 *4893:Q 0
6 *826:27 0.000515607
7 *826:12 0.000422243
8 *826:6 0.00045773
9 *4198:A *4198:B 0.000164874
10 *4198:A *4935:A 0
11 *4198:A *4959:A 7.60965e-05
12 *4198:A *849:12 6.00003e-05
13 *4198:A *970:19 1.34503e-05
14 *4198:A *971:39 4.16353e-05
15 *826:12 *4935:A 0
16 *826:12 *845:26 8.8266e-05
17 *826:12 *849:12 0.000142727
18 *826:27 *4935:A 0.000181383
19 *826:27 *4940:A 0.000204529
20 *826:27 *845:26 3.66286e-05
21 *826:27 *849:12 0
22 *826:27 *849:16 0.000413102
23 *4450:C *4450:A 2.78536e-05
24 *4451:A1 *4450:A 1.33293e-05
25 *4451:A2 *4450:A 6.50826e-05
26 *4456:C1 *826:12 8.65961e-05
27 *4456:C1 *826:27 4.82863e-05
28 *409:6 *4450:A 6.59822e-05
29 *410:10 *4450:A 2.65506e-05
30 *410:10 *826:27 0.00016063
31 *410:26 *4450:A 0
*RES
1 *4893:Q *826:6 3.6 
2 *826:6 *826:12 5.705 
3 *826:12 *5029:A 1.6 
4 *826:12 *826:27 12.415 
5 *826:27 *4450:A 5.29 
6 *826:27 *4451:B1 1.6 
7 *826:6 *4198:A 9.915 
*END

*D_NET *827 0.00396782
*CONN
*I *4201:A I *D sky130_fd_sc_hd__and2_1
*I *4502:A0 I *D sky130_fd_sc_hd__mux2_1
*I *4498:A I *D sky130_fd_sc_hd__or2_1
*I *4497:A I *D sky130_fd_sc_hd__and2_1
*I *4894:Q O *D sky130_fd_sc_hd__dfxtp_1
*CAP
1 *4201:A 6.45697e-05
2 *4502:A0 0
3 *4498:A 0
4 *4497:A 0.000190434
5 *4894:Q 0.000163691
6 *827:22 0.00097493
7 *827:14 0.000960889
8 *827:8 0.000404653
9 *4201:A *4236:B1 0
10 *4201:A *970:33 0.000113797
11 *4497:A *838:122 1.7386e-05
12 *827:8 *970:33 0.000201508
13 *827:14 *4236:B1 0
14 *827:14 *4502:S 0.000130846
15 *827:14 *968:103 0
16 *827:14 *970:33 3.09164e-05
17 *827:22 *838:122 0.000173281
18 *827:22 *966:100 0
19 *827:22 *968:103 0
20 *4498:B *4497:A 0.00020511
21 *4499:B *827:22 0
22 *4502:A1 *827:14 0.000115837
23 *4502:A1 *827:22 0.000118288
24 *4504:A2 *827:22 0
25 *4504:B1 *4497:A 1.91597e-05
26 *4544:A2 *827:22 0
27 *455:8 *4497:A 3.25635e-05
28 *457:10 *4497:A 0
29 *457:10 *827:22 4.99619e-05
*RES
1 *4894:Q *827:8 5.775 
2 *827:8 *827:14 5.96 
3 *827:14 *827:22 18.13 
4 *827:22 *4497:A 9.275 
5 *827:22 *4498:A 1.6 
6 *827:14 *4502:A0 1.6 
7 *827:8 *4201:A 4.98 
*END

*D_NET *828 0.00310786
*CONN
*I *4203:A I *D sky130_fd_sc_hd__and2_1
*I *5030:A I *D sky130_fd_sc_hd__dlygate4sd3_1
*I *4539:A I *D sky130_fd_sc_hd__nand2_1
*I *4541:A I *D sky130_fd_sc_hd__nor2_1
*I *4895:Q O *D sky130_fd_sc_hd__dfxtp_1
*CAP
1 *4203:A 0.000317332
2 *5030:A 0.000314065
3 *4539:A 7.00153e-05
4 *4541:A 0
5 *4895:Q 0
6 *828:30 0.000780751
7 *828:12 0.000444499
8 *828:4 0.000523836
9 *4203:A *1012:51 0.000227697
10 *5030:A *4736:B1_N 4.82919e-05
11 *5030:A *4995:A 0
12 *5030:A *1012:15 5.64226e-05
13 *5030:A *1012:23 3.05238e-05
14 *828:12 *1012:23 7.70938e-05
15 *828:30 *1012:51 4.80182e-05
16 *4541:B *4539:A 4.78882e-05
17 *4895:D *828:30 2.20732e-05
18 *497:19 *4539:A 6.97202e-05
19 *497:19 *828:12 2.96334e-05
*RES
1 *4895:Q *828:4 1.6 
2 *828:4 *828:12 10.225 
3 *828:12 *4541:A 1.6 
4 *828:12 *4539:A 3.46 
5 *828:4 *828:30 1.83 
6 *828:30 *5030:A 10.745 
7 *828:30 *4203:A 6.115 
*END

*D_NET *829 0.00138551
*CONN
*I *4939:A I *D sky130_fd_sc_hd__clkbuf_2
*I *4837:Q O *D sky130_fd_sc_hd__dfxtp_1
*CAP
1 *4939:A 0.000453572
2 *4837:Q 0.000453572
3 *4939:A *4191:C1 6.97024e-05
4 *4939:A *839:81 0.000133528
5 *4939:A *1009:16 2.10791e-05
6 *4939:A *1009:42 0.000119866
7 *4191:B1 *4939:A 6.88421e-05
8 *4837:CLK *4939:A 6.5354e-05
*RES
1 *4837:Q *4939:A 13.77 
*END

*D_NET *830 0.00125061
*CONN
*I *4172:B I *D sky130_fd_sc_hd__or3b_2
*I *4149:B I *D sky130_fd_sc_hd__or4b_1
*I *4154:B I *D sky130_fd_sc_hd__nor4_1
*I *5048:X O *D sky130_fd_sc_hd__buf_1
*CAP
1 *4172:B 5.76965e-05
2 *4149:B 0
3 *4154:B 3.06019e-05
4 *5048:X 0.000182213
5 *830:25 0.000221581
6 *830:10 0.0003767
7 *830:10 *4154:A 5.2089e-05
8 *830:10 *925:23 0
9 *830:25 *4149:C 2.76781e-05
10 *5048:A *830:10 5.78448e-05
11 *5059:A *830:10 0
12 *164:14 *4172:B 7.23533e-05
13 *169:26 *4172:B 8.52637e-05
14 *169:26 *830:25 8.65905e-05
*RES
1 *5048:X *830:10 9.02 
2 *830:10 *4154:B 2.05 
3 *830:10 *830:25 2.565 
4 *830:25 *4149:B 1.6 
5 *830:25 *4172:B 6.92 
*END

*D_NET *831 0.00236816
*CONN
*I *4174:B I *D sky130_fd_sc_hd__and2b_4
*I *4148:B I *D sky130_fd_sc_hd__and3_1
*I *4249:A I *D sky130_fd_sc_hd__and3_4
*I *4175:B I *D sky130_fd_sc_hd__nand2b_4
*I *4155:A I *D sky130_fd_sc_hd__and3_4
*I *5049:X O *D sky130_fd_sc_hd__clkbuf_2
*CAP
1 *4174:B 2.42846e-05
2 *4148:B 0
3 *4249:A 2.4587e-05
4 *4175:B 0
5 *4155:A 0
6 *5049:X 7.5483e-05
7 *831:33 0.000205149
8 *831:18 0.000342244
9 *831:14 0.00031646
10 *831:8 0.000254546
11 *4174:B *924:8 2.75229e-05
12 *4249:A *4249:B 0.000164874
13 *831:14 *842:6 1.54061e-06
14 *831:14 *842:17 1.0124e-05
15 *831:18 *4148:C 0.00012458
16 *831:18 *842:17 4.63627e-06
17 *831:33 *4148:C 1.61831e-05
18 *831:33 *4161:A 8.97642e-05
19 *831:33 *4249:B 0.000190633
20 *831:33 *924:26 4.66108e-05
21 *831:33 *924:32 0.000163019
22 *5058:A *831:14 0
23 *164:8 *831:18 4.99619e-05
24 *164:14 *831:8 5.72091e-05
25 *164:14 *831:14 5.21714e-05
26 *182:10 *4249:A 0.00012657
*RES
1 *5049:X *831:8 5.235 
2 *831:8 *831:14 4.43 
3 *831:14 *831:18 3.225 
4 *831:18 *4155:A 1.6 
5 *831:18 *831:33 8.515 
6 *831:33 *4175:B 1.6 
7 *831:33 *4249:A 3.085 
8 *831:14 *4148:B 1.6 
9 *831:8 *4174:B 4.05 
*END

*D_NET *832 0.0156661
*CONN
*I *4814:A I *D sky130_fd_sc_hd__nand2_1
*I *4815:A1 I *D sky130_fd_sc_hd__o211a_1
*I *4791:A2 I *D sky130_fd_sc_hd__a211oi_1
*I *4799:A1 I *D sky130_fd_sc_hd__o211a_1
*I *4798:A I *D sky130_fd_sc_hd__nand2_1
*I *4803:A I *D sky130_fd_sc_hd__nor2_1
*I *4804:A2 I *D sky130_fd_sc_hd__a211oi_1
*I *4502:S I *D sky130_fd_sc_hd__mux2_1
*I *4455:B1_N I *D sky130_fd_sc_hd__a21bo_1
*I *4456:A1 I *D sky130_fd_sc_hd__o211a_1
*I *4935:X O *D sky130_fd_sc_hd__buf_2
*CAP
1 *4814:A 0
2 *4815:A1 0.000876458
3 *4791:A2 0.000545351
4 *4799:A1 0
5 *4798:A 0
6 *4803:A 0
7 *4804:A2 9.73191e-06
8 *4502:S 0.000812555
9 *4455:B1_N 0
10 *4456:A1 0.00016343
11 *4935:X 0
12 *832:134 0.00115864
13 *832:102 0.000564163
14 *832:98 0.000351999
15 *832:89 0.000862614
16 *832:63 9.73191e-06
17 *832:61 0.00125443
18 *832:29 0.00103924
19 *832:23 0.000960982
20 *832:4 0.000454906
21 *4456:A1 *4456:A2 7.47608e-05
22 *4456:A1 *845:26 0.000161529
23 *4456:A1 *849:12 0.000137578
24 *4502:S *4236:B1 9.78647e-05
25 *4791:A2 *4799:A2 0.000228171
26 *4791:A2 *845:88 1.12578e-05
27 *4791:A2 *845:103 0.000141606
28 *4815:A1 *4815:A2 3.18915e-05
29 *4815:A1 *4815:B1 1.83756e-05
30 *832:23 *4935:A 0.000111892
31 *832:61 *4804:C1 0
32 *832:61 *4940:A 0
33 *832:61 *971:39 2.66586e-05
34 *832:89 *4236:B1 9.56302e-05
35 *832:89 *4804:C1 0
36 *832:89 *845:88 0.000754304
37 *832:89 *970:27 0.000308909
38 *832:98 *845:88 0.000132096
39 *832:102 *845:88 4.82919e-05
40 *832:134 *4236:B1 0
41 *4202:B2 *4791:A2 0
42 *4239:A *4815:A1 7.5268e-06
43 *4239:A *832:98 1.34361e-05
44 *4239:A *832:134 0.000445743
45 *4455:A1 *4502:S 7.69787e-05
46 *4455:A1 *832:29 5.73739e-05
47 *4455:A2 *832:29 4.9253e-06
48 *4456:C1 *4456:A1 8.65905e-05
49 *4456:C1 *832:29 3.76596e-05
50 *4456:C1 *832:61 8.34505e-05
51 *4502:A1 *4502:S 0.000160635
52 *4503:B *4502:S 1.16578e-05
53 *4798:B *832:89 0.000470005
54 *4798:B *832:98 5.53249e-06
55 *4801:B1 *832:89 0.00015625
56 *4804:A1 *4804:A2 4.82863e-05
57 *4804:B1 *4804:A2 4.82863e-05
58 *4804:B1 *832:61 0.000163199
59 *4815:C1 *4815:A1 0.0010068
60 *4894:CLK *4502:S 9.4087e-05
61 *4894:D *4502:S 7.70553e-06
62 *4912:D *832:134 0.000154304
63 *4913:D *832:61 0.000162325
64 *5036:A *4791:A2 0.000224698
65 *772:16 *832:29 9.54399e-05
66 *772:38 *832:23 0.000102178
67 *772:94 *832:23 1.56428e-05
68 *815:14 *4791:A2 0.000201508
69 *815:14 *832:98 6.02273e-05
70 *815:14 *832:134 8.77073e-05
71 *827:14 *4502:S 0.000130846
*RES
1 *4935:X *832:4 1.6 
2 *832:4 *4456:A1 9.77 
3 *832:4 *832:23 6.59 
4 *832:23 *832:29 5.72 
5 *832:29 *4455:B1_N 1.6 
6 *832:29 *4502:S 17.78 
7 *832:23 *832:61 12.355 
8 *832:61 *832:63 2 
9 *832:63 *4804:A2 2.05 
10 *832:63 *4803:A 1.6 
11 *832:61 *832:89 21.94 
12 *832:89 *4798:A 3.6 
13 *832:89 *832:98 1.89 
14 *832:98 *832:102 2.45 
15 *832:102 *4799:A1 1.6 
16 *832:102 *4791:A2 16.01 
17 *832:98 *832:134 9.26 
18 *832:134 *4815:A1 14.35 
19 *832:134 *4814:A 1.6 
*END

*D_NET *833 0.0111554
*CONN
*I *4750:A1 I *D sky130_fd_sc_hd__o211a_1
*I *4744:A I *D sky130_fd_sc_hd__nand2_1
*I *4745:A1 I *D sky130_fd_sc_hd__o211a_1
*I *4749:A I *D sky130_fd_sc_hd__nand2_1
*I *4760:A1 I *D sky130_fd_sc_hd__o211a_1
*I *4759:B1_N I *D sky130_fd_sc_hd__a21bo_1
*I *4786:A1 I *D sky130_fd_sc_hd__o211a_1
*I *4738:A1 I *D sky130_fd_sc_hd__o211a_1
*I *4736:B1_N I *D sky130_fd_sc_hd__a21boi_1
*I *4785:B1_N I *D sky130_fd_sc_hd__a21bo_1
*I *4936:X O *D sky130_fd_sc_hd__buf_2
*CAP
1 *4750:A1 1.04051e-05
2 *4744:A 0
3 *4745:A1 0.000277251
4 *4749:A 0
5 *4760:A1 3.38389e-05
6 *4759:B1_N 6.02813e-05
7 *4786:A1 0
8 *4738:A1 0
9 *4736:B1_N 0.000370483
10 *4785:B1_N 0
11 *4936:X 8.27229e-05
12 *833:95 0.000770569
13 *833:87 0.000660657
14 *833:74 0.000715488
15 *833:59 0.000876182
16 *833:46 0.0013495
17 *833:19 0.000735704
18 *833:17 0.00066096
19 *833:13 0.00138158
20 *833:6 0.000163134
21 *4745:A1 *4745:B1 0
22 *833:17 *4786:B1 5.53249e-06
23 *833:17 *962:21 0
24 *833:17 *971:39 1.03833e-05
25 *833:19 *4786:B1 0.000136406
26 *833:19 *845:49 0.000235067
27 *833:46 *971:39 2.59926e-05
28 *833:74 *4750:B1 4.18603e-06
29 *833:74 *4760:A2 0
30 *4219:A *833:95 0
31 *4223:A *833:95 0
32 *4734:A *4736:B1_N 0.000235585
33 *4734:A *833:19 9.50342e-06
34 *4738:C1 *4736:B1_N 0.000145184
35 *4744:B *4745:A1 6.55328e-05
36 *4744:B *833:95 5.53249e-06
37 *4745:A2 *4745:A1 9.53428e-06
38 *4745:C1 *4745:A1 0
39 *4748:B *833:74 0
40 *4749:B *833:87 0
41 *4750:C1 *833:87 7.22613e-05
42 *4757:A *833:46 4.60584e-05
43 *4757:B *833:46 0.000124007
44 *4759:A1 *4759:B1_N 0
45 *4760:C1 *4759:B1_N 0
46 *4782:A1 *833:46 8.65905e-05
47 *4784:A *833:6 0.000124007
48 *4784:A *833:13 0.000113237
49 *4784:A *833:46 0.000188957
50 *4786:C1 *833:17 0
51 *4903:D *833:19 3.68682e-05
52 *4905:D *833:95 0.000151967
53 *4906:D *4760:A1 4.00541e-06
54 *4906:D *833:74 5.83121e-06
55 *5030:A *4736:B1_N 4.82919e-05
56 *698:8 *833:46 8.79923e-05
57 *698:25 *833:46 5.21706e-05
58 *704:12 *833:59 8.40213e-05
59 *725:6 *833:46 0.000542783
60 *725:14 *833:46 4.82919e-05
61 *777:70 *4750:A1 0
62 *777:70 *833:87 0
63 *777:70 *833:95 5.12947e-05
64 *777:76 *833:87 9.83662e-06
65 *777:76 *833:95 4.21757e-05
66 *777:78 *4745:A1 0
67 *777:78 *833:74 0
68 *777:78 *833:95 0
69 *777:102 *833:74 0
70 *777:117 *833:74 0
71 *780:12 *833:17 0
72 *805:16 *833:19 1.97804e-05
73 *806:29 *4745:A1 2.30292e-05
74 *806:37 *4745:A1 0.000154782
75 *813:25 *833:17 0
76 *813:25 *833:19 0
*RES
1 *4936:X *833:6 2.74 
2 *833:6 *4785:B1_N 1.6 
3 *833:6 *833:13 1.14 
4 *833:13 *833:17 6.695 
5 *833:17 *833:19 8.265 
6 *833:19 *4736:B1_N 11.34 
7 *833:19 *4738:A1 3.6 
8 *833:17 *4786:A1 3.6 
9 *833:13 *833:46 13.56 
10 *833:46 *4759:B1_N 6.47 
11 *833:46 *833:59 3.21 
12 *833:59 *4760:A1 2.215 
13 *833:59 *833:74 12.13 
14 *833:74 *4749:A 1.6 
15 *833:74 *833:87 2.91 
16 *833:87 *833:95 9.245 
17 *833:95 *4745:A1 8.97 
18 *833:95 *4744:A 3.6 
19 *833:87 *4750:A1 1.96 
*END

*D_NET *834 0.00649524
*CONN
*I *4778:A2 I *D sky130_fd_sc_hd__a211oi_1
*I *4777:A I *D sky130_fd_sc_hd__nor2_1
*I *4772:A I *D sky130_fd_sc_hd__nand2_1
*I *4773:A1 I *D sky130_fd_sc_hd__o211a_1
*I *4765:A1 I *D sky130_fd_sc_hd__o211a_1
*I *4763:B1_N I *D sky130_fd_sc_hd__a21boi_1
*I *4937:X O *D sky130_fd_sc_hd__dlymetal6s2s_1
*CAP
1 *4778:A2 7.19644e-05
2 *4777:A 0.00036673
3 *4772:A 0
4 *4773:A1 4.53354e-05
5 *4765:A1 0.000168738
6 *4763:B1_N 0.000120096
7 *4937:X 0
8 *834:60 0.00058236
9 *834:18 0.000668044
10 *834:16 0.000591703
11 *834:12 0.00113794
12 *834:4 0.00111445
13 *4778:A2 *1002:12 1.71013e-05
14 *834:12 *4773:B1 3.24046e-05
15 *834:12 *847:12 4.39001e-05
16 *4231:B *4778:A2 3.89812e-05
17 *4231:B *834:60 0.000108693
18 *4762:A1 *4763:B1_N 0
19 *4765:A2 *4765:A1 9.53428e-06
20 *4765:C1 *4763:B1_N 0
21 *4765:C1 *4765:A1 8.65961e-05
22 *4770:B2 *4763:B1_N 0
23 *4770:B2 *834:18 0
24 *4778:B1 *4778:A2 0
25 *4909:D *4778:A2 0
26 *4909:D *834:60 0
27 *4911:CLK *4777:A 0.000134011
28 *780:47 *834:60 0
29 *780:49 *4777:A 1.34503e-05
30 *780:73 *4777:A 0.000111302
31 *780:89 *834:12 0.000467962
32 *780:101 *4763:B1_N 0
33 *780:101 *4765:A1 0.000382287
34 *780:101 *4773:A1 0
35 *780:101 *834:12 0
36 *780:101 *834:18 0
37 *810:6 *4765:A1 1.61831e-05
38 *810:12 *4765:A1 0.000165471
*RES
1 *4937:X *834:4 1.6 
2 *834:4 *834:12 17.81 
3 *834:12 *834:16 1.7175 
4 *834:16 *834:18 6.0975 
5 *834:18 *4763:B1_N 5.49 
6 *834:18 *4765:A1 8.895 
7 *834:16 *4773:A1 4.2825 
8 *834:12 *4772:A 3.6 
9 *834:4 *834:60 5.0375 
10 *834:60 *4777:A 9.2625 
11 *834:60 *4778:A2 5.1075 
*END

*D_NET *835 0.0159405
*CONN
*I *4790:A I *D sky130_fd_sc_hd__nor2_1
*I *4937:A I *D sky130_fd_sc_hd__dlymetal6s2s_1
*I *4936:A I *D sky130_fd_sc_hd__buf_2
*I *4935:A I *D sky130_fd_sc_hd__buf_2
*I *4819:A I *D sky130_fd_sc_hd__nor2_1
*I *4938:X O *D sky130_fd_sc_hd__dlymetal6s2s_1
*CAP
1 *4790:A 0.000665258
2 *4937:A 0.000197918
3 *4936:A 0.000150908
4 *4935:A 0.000474936
5 *4819:A 0.000353196
6 *4938:X 6.80614e-05
7 *835:77 0.00174482
8 *835:54 0.00199072
9 *835:27 0.00205657
10 *835:10 0.00104473
11 *4790:A *1002:22 0.000212031
12 *4819:A *4819:B 0.000463981
13 *4819:A *836:29 0.000107405
14 *4935:A *4940:A 0.000928396
15 *4935:A *849:12 0
16 *4936:A *971:39 2.75145e-05
17 *4936:A *1002:28 7.17811e-05
18 *835:10 *4938:A 4.70343e-05
19 *835:27 *4816:B 0.000344454
20 *835:27 *4819:B 0.000187281
21 *835:27 *961:35 0.000347917
22 *835:54 *836:46 0.000152088
23 *835:54 *961:35 0.00076095
24 *835:77 *4795:B1 4.66108e-05
25 *835:77 *962:34 0.000313857
26 *835:77 *962:75 7.4538e-05
27 *4198:A *4935:A 0
28 *4778:B1 *4790:A 9.54399e-05
29 *4784:A *4936:A 4.66108e-05
30 *4789:B *835:77 0
31 *4790:B *4790:A 5.59676e-05
32 *4795:A1 *835:54 0.000308713
33 *4796:B1 *835:77 2.75229e-05
34 *4798:B *835:54 4.66108e-05
35 *4801:A1 *835:54 0.000373657
36 *4801:A2 *835:54 4.21973e-05
37 *4816:A *835:27 0.0001249
38 *4909:D *4790:A 0
39 *5039:A *4819:A 0
40 *183:53 *835:54 0.000323717
41 *183:53 *835:77 1.33285e-05
42 *722:10 *4936:A 1.70935e-05
43 *722:25 *4936:A 7.44453e-05
44 *726:21 *835:77 0
45 *735:23 *835:54 0.000229536
46 *745:24 *835:77 0.000202095
47 *772:38 *4935:A 0.000198046
48 *772:94 *835:54 0.000218118
49 *780:47 *4790:A 6.44307e-05
50 *780:47 *835:77 0
51 *813:25 *4936:A 0.000284976
52 *813:38 *4936:A 4.14369e-05
53 *818:8 *835:27 2.54557e-05
54 *826:12 *4935:A 0
55 *826:27 *4935:A 0.000181383
56 *832:23 *4935:A 0.000111892
*RES
1 *4938:X *835:10 6.98 
2 *835:10 *4819:A 6.91 
3 *835:10 *835:27 10.575 
4 *835:27 *4935:A 18.245 
5 *835:27 *835:54 20.385 
6 *835:54 *4936:A 9.98 
7 *835:54 *835:77 18.71 
8 *835:77 *4937:A 6.465 
9 *835:77 *4790:A 14.37 
*END

*D_NET *836 0.0248378
*CONN
*I *4995:A I *D sky130_fd_sc_hd__buf_2
*I *4996:A I *D sky130_fd_sc_hd__dlymetal6s2s_1
*I *4544:B1 I *D sky130_fd_sc_hd__o21ai_1
*I *4938:A I *D sky130_fd_sc_hd__dlymetal6s2s_1
*I *4994:A I *D sky130_fd_sc_hd__buf_2
*I *4939:X O *D sky130_fd_sc_hd__clkbuf_2
*CAP
1 *4995:A 0.00102787
2 *4996:A 0
3 *4544:B1 8.56967e-05
4 *4938:A 8.08872e-05
5 *4994:A 0.000421368
6 *4939:X 9.73191e-06
7 *836:65 0.00140977
8 *836:46 0.00409314
9 *836:29 0.00734465
10 *836:8 0.00406932
11 *4544:B1 *838:122 3.00381e-05
12 *4938:A *4819:B 4.80085e-05
13 *4994:A *839:81 9.67927e-05
14 *4994:A *844:22 0
15 *4994:A *972:16 0.000136884
16 *4995:A *4203:B 0
17 *4995:A *4588:A1 0
18 *4995:A *4620:B1 0
19 *4995:A *966:100 0.000186204
20 *4995:A *1011:36 0
21 *836:29 *4191:A1 8.41703e-06
22 *836:29 *839:81 7.49579e-05
23 *836:29 *843:116 0.000126598
24 *836:29 *844:12 0
25 *836:29 *844:22 0
26 *836:29 *844:52 0.000211618
27 *836:29 *1002:54 0.00136089
28 *836:29 *1009:42 0.000116089
29 *836:29 *1009:55 0.000212546
30 *836:46 *4545:B1 0.000232646
31 *836:46 *837:85 0.00017768
32 *836:46 *961:35 0.000152088
33 *836:46 *968:103 0
34 *836:65 *4545:A1 0.000393024
35 *836:65 *966:100 7.64878e-05
36 *4191:B1 *836:8 4.82863e-05
37 *4196:A1 *836:29 0.000442507
38 *4540:A *4544:B1 1.71013e-05
39 *4542:B1 *836:65 1.85674e-05
40 *4544:A1 *836:65 1.08758e-05
41 *4545:C1 *4544:B1 0.000115464
42 *4545:C1 *836:46 9.50342e-06
43 *4621:C1 *4995:A 9.44105e-05
44 *4795:A1 *836:46 5.05716e-06
45 *4819:A *836:29 0.000107405
46 *4889:D *4994:A 7.71334e-05
47 *4895:CLK *4995:A 0.000474429
48 *4895:D *4544:B1 0
49 *4896:CLK *4995:A 5.4256e-05
50 *4897:CLK *4995:A 0
51 *4953:A *836:46 0
52 *5030:A *4995:A 0
53 *183:18 *836:8 4.82863e-05
54 *183:28 *836:29 0
55 *183:28 *836:46 0
56 *183:53 *836:46 0.000158606
57 *498:14 *836:46 1.1561e-05
58 *498:14 *836:65 4.41506e-05
59 *499:30 *4544:B1 0.00018471
60 *499:30 *836:46 4.21314e-05
61 *573:10 *4995:A 7.63204e-05
62 *671:51 *836:46 0
63 *776:21 *836:29 0.000141496
64 *776:32 *836:29 0.000272983
65 *813:25 *836:46 0
66 *818:12 *4938:A 0
67 *835:10 *4938:A 4.70343e-05
68 *835:54 *836:46 0.000152088
*RES
1 *4939:X *836:8 4.05 
2 *836:8 *4994:A 10.1625 
3 *836:8 *836:29 11.0624 
4 *836:29 *4938:A 5.8625 
5 *836:29 *836:46 27.719 
6 *836:46 *4544:B1 6.195 
7 *836:46 *836:65 9.035 
8 *836:65 *4996:A 1.6 
9 *836:65 *4995:A 26.675 
*END

*D_NET *837 0.0240229
*CONN
*I *4238:A2 I *D sky130_fd_sc_hd__o221a_1
*I *4228:A2 I *D sky130_fd_sc_hd__o221a_1
*I *4226:A2 I *D sky130_fd_sc_hd__o221a_1
*I *4220:A2 I *D sky130_fd_sc_hd__o221a_1
*I *4224:A2 I *D sky130_fd_sc_hd__o221a_1
*I *4202:A2 I *D sky130_fd_sc_hd__o221a_1
*I *4236:A2 I *D sky130_fd_sc_hd__o221a_1
*I *4240:A2 I *D sky130_fd_sc_hd__o221a_1
*I *4200:A2 I *D sky130_fd_sc_hd__o221a_1
*I *4242:A2 I *D sky130_fd_sc_hd__o221a_1
*I *4940:X O *D sky130_fd_sc_hd__clkbuf_4
*CAP
1 *4238:A2 3.44888e-05
2 *4228:A2 0.000238455
3 *4226:A2 0
4 *4220:A2 0.000344904
5 *4224:A2 9.23059e-05
6 *4202:A2 0.000119638
7 *4236:A2 2.87989e-05
8 *4240:A2 0.000256926
9 *4200:A2 0.000361158
10 *4242:A2 0.000108434
11 *4940:X 0
12 *837:93 0.000821478
13 *837:91 0.000603308
14 *837:89 0.00358797
15 *837:85 0.00428654
16 *837:73 0.00153545
17 *837:58 0.000696402
18 *837:45 0.000823723
19 *837:28 0.00102409
20 *837:4 0.000673692
21 *4200:A2 *968:61 3.93375e-05
22 *4200:A2 *968:70 0.000491513
23 *4202:A2 *4202:A1 8.33066e-06
24 *4202:A2 *5019:A 2.4002e-05
25 *4202:A2 *967:22 0.000111315
26 *4220:A2 *4220:A1 4.21973e-05
27 *4220:A2 *4220:B1 0.000379192
28 *4220:A2 *4224:B1 0.000187008
29 *4224:A2 *4224:B1 8.97564e-05
30 *4228:A2 *4228:B1 0.000391475
31 *4240:A2 *4240:A1 8.3877e-05
32 *4240:A2 *4240:C1 0
33 *4240:A2 *4940:A 0
34 *4240:A2 *5088:A 2.55603e-05
35 *4240:A2 *970:108 3.21634e-05
36 *4240:A2 *970:125 5.83121e-06
37 *4242:A2 *4940:A 7.22565e-05
38 *837:45 *848:44 0.000570124
39 *837:58 *848:44 0.000341432
40 *837:73 *4949:A 9.83921e-06
41 *837:73 *848:44 0.000145479
42 *837:85 *4957:A 0
43 *837:85 *968:103 0
44 *837:85 *1002:22 0
45 *837:85 *1002:28 1.52184e-05
46 *837:89 *4234:A1 4.13628e-05
47 *837:89 *4751:B 0.000122331
48 *837:89 *963:23 0.000883286
49 *837:89 *1002:28 8.49205e-05
50 *837:91 *4226:B1 1.14361e-05
51 *837:91 *4228:B1 0.00016466
52 *837:93 *4220:A1 6.55406e-05
53 *837:93 *4224:B1 1.07797e-05
54 *837:93 *4226:B1 2.97004e-06
55 *837:93 *4226:C1 0
56 rdata[20] *837:93 0
57 *4202:B2 *4202:A2 2.21697e-05
58 *4236:B2 *4236:A2 5.0096e-05
59 *4238:B2 *837:73 0.000156618
60 *4242:B2 *4242:A2 0.000222641
61 *4783:A2 *837:89 0.00011199
62 *4783:B1 *837:89 2.45351e-05
63 *4789:A *837:85 4.38051e-05
64 *4791:A1 *837:85 0.000320834
65 *4791:B1 *837:85 0.000164059
66 *4795:A1 *837:85 0
67 *4805:B *837:85 0.000809791
68 *4806:B1 *837:89 0.000385327
69 *4867:CLK *4228:A2 3.47837e-05
70 *4867:CLK *837:91 2.24336e-05
71 *4867:D *4228:A2 0.0001249
72 *4867:D *837:91 0
73 *4873:D *4240:A2 5.20968e-05
74 *183:69 *837:89 0.00116744
75 *671:47 *837:89 4.07899e-05
76 *814:8 *837:85 0
77 *814:10 *837:85 0
78 *814:12 *837:85 0
79 *814:62 *837:85 0
80 *836:46 *837:85 0.00017768
*RES
1 *4940:X *837:4 1.6 
2 *837:4 *4242:A2 8.255 
3 *837:4 *4200:A2 7.945 
4 *837:4 *837:28 2.175 
5 *837:28 *4240:A2 9.92 
6 *837:28 *837:45 7.35 
7 *837:45 *4236:A2 6.215 
8 *837:45 *837:58 3.21 
9 *837:58 *4202:A2 8.255 
10 *837:58 *837:73 6.59 
11 *837:73 *837:85 25.49 
12 *837:85 *837:89 41.78 
13 *837:89 *837:91 4.95 
14 *837:91 *837:93 6.48 
15 *837:93 *4224:A2 5.49 
16 *837:93 *4220:A2 9.93 
17 *837:91 *4226:A2 3.6 
18 *837:89 *4228:A2 8.985 
19 *837:73 *4238:A2 4.215 
*END

*D_NET *838 0.0276455
*CONN
*I *4222:A2 I *D sky130_fd_sc_hd__o221a_1
*I *4940:A I *D sky130_fd_sc_hd__clkbuf_4
*I *4204:A2 I *D sky130_fd_sc_hd__o221a_1
*I *4218:A2 I *D sky130_fd_sc_hd__o221a_1
*I *4216:A2 I *D sky130_fd_sc_hd__o221a_1
*I *4206:A2 I *D sky130_fd_sc_hd__o221a_1
*I *4214:A2 I *D sky130_fd_sc_hd__o221a_1
*I *4212:A2 I *D sky130_fd_sc_hd__o221a_1
*I *4210:A2 I *D sky130_fd_sc_hd__o221a_1
*I *4208:A2 I *D sky130_fd_sc_hd__o221a_1
*I *4941:X O *D sky130_fd_sc_hd__clkbuf_4
*CAP
1 *4222:A2 0.000281407
2 *4940:A 0.00207619
3 *4204:A2 0
4 *4218:A2 0
5 *4216:A2 7.66281e-05
6 *4206:A2 0
7 *4214:A2 0
8 *4212:A2 0.000212074
9 *4210:A2 0.000138193
10 *4208:A2 0.000342824
11 *4941:X 0
12 *838:122 0.00359018
13 *838:118 0.00383234
14 *838:103 0.00302034
15 *838:97 0.00104806
16 *838:88 0.000257944
17 *838:75 0.000363317
18 *838:66 0.00020152
19 *838:57 0.000329858
20 *838:42 0.00047965
21 *838:8 0.00053676
22 *838:4 0.000101576
23 *4208:A2 *4208:B1 4.87317e-05
24 *4208:A2 *4956:A 0.000418988
25 *4208:A2 *849:55 0
26 *4210:A2 *4209:B 6.44307e-05
27 *4210:A2 *971:91 1.22676e-05
28 *4212:A2 *4210:B1 2.78732e-05
29 *4216:A2 *4216:A1 1.08758e-05
30 *4216:A2 *4216:B1 5.83121e-06
31 *4222:A2 *4222:A1 0
32 *4222:A2 *4222:B1 0.000144336
33 *4222:A2 *966:80 0.000110315
34 *4940:A *4239:B 0
35 *4940:A *4804:C1 0
36 *4940:A *849:12 0
37 *4940:A *849:16 0.0003835
38 *4940:A *968:80 7.21296e-06
39 *838:8 *4956:A 0.000242064
40 *838:42 *4212:B1 4.80285e-05
41 *838:42 *4956:A 4.60584e-05
42 *838:57 *4210:B1 2.42236e-05
43 *838:57 *966:23 0.000203501
44 *838:57 *966:40 0.000178504
45 *838:57 *966:49 5.53249e-06
46 *838:66 *966:49 0.00019907
47 *838:66 *966:58 5.53249e-06
48 *838:75 *966:58 0.000177495
49 *838:88 *4218:A1 6.74079e-05
50 *838:88 *966:58 3.57846e-05
51 *838:88 *966:71 0.000283344
52 *838:88 *966:80 1.70935e-05
53 *838:97 *966:80 5.92191e-05
54 *838:103 *960:10 9.76295e-06
55 *838:118 *4203:B 4.82919e-05
56 *838:118 *4204:C1 0.000238137
57 *838:118 *4726:B 4.82919e-05
58 *838:118 *846:62 0.000467962
59 *838:118 *1012:51 0.000110607
60 *4204:B2 *838:103 3.26889e-05
61 *4204:B2 *838:118 0.000416732
62 *4211:A *4208:A2 2.30292e-05
63 *4212:B2 *4212:A2 0.000390466
64 *4212:B2 *838:8 8.26971e-05
65 *4212:B2 *838:42 0.000198939
66 *4222:B2 *4222:A2 6.55328e-05
67 *4240:A2 *4940:A 0
68 *4240:B2 *4940:A 0
69 *4242:A2 *4940:A 7.22565e-05
70 *4242:B2 *4940:A 0.000132092
71 *4455:A2 *4940:A 0.000120186
72 *4456:C1 *4940:A 0.000123798
73 *4497:A *838:122 1.7386e-05
74 *4500:A1 *4940:A 2.46007e-05
75 *4544:A2 *838:118 0
76 *4544:A2 *838:122 5.85354e-05
77 *4544:B1 *838:122 3.00381e-05
78 *4730:A *838:118 0.000129499
79 *4730:B *838:118 2.0514e-05
80 *4732:A1 *838:118 0.000194694
81 *4812:A *4940:A 0.000164686
82 *4813:A *4940:A 0
83 *4813:B *4940:A 0.000257005
84 *4814:B *4940:A 0
85 *4825:B1 *4940:A 5.71917e-05
86 *4855:CLK *838:103 1.88636e-05
87 *4855:D *838:103 3.23274e-05
88 *4857:CLK *4208:A2 0.000102067
89 *4859:D *4212:A2 0.0001249
90 *4862:CLK *838:75 8.87475e-05
91 *4862:CLK *838:88 0.000221534
92 *4864:D *4222:A2 0.000128827
93 *4873:D *4940:A 3.89528e-05
94 *4895:D *838:118 0.000659778
95 *4935:A *4940:A 0.000928396
96 *4941:A *4208:A2 0.000628973
97 *4941:A *838:8 7.44125e-05
98 *498:14 *838:122 5.36384e-06
99 *681:6 *838:118 8.65905e-05
100 *747:8 *4940:A 0
101 *750:10 *4940:A 0.000141592
102 *772:16 *4940:A 0
103 *778:71 *4212:A2 2.59981e-05
104 *778:71 *838:57 0.000291475
105 *778:80 *838:57 0.00011562
106 *778:80 *838:66 9.16315e-05
107 *778:91 *838:66 0.00011562
108 *778:91 *838:75 9.428e-05
109 *826:27 *4940:A 0.000204529
110 *827:22 *838:122 0.000173281
111 *832:61 *4940:A 0
*RES
1 *4941:X *838:4 1.6 
2 *838:4 *838:8 2.535 
3 *838:8 *4208:A2 15.215 
4 *838:8 *4210:A2 8 
5 *838:4 *838:42 3.83 
6 *838:42 *4212:A2 8.475 
7 *838:42 *838:57 8.265 
8 *838:57 *4214:A2 3.6 
9 *838:57 *838:66 4.185 
10 *838:66 *4206:A2 3.6 
11 *838:66 *838:75 3.675 
12 *838:75 *4216:A2 4.755 
13 *838:75 *838:88 6.735 
14 *838:88 *4218:A2 3.6 
15 *838:88 *838:97 1.38 
16 *838:97 *838:103 10.22 
17 *838:103 *4204:A2 1.6 
18 *838:103 *838:118 34.2225 
19 *838:118 *838:122 19.5275 
20 *838:122 *4940:A 49.35 
21 *838:97 *4222:A2 10.785 
*END

*D_NET *839 0.0238707
*CONN
*I *4191:A2 I *D sky130_fd_sc_hd__o211a_1
*I *4248:A2 I *D sky130_fd_sc_hd__o221a_1
*I *4244:A2 I *D sky130_fd_sc_hd__o221a_1
*I *4246:A2 I *D sky130_fd_sc_hd__o221a_1
*I *4197:A2 I *D sky130_fd_sc_hd__o211a_1
*I *4194:A2 I *D sky130_fd_sc_hd__o211a_1
*I *4188:A2 I *D sky130_fd_sc_hd__o211a_1
*I *4185:A2 I *D sky130_fd_sc_hd__o211a_1
*I *4182:A2 I *D sky130_fd_sc_hd__o211a_1
*I *4179:A2 I *D sky130_fd_sc_hd__o211a_1
*I *4942:X O *D sky130_fd_sc_hd__clkbuf_4
*CAP
1 *4191:A2 0
2 *4248:A2 6.42354e-05
3 *4244:A2 0.000928339
4 *4246:A2 2.51513e-05
5 *4197:A2 0
6 *4194:A2 2.85538e-05
7 *4188:A2 0
8 *4185:A2 0
9 *4182:A2 0
10 *4179:A2 0.000265852
11 *4942:X 0
12 *839:114 0.00195159
13 *839:110 0.0016531
14 *839:93 0.00129221
15 *839:81 0.0011215
16 *839:62 0.00125424
17 *839:49 0.00118387
18 *839:40 0.00124179
19 *839:23 0.00109765
20 *839:6 0.000499963
21 *4179:A2 *4161:A 0
22 *4179:A2 *4179:A1 4.99619e-05
23 *4179:A2 *841:37 0
24 *4244:A2 *4246:A1 7.60965e-05
25 *4244:A2 *4830:B 0.000245199
26 *4244:A2 *5025:A 9.4087e-05
27 *4244:A2 *968:44 0.000160576
28 *4248:A2 *4248:A1 5.59592e-05
29 *4248:A2 *4248:B1 1.85674e-05
30 *839:23 *4182:A1 9.50342e-06
31 *839:23 *841:22 4.18603e-06
32 *839:23 *841:37 0
33 *839:40 *4161:A 0.000542888
34 *839:40 *4185:A1 9.50342e-06
35 *839:40 *4185:C1 5.53249e-06
36 *839:40 *4998:A 0.00011852
37 *839:40 *1010:52 0
38 *839:49 *4185:A1 0.000109009
39 *839:49 *4185:C1 0.000201711
40 *839:49 *4188:A1 9.50342e-06
41 *839:49 *4293:A1 0.000143266
42 *839:49 *843:50 0.000179925
43 *839:62 *4172:A 5.16418e-05
44 *839:62 *4188:A1 0.000309657
45 *839:62 *4194:A1 9.28568e-05
46 *839:62 *5001:A 0.000160125
47 *839:62 *5096:A 0.000539443
48 *839:81 *4312:A 5.16348e-05
49 *839:81 *843:28 0.000209179
50 *839:81 *972:16 9.58544e-05
51 *839:81 *1009:16 0.000262958
52 *839:93 *4191:A1 0.000160641
53 *839:93 *4337:S 0
54 *839:93 *1009:42 0.000983999
55 *839:93 *1009:55 0.0004713
56 *839:110 *972:131 5.22921e-05
57 *839:114 *4246:C1 0.000829052
58 *839:114 *4248:A1 0.00049463
59 *839:114 *968:23 2.7441e-05
60 *839:114 *968:44 5.30673e-05
61 *4179:B1 *4179:A2 0.000109364
62 *4182:B1 *839:40 3.26889e-05
63 *4188:B1 *839:49 5.53249e-06
64 *4188:B1 *839:62 8.08439e-05
65 *4191:B1 *839:81 5.27941e-05
66 *4194:B1 *4194:A2 3.13354e-05
67 *4194:B1 *839:81 8.51879e-05
68 *4196:A1 *839:93 6.33103e-05
69 *4197:B1 *839:93 0.00015938
70 *4244:B2 *4244:A2 0.000332137
71 *4312:B *839:81 0.000297754
72 *4337:A0 *839:93 0.000239807
73 *4337:A1 *839:93 8.65961e-05
74 *4338:B *839:93 5.34747e-05
75 *4831:A1 *4244:A2 0.000122155
76 *4831:B1 *4244:A2 3.99879e-05
77 *4846:D *4179:A2 5.20968e-05
78 *4847:D *839:40 0.0001486
79 *4848:CLK *839:40 0
80 *4848:D *839:40 0
81 *4852:D *839:110 5.42473e-05
82 *4888:D *839:49 9.54399e-05
83 *4916:D *4244:A2 4.66108e-05
84 *4939:A *839:81 0.000133528
85 *4994:A *839:81 9.67927e-05
86 *164:14 *839:40 0
87 *164:14 *839:49 0
88 *164:14 *839:62 0
89 *169:26 *839:62 0.00072761
90 *179:10 *839:62 0
91 *180:12 *839:62 0
92 *199:10 *839:93 0
93 *199:10 *839:110 0
94 *773:53 *4179:A2 0
95 *773:53 *839:23 0
96 *775:22 *839:62 0
97 *775:26 *839:62 0
98 *775:59 *839:81 0
99 *775:89 *839:93 1.91597e-05
100 *776:71 *839:110 0.000925826
101 *779:110 *4244:A2 0
102 *820:36 *4244:A2 2.4997e-05
103 *823:12 *839:93 0.000190633
104 *836:29 *839:81 7.49579e-05
*RES
1 *4942:X *839:6 3.6 
2 *839:6 *4179:A2 8.94 
3 *839:6 *839:23 5.93 
4 *839:23 *4182:A2 1.6 
5 *839:23 *839:40 17.87 
6 *839:40 *4185:A2 3.6 
7 *839:40 *839:49 10.05 
8 *839:49 *4188:A2 3.6 
9 *839:49 *839:62 21.23 
10 *839:62 *4194:A2 2.215 
11 *839:62 *839:81 15.745 
12 *839:81 *839:93 22.07 
13 *839:93 *4197:A2 3.6 
14 *839:93 *839:110 15.785 
15 *839:110 *839:114 19.26 
16 *839:114 *4246:A2 1.96 
17 *839:114 *4244:A2 21.98 
18 *839:110 *4248:A2 3.1 
19 *839:81 *4191:A2 1.6 
*END

*D_NET *840 0.0130397
*CONN
*I *4255:A I *D sky130_fd_sc_hd__and2_1
*I *4261:A I *D sky130_fd_sc_hd__and2_1
*I *4167:A I *D sky130_fd_sc_hd__and2_1
*I *4259:A I *D sky130_fd_sc_hd__and2_1
*I *4171:A I *D sky130_fd_sc_hd__and2_1
*I *4263:A I *D sky130_fd_sc_hd__and2_1
*I *4265:A I *D sky130_fd_sc_hd__and2_1
*I *4165:A I *D sky130_fd_sc_hd__and2_1
*I *4163:A I *D sky130_fd_sc_hd__and2_1
*I *4257:A I *D sky130_fd_sc_hd__and2_1
*I *4943:X O *D sky130_fd_sc_hd__clkbuf_2
*CAP
1 *4255:A 0.000103276
2 *4261:A 0.000231213
3 *4167:A 4.91586e-05
4 *4259:A 0.00078019
5 *4171:A 3.64111e-05
6 *4263:A 0.000315528
7 *4265:A 0
8 *4165:A 8.63102e-05
9 *4163:A 0
10 *4257:A 0.00046935
11 *4943:X 0.000147928
12 *840:61 0.000868786
13 *840:57 0.000957681
14 *840:55 0.00130291
15 *840:53 0.000366081
16 *840:51 0.00142898
17 *840:34 0.00174624
18 *840:14 0.000625757
19 *840:12 0.00101087
20 *840:10 0.000481295
21 *4165:A *895:20 2.49909e-05
22 *4167:A *1000:37 8.65905e-05
23 *4261:A *978:10 6.45236e-05
24 *4261:A *978:20 0.000178321
25 *4261:A *999:29 9.66021e-05
26 *4263:A *4262:A0 8.46818e-05
27 *4263:A *975:12 2.88357e-05
28 *4263:A *975:31 0.000230568
29 *840:10 *4943:A 5.07419e-05
30 *840:53 *975:105 0
31 *840:53 *978:20 3.09164e-05
32 *840:55 *975:105 0
33 *840:57 *975:105 0
34 *840:61 *975:12 0
35 *840:61 *975:105 0
36 *4163:B *4257:A 0.000140905
37 *4163:B *840:14 9.50342e-06
38 *4167:B *4167:A 1.62913e-05
39 *4171:B *4171:A 8.65905e-05
40 *4255:B *840:10 6.11019e-05
41 *4255:B *840:12 1.70935e-05
42 *4261:B *4261:A 0
43 *4265:B *4263:A 5.69075e-05
44 *4843:CLK *4261:A 2.4997e-05
45 *4843:CLK *840:53 0.00011562
46 *4845:D *840:57 0
47 *4880:D *4255:A 5.83121e-06
48 *4881:CLK *4257:A 0
49 *4881:CLK *840:12 0
50 *4881:CLK *840:14 0
51 *4882:D *4259:A 0.000151967
52 *4967:A *840:53 0
53 *170:27 *4165:A 0
54 *170:40 *4165:A 2.49909e-05
55 *773:14 *840:10 0
56 *773:14 *840:12 0
57 *774:89 *4259:A 4.43682e-05
58 *774:100 *4259:A 0.000246957
59 *774:100 *840:55 0
60 *774:100 *840:57 0
61 *774:104 *840:57 0
62 *774:104 *840:61 0
63 *784:19 *4165:A 0.00011099
64 *793:21 *4259:A 4.07937e-05
*RES
1 *4943:X *840:10 6.375 
2 *840:10 *840:12 3.675 
3 *840:12 *840:14 2.655 
4 *840:14 *4257:A 11.865 
5 *840:14 *4163:A 3.6 
6 *840:12 *840:34 8.66 
7 *840:34 *4165:A 7.43 
8 *840:34 *840:51 13.145 
9 *840:51 *840:53 3.165 
10 *840:53 *840:55 2.4 
11 *840:55 *840:57 5.715 
12 *840:57 *840:61 10.265 
13 *840:61 *4265:A 1.6 
14 *840:61 *4263:A 8.38 
15 *840:57 *4171:A 4.395 
16 *840:55 *4259:A 13.635 
17 *840:53 *4167:A 4.755 
18 *840:51 *4261:A 8.505 
19 *840:10 *4255:A 5.085 
*END

*D_NET *841 0.017543
*CONN
*I *4278:B1 I *D sky130_fd_sc_hd__o211a_1
*I *4179:C1 I *D sky130_fd_sc_hd__o211a_1
*I *4157:A I *D sky130_fd_sc_hd__and2_1
*I *4169:A I *D sky130_fd_sc_hd__and2_1
*I *4253:A I *D sky130_fd_sc_hd__and2_1
*I *4269:A I *D sky130_fd_sc_hd__and3_1
*I *4159:A I *D sky130_fd_sc_hd__and2_1
*I *4251:A I *D sky130_fd_sc_hd__and2_1
*I *4943:A I *D sky130_fd_sc_hd__clkbuf_2
*I *4182:C1 I *D sky130_fd_sc_hd__o211a_1
*I *4944:X O *D sky130_fd_sc_hd__buf_2
*CAP
1 *4278:B1 0
2 *4179:C1 3.37585e-05
3 *4157:A 0
4 *4169:A 0.00146874
5 *4253:A 3.55506e-05
6 *4269:A 0.000475782
7 *4159:A 0
8 *4251:A 3.58421e-05
9 *4943:A 0.000394667
10 *4182:C1 0
11 *4944:X 0.000394395
12 *841:101 0.00166654
13 *841:77 0.000764816
14 *841:69 0.000962167
15 *841:60 0.000640602
16 *841:43 0.000802335
17 *841:39 0.000396596
18 *841:37 0.000490944
19 *841:22 0.000566716
20 *841:18 0.00058673
21 *4169:A *4192:B2 0.000343499
22 *4169:A *975:105 0.000861879
23 *4169:A *984:27 0.000130209
24 *4269:A *4178:A1 0
25 *4269:A *4975:A 0
26 *4269:A *1010:80 1.03833e-05
27 *4943:A *4160:A1 0.000122465
28 *4943:A *4161:A 0
29 *4943:A *4254:A1 0.000113237
30 *4943:A *863:6 8.8266e-05
31 *4943:A *1004:10 9.54469e-05
32 *841:18 *4278:A2 4.38051e-05
33 *841:18 *972:51 1.94805e-05
34 *841:18 *1010:61 0.000123225
35 *841:18 *1010:80 0.000305031
36 *841:22 *4182:A1 0
37 *841:22 *4278:A2 9.50342e-06
38 *841:22 *972:51 0.000147049
39 *841:37 *972:51 8.53113e-06
40 *841:37 *986:48 0.000303941
41 *841:77 *4158:A1 5.47804e-05
42 *841:77 *4252:A1 6.63219e-05
43 *841:77 *4975:A 0.00048487
44 *841:77 *990:10 7.47215e-05
45 *841:77 *1004:43 9.62187e-05
46 *4179:A2 *841:37 0
47 *4179:B1 *841:37 0.000115326
48 *4179:B1 *841:39 4.18603e-06
49 *4182:B1 *841:37 4.82919e-05
50 *4253:B *4169:A 2.75145e-05
51 *4269:B *4269:A 7.09305e-05
52 *4554:B1 *4169:A 0
53 *4839:CLK *4269:A 0.000160658
54 *4839:D *4269:A 7.00889e-06
55 *4840:CLK *4943:A 6.0011e-05
56 *4840:CLK *841:60 4.17521e-05
57 *4840:CLK *841:69 4.24744e-05
58 *4878:D *841:69 9.64021e-05
59 *4879:D *4169:A 0.000149404
60 *4886:CLK *4269:A 0.00035208
61 *4887:CLK *841:22 0
62 *4966:A *4169:A 0.00013687
63 *170:12 *4943:A 0.000137578
64 *170:12 *841:43 0.000152194
65 *170:55 *4169:A 5.7344e-05
66 *170:59 *4169:A 0.000393829
67 *180:44 *841:18 6.88421e-05
68 *224:10 *841:77 0.000297723
69 *773:12 *841:39 0.000156842
70 *773:14 *4943:A 0
71 *773:14 *841:39 9.50342e-06
72 *773:14 *841:43 0.000780264
73 *773:47 *841:37 0.000163019
74 *773:47 *841:39 2.14129e-05
75 *774:40 *4169:A 7.44911e-05
76 *774:42 *4169:A 2.59926e-05
77 *774:42 *841:69 5.21706e-05
78 *774:42 *841:101 9.51192e-05
79 *774:44 *841:69 9.5043e-05
80 *781:39 *4269:A 9.66021e-05
81 *781:39 *841:77 4.66826e-05
82 *788:8 *4169:A 0.000184866
83 *808:34 *841:18 4.66108e-05
84 *839:23 *841:22 4.18603e-06
85 *839:23 *841:37 0
86 *840:10 *4943:A 5.07419e-05
*RES
1 *4944:X *841:18 13.435 
2 *841:18 *841:22 6.185 
3 *841:22 *4182:C1 1.6 
4 *841:22 *841:37 11.615 
5 *841:37 *841:39 2.145 
6 *841:39 *841:43 11.03 
7 *841:43 *4943:A 14.12 
8 *841:43 *841:60 1.14 
9 *841:60 *4251:A 2.215 
10 *841:60 *841:69 6.315 
11 *841:69 *841:77 13.825 
12 *841:77 *4159:A 1.6 
13 *841:77 *4269:A 15.74 
14 *841:69 *841:101 2.175 
15 *841:101 *4253:A 2.215 
16 *841:101 *4169:A 37.28 
17 *841:39 *4157:A 3.6 
18 *841:37 *4179:C1 4.05 
19 *841:18 *4278:B1 3.6 
*END

*D_NET *842 0.00430482
*CONN
*I *4156:A1 I *D sky130_fd_sc_hd__mux2_1
*I *4250:A1 I *D sky130_fd_sc_hd__mux2_1
*I *4148:A I *D sky130_fd_sc_hd__and3_1
*I *5050:X O *D sky130_fd_sc_hd__buf_1
*CAP
1 *4156:A1 0.000106473
2 *4250:A1 0.000361733
3 *4148:A 2.08101e-05
4 *5050:X 4.01899e-05
5 *842:17 0.00132303
6 *842:6 0.000915821
7 *4156:A1 *4155:C 0.000162325
8 *4250:A1 *986:48 0
9 *4250:A1 *1004:27 4.89295e-05
10 *842:17 *4148:C 0.000371175
11 *842:17 *4155:C 0.000115146
12 *4158:S *4156:A1 3.13354e-05
13 *170:6 *842:17 8.65905e-05
14 *170:98 *4156:A1 9.49111e-05
15 *170:98 *842:17 0.000521245
16 *182:10 *4156:A1 4.10367e-05
17 *224:10 *4156:A1 4.77757e-05
18 *831:14 *842:6 1.54061e-06
19 *831:14 *842:17 1.0124e-05
20 *831:18 *842:17 4.63627e-06
*RES
1 *5050:X *842:6 2.05 
2 *842:6 *4148:A 1.96 
3 *842:6 *842:17 13.835 
4 *842:17 *4250:A1 9 
5 *842:17 *4156:A1 6.81 
*END

*D_NET *843 0.018371
*CONN
*I *4338:A I *D sky130_fd_sc_hd__and2_1
*I *4246:C1 I *D sky130_fd_sc_hd__o221a_1
*I *4248:C1 I *D sky130_fd_sc_hd__o221a_1
*I *4197:C1 I *D sky130_fd_sc_hd__o211a_1
*I *4191:C1 I *D sky130_fd_sc_hd__o211a_1
*I *4313:B1 I *D sky130_fd_sc_hd__o211a_1
*I *4194:C1 I *D sky130_fd_sc_hd__o211a_1
*I *4188:C1 I *D sky130_fd_sc_hd__o211a_1
*I *4293:B1 I *D sky130_fd_sc_hd__o211a_1
*I *4185:C1 I *D sky130_fd_sc_hd__o211a_1
*I *4945:X O *D sky130_fd_sc_hd__buf_2
*CAP
1 *4338:A 0
2 *4246:C1 0.000231295
3 *4248:C1 0
4 *4197:C1 0
5 *4191:C1 5.17656e-05
6 *4313:B1 8.44724e-05
7 *4194:C1 2.2266e-05
8 *4188:C1 0
9 *4293:B1 0.000114556
10 *4185:C1 0.000141057
11 *4945:X 0
12 *843:131 0.000992912
13 *843:116 0.00133629
14 *843:108 0.000690356
15 *843:50 0.000415949
16 *843:42 0.00108828
17 *843:28 0.00134248
18 *843:16 0.000813941
19 *843:10 0.00104951
20 *843:4 0.000776228
21 *4185:C1 *4293:A1 5.4003e-05
22 *4185:C1 *4293:A2 5.23362e-05
23 *4191:C1 *1009:42 5.83121e-06
24 *4246:C1 *4248:A1 0.000237243
25 *4246:C1 *968:23 0.00161619
26 *4293:B1 *4293:A1 5.83121e-06
27 *4313:B1 *4313:A1 1.52352e-05
28 *4313:B1 *4313:A2 3.7837e-05
29 *843:10 *4945:A 2.75145e-05
30 *843:10 *5095:A 1.4399e-05
31 *843:16 *1010:22 0
32 *843:16 *1010:114 3.45117e-05
33 *843:42 *972:16 0
34 *843:42 *1010:22 0.000382024
35 *843:50 *4293:A1 8.59365e-05
36 *843:50 *4293:A2 0.000245893
37 *843:131 *4197:A1 0.000239807
38 *843:131 *5028:A 0.000233925
39 *843:131 *5097:A 0.00082399
40 *843:131 *968:10 3.09233e-05
41 *4185:B1 *4185:C1 4.99619e-05
42 *4188:B1 *843:50 8.53113e-06
43 *4194:B1 *4194:C1 4.82919e-05
44 *4248:B2 *843:131 3.26822e-05
45 *4313:C1 *4313:B1 1.75875e-05
46 *4837:CLK *4191:C1 4.66108e-05
47 *4848:CLK *4185:C1 0.000201719
48 *4850:D *843:10 5.01066e-05
49 *4889:D *4313:B1 2.65814e-06
50 *4889:D *843:16 2.01259e-05
51 *4890:CLK *843:10 2.10673e-05
52 *4890:CLK *843:108 0.000245488
53 *4890:CLK *843:116 0.000146484
54 *4890:D *843:116 0.000151967
55 *4939:A *4191:C1 6.97024e-05
56 *4986:A *843:42 8.61546e-05
57 *5068:A *843:42 0.000347691
58 *180:12 *843:42 0
59 *180:22 *843:42 0.000160651
60 *182:68 *843:42 0
61 *182:80 *843:42 0.000385816
62 *183:18 *843:16 2.98726e-05
63 *199:10 *843:131 0
64 *775:26 *843:50 0.000213147
65 *775:59 *843:16 0.000208484
66 *775:59 *843:28 9.54399e-05
67 *775:59 *843:42 0
68 *775:70 *843:10 2.92496e-05
69 *775:70 *843:16 0.000366116
70 *775:89 *4191:C1 0.000149438
71 *775:89 *843:10 0.000108073
72 *776:56 *843:131 4.49498e-05
73 *823:40 *843:116 0.000186204
74 *836:29 *843:116 0.000126598
75 *839:40 *4185:C1 5.53249e-06
76 *839:49 *4185:C1 0.000201711
77 *839:49 *843:50 0.000179925
78 *839:81 *843:28 0.000209179
79 *839:114 *4246:C1 0.000829052
*RES
1 *4945:X *843:4 1.6 
2 *843:4 *843:10 10.04 
3 *843:10 *843:16 9.53 
4 *843:16 *843:28 12.21 
5 *843:28 *843:42 24.585 
6 *843:42 *843:50 8.015 
7 *843:50 *4185:C1 8.745 
8 *843:50 *4293:B1 5.01 
9 *843:42 *4188:C1 1.6 
10 *843:28 *4194:C1 4.05 
11 *843:16 *4313:B1 3.1 
12 *843:10 *4191:C1 5.43 
13 *843:4 *843:108 2.79 
14 *843:108 *843:116 11.28 
15 *843:116 *4197:C1 1.6 
16 *843:116 *843:131 21.385 
17 *843:131 *4248:C1 1.6 
18 *843:131 *4246:C1 16.195 
19 *843:108 *4338:A 1.6 
*END

*D_NET *844 0.027967
*CONN
*I *4945:A I *D sky130_fd_sc_hd__buf_2
*I *4371:B1 I *D sky130_fd_sc_hd__o211a_1
*I *4244:C1 I *D sky130_fd_sc_hd__o221a_1
*I *4411:B1 I *D sky130_fd_sc_hd__o211a_1
*I *4161:A I *D sky130_fd_sc_hd__and2_1
*I *4944:A I *D sky130_fd_sc_hd__buf_2
*I *4946:X O *D sky130_fd_sc_hd__buf_2
*CAP
1 *4945:A 1.17533e-05
2 *4371:B1 0
3 *4244:C1 0.00127473
4 *4411:B1 0
5 *4161:A 0.00217893
6 *4944:A 0
7 *4946:X 0.00020953
8 *844:64 0.00159583
9 *844:52 0.00196524
10 *844:22 0.00402651
11 *844:12 0.00367363
12 *844:10 0.000403201
13 *4161:A *924:32 2.96297e-05
14 *4161:A *1004:10 0
15 *4161:A *1010:52 0
16 *4244:C1 *4411:A2 0.000500609
17 *4244:C1 *4820:A1 5.63701e-05
18 *4244:C1 *4831:C1 0.000298442
19 *4244:C1 *4834:B1 0.000214472
20 *4244:C1 *968:44 0.000524997
21 *4244:C1 *1002:46 0.000423626
22 *4244:C1 *1009:80 4.71606e-05
23 *4244:C1 *1009:121 0
24 *844:10 *4191:A1 0
25 *844:12 *4191:A1 0
26 *844:22 *4313:A2 0.000118527
27 *844:22 *972:16 0
28 *844:22 *972:32 0
29 *844:22 *987:64 0
30 *844:22 *989:39 0
31 *844:22 *1001:44 4.70064e-05
32 *844:22 *1004:43 0
33 *844:22 *1004:49 0
34 *844:22 *1004:84 0
35 *844:22 *1005:48 0.000187424
36 *844:22 *1005:93 0
37 *844:52 *1009:42 0.000735203
38 *844:52 *1009:55 0.00169349
39 *844:64 *4371:A2 0.000104599
40 *844:64 *1002:54 0.00144073
41 *844:64 *1009:55 5.53249e-06
42 *844:64 *1009:65 1.54176e-05
43 *844:64 *1009:100 4.55864e-06
44 *4161:B *4161:A 8.65905e-05
45 *4179:A2 *4161:A 0
46 *4186:B2 *844:22 0.000114483
47 *4190:B1 *844:22 0
48 *4244:B2 *4244:C1 0
49 *4307:B *844:22 1.92979e-05
50 *4311:B *844:22 0.000154618
51 *4338:B *844:12 0
52 *4370:B *844:52 2.99518e-06
53 *4370:B *844:64 6.63219e-06
54 *4833:A2 *4244:C1 9.54399e-05
55 *4834:A1 *4244:C1 2.54606e-05
56 *4840:D *4161:A 0
57 *4846:D *4161:A 0
58 *4887:CLK *4161:A 0.000256154
59 *4887:D *4161:A 3.54025e-05
60 *4890:CLK *4945:A 4.82863e-05
61 *4891:D *844:52 7.06865e-05
62 *4915:CLK *4244:C1 0
63 *4916:D *4244:C1 0.000162318
64 *4943:A *4161:A 0
65 *4994:A *844:22 0
66 *164:14 *4161:A 0
67 *181:12 *4161:A 0
68 *182:53 *4161:A 0.000155444
69 *183:28 *844:64 0.00139333
70 *237:12 *844:22 0
71 *244:12 *844:22 0
72 *245:27 *844:22 3.96088e-05
73 *246:10 *844:22 0.000114369
74 *247:10 *844:22 0
75 *248:12 *844:22 0.000272491
76 *274:10 *844:22 0.000793015
77 *759:10 *4244:C1 5.4256e-05
78 *764:12 *4244:C1 9.54399e-05
79 *773:53 *4161:A 0.000237692
80 *776:21 *844:52 4.21973e-05
81 *808:21 *4161:A 4.57249e-05
82 *808:34 *4161:A 3.98155e-05
83 *808:34 *844:22 0.00045967
84 *822:10 *844:22 0.000265383
85 *822:12 *844:22 1.82563e-05
86 *825:25 *4244:C1 0.000202988
87 *831:33 *4161:A 8.97642e-05
88 *836:29 *844:12 0
89 *836:29 *844:22 0
90 *836:29 *844:52 0.000211618
91 *839:40 *4161:A 0.000542888
92 *843:10 *4945:A 2.75145e-05
*RES
1 *4946:X *844:10 6.375 
2 *844:10 *844:12 2.655 
3 *844:12 *844:22 42.11 
4 *844:22 *4944:A 1.6 
5 *844:22 *4161:A 43.385 
6 *844:12 *844:52 27.82 
7 *844:52 *844:64 5.6006 
8 *844:64 *4411:B1 1.6 
9 *844:64 *4244:C1 36.65 
10 *844:52 *4371:B1 3.6 
11 *844:10 *4945:A 4.05 
*END

*D_NET *845 0.0223467
*CONN
*I *4200:C1 I *D sky130_fd_sc_hd__o221a_1
*I *4815:B1 I *D sky130_fd_sc_hd__o211a_1
*I *4456:B1 I *D sky130_fd_sc_hd__o211a_1
*I *4202:C1 I *D sky130_fd_sc_hd__o221a_1
*I *4236:C1 I *D sky130_fd_sc_hd__o221a_1
*I *4799:B1 I *D sky130_fd_sc_hd__o211a_1
*I *4786:B1 I *D sky130_fd_sc_hd__o211a_1
*I *4738:B1 I *D sky130_fd_sc_hd__o211a_1
*I *4545:B1 I *D sky130_fd_sc_hd__o211a_1
*I *4503:A I *D sky130_fd_sc_hd__and2_1
*I *4947:X O *D sky130_fd_sc_hd__buf_2
*CAP
1 *4200:C1 8.76727e-05
2 *4815:B1 1.3091e-05
3 *4456:B1 0
4 *4202:C1 0.000190444
5 *4236:C1 0
6 *4799:B1 1.85694e-05
7 *4786:B1 8.82789e-05
8 *4738:B1 2.51513e-05
9 *4545:B1 0.000658429
10 *4503:A 0.000200401
11 *4947:X 0.000389199
12 *845:103 0.000724889
13 *845:88 0.00130071
14 *845:49 0.00084736
15 *845:43 0.00143715
16 *845:28 0.00153333
17 *845:26 0.00179088
18 *845:18 0.00200575
19 *845:12 0.00151152
20 *845:10 0.000864897
21 *4200:C1 *4200:A1 4.77807e-05
22 *4200:C1 *968:70 4.89395e-05
23 *4202:C1 *4236:A1 4.77807e-05
24 *4202:C1 *4957:A 0.000111836
25 *4202:C1 *848:44 0.000212511
26 *4202:C1 *967:10 5.31158e-06
27 *4202:C1 *967:22 0.00013104
28 *4503:A *4236:B1 0
29 *4545:B1 *4545:A2 0.000140905
30 *4799:B1 *4799:A2 9.53428e-06
31 *4815:B1 *4815:A2 4.82863e-05
32 *845:10 *4947:A 0.000215974
33 *845:18 *849:12 0
34 *845:26 *849:12 0
35 *845:28 *4236:B1 0
36 *845:88 *4236:B1 0
37 *845:88 *4799:A2 2.75145e-05
38 *845:103 *4236:B1 0.000501033
39 *845:103 *4799:A2 6.33103e-05
40 *4200:B1 *4200:C1 9.12494e-06
41 *4200:B1 *845:12 0.000713579
42 *4200:B1 *845:18 0.00137375
43 *4202:B2 *4202:C1 0.000109489
44 *4202:B2 *845:43 2.66586e-05
45 *4202:B2 *845:103 0
46 *4237:A *845:103 0
47 *4239:A *845:88 0.000695022
48 *4243:A *845:12 0
49 *4243:A *845:18 0
50 *4455:A1 *4503:A 0
51 *4456:A1 *845:26 0.000161529
52 *4456:C1 *845:26 0.000160418
53 *4786:C1 *4786:B1 5.53249e-06
54 *4791:A2 *845:88 1.12578e-05
55 *4791:A2 *845:103 0.000141606
56 *4799:C1 *845:103 3.09233e-05
57 *4800:A *845:88 4.20983e-05
58 *4801:B1 *845:88 0.000154273
59 *4802:B *845:88 0.000312097
60 *4815:A1 *4815:B1 1.83756e-05
61 *4827:A1 *845:18 0
62 *4853:D *845:10 5.14473e-05
63 *4893:D *845:18 0
64 *4894:CLK *4503:A 0
65 *4894:CLK *845:28 0
66 *4894:CLK *845:88 0
67 *4894:D *4503:A 6.73665e-05
68 *4903:CLK *4786:B1 8.09021e-06
69 *4903:CLK *845:49 5.00612e-05
70 *4910:CLK *845:43 2.75145e-05
71 *4910:D *4786:B1 8.97486e-05
72 *4912:D *845:88 2.65814e-06
73 *4914:D *845:12 0
74 *4960:A *845:18 1.22505e-05
75 *459:20 *4503:A 1.22676e-05
76 *498:14 *4545:B1 3.09164e-05
77 *762:10 *845:18 0
78 *772:94 *845:43 0.000461941
79 *779:102 *845:10 3.0933e-05
80 *780:12 *4786:B1 2.24992e-05
81 *805:16 *845:49 9.54399e-05
82 *805:42 *845:49 0.000199953
83 *816:21 *845:88 5.73518e-05
84 *816:30 *845:88 0.000191806
85 *818:12 *845:18 0
86 *818:23 *845:18 0
87 *826:12 *845:26 8.8266e-05
88 *826:27 *845:26 3.66286e-05
89 *832:89 *845:88 0.000754304
90 *832:98 *845:88 0.000132096
91 *832:102 *845:88 4.82919e-05
92 *833:17 *4786:B1 5.53249e-06
93 *833:19 *4786:B1 0.000136406
94 *833:19 *845:49 0.000235067
95 *836:46 *4545:B1 0.000232646
*RES
1 *4947:X *845:10 9.06 
2 *845:10 *845:12 8.775 
3 *845:12 *845:18 22.095 
4 *845:18 *845:26 17.14 
5 *845:26 *845:28 2.4 
6 *845:28 *4503:A 7.275 
7 *845:28 *845:43 17.905 
8 *845:43 *845:49 7.31 
9 *845:49 *4545:B1 17.615 
10 *845:49 *4738:B1 1.96 
11 *845:43 *4786:B1 6.51 
12 *845:26 *845:88 22.505 
13 *845:88 *4799:B1 1.96 
14 *845:88 *845:103 15.955 
15 *845:103 *4236:C1 1.6 
16 *845:103 *4202:C1 10.91 
17 *845:18 *4456:B1 3.6 
18 *845:12 *4815:B1 4.05 
19 *845:10 *4200:C1 5.46 
*END

*D_NET *846 0.0123035
*CONN
*I *4226:C1 I *D sky130_fd_sc_hd__o221a_1
*I *4224:C1 I *D sky130_fd_sc_hd__o221a_1
*I *4222:C1 I *D sky130_fd_sc_hd__o221a_1
*I *4218:C1 I *D sky130_fd_sc_hd__o221a_1
*I *4216:C1 I *D sky130_fd_sc_hd__o221a_1
*I *4725:C1 I *D sky130_fd_sc_hd__o221a_1
*I *4204:C1 I *D sky130_fd_sc_hd__o221a_1
*I *4745:B1 I *D sky130_fd_sc_hd__o211a_1
*I *4733:B1 I *D sky130_fd_sc_hd__o211a_1
*I *4220:C1 I *D sky130_fd_sc_hd__o221a_1
*I *4948:X O *D sky130_fd_sc_hd__buf_2
*CAP
1 *4226:C1 0.000252841
2 *4224:C1 1.41735e-05
3 *4222:C1 3.21377e-05
4 *4218:C1 3.63983e-05
5 *4216:C1 0
6 *4725:C1 0
7 *4204:C1 3.95971e-05
8 *4745:B1 0.000523098
9 *4733:B1 0
10 *4220:C1 8.73701e-05
11 *4948:X 5.93444e-05
12 *846:62 0.000757041
13 *846:47 0.000565135
14 *846:41 0.0013636
15 *846:33 0.00136229
16 *846:29 0.000863232
17 *846:27 0.000726675
18 *846:25 0.000418715
19 *846:23 0.000647695
20 *846:10 0.000374205
21 *4220:C1 *4219:B 0
22 *4220:C1 *4220:B1 4.89295e-05
23 *4226:C1 *4226:B1 2.97004e-06
24 *4226:C1 *967:91 0.000471547
25 *846:23 *4220:A1 0.000345116
26 *846:23 *4220:B1 9.03305e-05
27 *846:25 *4224:B1 0
28 *846:25 *967:91 4.86642e-05
29 *846:27 *4222:B1 2.97004e-06
30 *846:29 *4222:B1 5.93303e-05
31 *846:29 *5100:A 7.24866e-05
32 *846:29 *960:10 4.61744e-05
33 *846:29 *966:80 0
34 *846:33 *966:58 0
35 *846:33 *966:71 0
36 *846:33 *971:81 0
37 *846:33 *971:83 0
38 *846:41 *4215:B 0.000116624
39 *846:47 *4588:B1 1.73706e-05
40 *4204:B2 *4204:C1 0.000135652
41 *4204:B2 *846:62 0.000280844
42 *4205:A *846:41 0.000123239
43 *4205:A *846:47 2.16833e-05
44 *4215:A *846:41 2.8185e-05
45 *4216:B2 *846:41 0.000124473
46 *4218:B2 *4218:C1 8.65961e-05
47 *4220:B2 *4220:C1 4.18398e-05
48 *4221:A *846:27 0
49 *4221:A *846:29 0
50 *4223:B *846:10 4.87479e-05
51 *4224:B2 *4224:C1 8.65961e-05
52 *4226:B2 *4226:C1 8.65961e-05
53 *4725:B1 *846:41 6.58339e-05
54 *4725:B2 *846:41 2.7441e-05
55 *4725:B2 *846:47 8.65961e-05
56 *4728:A *846:47 4.18603e-06
57 *4732:A2 *846:62 9.50342e-06
58 *4733:C1 *846:62 0.000137865
59 *4745:A1 *4745:B1 0
60 *4745:C1 *4745:B1 5.53249e-06
61 *4855:CLK *846:29 0
62 *4865:CLK *4224:C1 8.65961e-05
63 *4866:CLK *4226:C1 8.65961e-05
64 *4901:D *846:41 0.000226012
65 *4902:CLK *846:62 8.07863e-05
66 *4904:D *4745:B1 0
67 *4923:A *846:47 7.44453e-05
68 *4923:A *846:62 1.23331e-05
69 *181:60 *4745:B1 0
70 *772:118 *846:47 9.05299e-05
71 *777:23 *846:29 0
72 *777:49 *846:25 0
73 *777:49 *846:27 0
74 *777:62 *846:25 0
75 *778:25 *846:47 0
76 *803:12 *846:41 3.27623e-05
77 *806:6 *4222:C1 3.64998e-06
78 *806:29 *846:27 5.62035e-05
79 *837:93 *4226:C1 0
80 *838:118 *4204:C1 0.000238137
81 *838:118 *846:62 0.000467962
*RES
1 *4948:X *846:10 6.725 
2 *846:10 *4220:C1 3.1 
3 *846:10 *846:23 6.245 
4 *846:23 *846:25 2.655 
5 *846:25 *846:27 4.185 
6 *846:27 *846:29 8.265 
7 *846:29 *846:33 7.97 
8 *846:33 *846:41 13.515 
9 *846:41 *846:47 9.11 
10 *846:47 *4733:B1 3.6 
11 *846:47 *846:62 9.095 
12 *846:62 *4745:B1 13.865 
13 *846:62 *4204:C1 3.775 
14 *846:41 *4725:C1 1.6 
15 *846:33 *4216:C1 1.6 
16 *846:29 *4218:C1 4.395 
17 *846:27 *4222:C1 4.05 
18 *846:25 *4224:C1 4.395 
19 *846:23 *4226:C1 10.11 
*END

*D_NET *847 0.0242349
*CONN
*I *4232:C1 I *D sky130_fd_sc_hd__o221a_1
*I *4228:C1 I *D sky130_fd_sc_hd__o221a_1
*I *4230:C1 I *D sky130_fd_sc_hd__o221a_1
*I *4765:B1 I *D sky130_fd_sc_hd__o211a_1
*I *4234:C1 I *D sky130_fd_sc_hd__o221a_1
*I *4948:A I *D sky130_fd_sc_hd__buf_2
*I *4750:B1 I *D sky130_fd_sc_hd__o211a_1
*I *4588:B1 I *D sky130_fd_sc_hd__o211a_1
*I *4760:B1 I *D sky130_fd_sc_hd__o211a_1
*I *4773:B1 I *D sky130_fd_sc_hd__o211a_1
*I *4949:X O *D sky130_fd_sc_hd__clkbuf_4
*CAP
1 *4232:C1 0.000193528
2 *4228:C1 0.000737097
3 *4230:C1 0
4 *4765:B1 0
5 *4234:C1 1.65033e-05
6 *4948:A 0.0001731
7 *4750:B1 0.000130194
8 *4588:B1 0.00214416
9 *4760:B1 0.000340107
10 *4773:B1 4.71084e-05
11 *4949:X 0
12 *847:147 0.00127713
13 *847:70 0.00264058
14 *847:62 0.000916365
15 *847:60 0.000546631
16 *847:39 0.000914383
17 *847:35 0.000546694
18 *847:33 0.00134052
19 *847:12 0.00217229
20 *847:4 0.00164373
21 *4228:C1 *4230:A1 0.000101698
22 *4232:C1 *4232:B1 5.19006e-06
23 *4232:C1 *967:41 4.25106e-05
24 *4232:C1 *967:64 8.28018e-06
25 *4588:B1 *4732:B1_N 4.9968e-05
26 *4588:B1 *4733:A1 0.000137571
27 *4588:B1 *4741:B1 0
28 *4588:B1 *964:8 6.69341e-05
29 *4750:B1 *4750:A2 0.000117832
30 *4760:B1 *4760:A2 0.000585789
31 *847:12 *4232:A1 8.64599e-05
32 *847:70 *970:33 1.91597e-05
33 *847:147 *4229:B 4.82919e-05
34 *4205:A *4588:B1 0.000613786
35 *4219:A *847:70 8.53113e-06
36 *4223:A *847:70 2.92496e-05
37 *4225:A *4234:C1 2.49909e-05
38 *4228:B2 *4228:C1 4.70256e-05
39 *4229:A *847:33 0
40 *4229:A *847:147 0.000423397
41 *4230:A2 *4228:C1 5.57182e-05
42 *4230:A2 *847:147 4.24022e-05
43 *4230:B2 *4228:C1 0.000100669
44 *4230:B2 *847:147 0.000199498
45 *4232:A2 *4232:C1 1.08758e-05
46 *4232:A2 *847:33 0
47 *4232:A2 *847:147 2.30292e-05
48 *4232:B2 *4232:C1 8.45817e-05
49 *4588:A2 *4588:B1 9.53428e-06
50 *4727:A1 *4588:B1 4.82919e-05
51 *4727:B1_N *4588:B1 4.17846e-05
52 *4728:A *4588:B1 3.09233e-05
53 *4728:B *4588:B1 8.82473e-05
54 *4742:B1 *4588:B1 1.82563e-05
55 *4742:B2 *4588:B1 0.000175066
56 *4760:C1 *4760:B1 2.35306e-05
57 *4765:C1 *847:39 0
58 *4773:A2 *4773:B1 5.06204e-06
59 *4773:C1 *4773:B1 9.25211e-06
60 *4867:CLK *4228:C1 0
61 *4868:CLK *4228:C1 0
62 *4868:D *4228:C1 8.19155e-05
63 *4896:D *4588:B1 0.000151158
64 *4902:CLK *4588:B1 8.3215e-05
65 *4908:D *847:33 3.39081e-05
66 *4923:A *4588:B1 0.000674698
67 *5043:A *4760:B1 7.57202e-05
68 *181:60 *847:62 0
69 *181:60 *847:70 0
70 *181:71 *847:33 0
71 *181:71 *847:35 0
72 *181:71 *847:39 0
73 *183:69 *4760:B1 7.32576e-05
74 *183:69 *847:39 0
75 *183:69 *847:60 0.00020178
76 *183:69 *847:62 0.000208484
77 *660:34 *4588:B1 0
78 *679:14 *4588:B1 1.34503e-05
79 *681:10 *4588:B1 0.000184008
80 *704:12 *4760:B1 0.000136877
81 *704:25 *4760:B1 5.05521e-05
82 *772:118 *4588:B1 0.000163012
83 *777:70 *4948:A 0.000359794
84 *777:78 *4588:B1 0.000535818
85 *777:78 *4750:B1 5.21288e-05
86 *777:117 *4234:C1 4.66108e-05
87 *780:89 *4773:B1 3.79253e-05
88 *780:89 *847:12 7.06865e-05
89 *780:89 *847:33 0.000239813
90 *780:101 *4773:B1 0
91 *780:101 *847:33 0
92 *780:101 *847:35 0
93 *798:8 *4588:B1 7.79545e-05
94 *798:16 *4588:B1 6.60261e-06
95 *805:53 *4588:B1 0
96 *807:10 *4948:A 0.0001249
97 *807:10 *847:70 0.000114492
98 *807:27 *847:70 0.000616046
99 *809:14 *847:60 0
100 *809:20 *4760:B1 0.000507936
101 *811:6 *847:33 2.07108e-05
102 *811:12 *4773:B1 3.00381e-05
103 *833:74 *4750:B1 4.18603e-06
104 *834:12 *4773:B1 3.24046e-05
105 *834:12 *847:12 4.39001e-05
106 *846:47 *4588:B1 1.73706e-05
*RES
1 *4949:X *847:4 1.6 
2 *847:4 *847:12 24.59 
3 *847:12 *4773:B1 5.025 
4 *847:12 *847:33 13.885 
5 *847:33 *847:35 1.89 
6 *847:35 *847:39 8.735 
7 *847:39 *4760:B1 15.545 
8 *847:39 *847:60 5.12 
9 *847:60 *847:62 6.735 
10 *847:62 *847:70 11.86 
11 *847:70 *4588:B1 44.85 
12 *847:70 *4750:B1 6.3 
13 *847:62 *4948:A 7.515 
14 *847:60 *4234:C1 4.05 
15 *847:35 *4765:B1 3.6 
16 *847:33 *847:147 12.695 
17 *847:147 *4230:C1 1.6 
18 *847:147 *4228:C1 18.83 
19 *847:4 *4232:C1 8.57 
*END

*D_NET *848 0.00790699
*CONN
*I *4242:C1 I *D sky130_fd_sc_hd__o221a_1
*I *4949:A I *D sky130_fd_sc_hd__clkbuf_4
*I *4238:C1 I *D sky130_fd_sc_hd__o221a_1
*I *4240:C1 I *D sky130_fd_sc_hd__o221a_1
*I *4947:A I *D sky130_fd_sc_hd__buf_2
*I *4950:X O *D sky130_fd_sc_hd__dlymetal6s2s_1
*CAP
1 *4242:C1 0
2 *4949:A 0.000767451
3 *4238:C1 0
4 *4240:C1 0.000230526
5 *4947:A 0.000191617
6 *4950:X 0.000133675
7 *848:44 0.00115038
8 *848:27 0.00108075
9 *848:19 0.0006832
10 *848:10 0.000541201
11 *4240:C1 *4240:A1 3.18219e-05
12 *4240:C1 *5088:A 3.18248e-05
13 *4949:A *4238:A1 0.000498021
14 *4949:A *967:22 8.52972e-05
15 *848:19 *957:8 1.79098e-05
16 *848:27 *4242:A1 0.000357163
17 *848:27 *5088:A 6.5961e-05
18 *848:44 *4236:A1 8.11819e-05
19 *848:44 *967:22 0.000100871
20 *4202:C1 *848:44 0.000212511
21 *4238:B2 *4949:A 6.63221e-05
22 *4238:B2 *848:44 0.000158556
23 *4240:A2 *4240:C1 0
24 *4853:D *4947:A 5.14473e-05
25 *779:65 *4240:C1 0
26 *779:80 *4240:C1 0
27 *779:102 *4947:A 8.64599e-05
28 *837:45 *848:44 0.000570124
29 *837:58 *848:44 0.000341432
30 *837:73 *4949:A 9.83921e-06
31 *837:73 *848:44 0.000145479
32 *845:10 *4947:A 0.000215974
*RES
1 *4950:X *848:10 7.745 
2 *848:10 *4947:A 6.19 
3 *848:10 *848:19 3.21 
4 *848:19 *848:27 10.13 
5 *848:27 *4240:C1 7.275 
6 *848:27 *848:44 14.21 
7 *848:44 *4238:C1 1.6 
8 *848:44 *4949:A 14.485 
9 *848:19 *4242:C1 1.6 
*END

*D_NET *849 0.0303407
*CONN
*I *4950:A I *D sky130_fd_sc_hd__dlymetal6s2s_1
*I *4713:B1 I *D sky130_fd_sc_hd__o211a_1
*I *4208:C1 I *D sky130_fd_sc_hd__o221a_1
*I *4206:C1 I *D sky130_fd_sc_hd__o221a_1
*I *4212:C1 I *D sky130_fd_sc_hd__o221a_1
*I *4214:C1 I *D sky130_fd_sc_hd__o221a_1
*I *4685:B1 I *D sky130_fd_sc_hd__o211a_1
*I *4656:B1 I *D sky130_fd_sc_hd__o211a_1
*I *4210:C1 I *D sky130_fd_sc_hd__o221a_1
*I *4621:B1 I *D sky130_fd_sc_hd__o211a_1
*I *4951:X O *D sky130_fd_sc_hd__clkbuf_4
*CAP
1 *4950:A 9.15192e-05
2 *4713:B1 0
3 *4208:C1 0
4 *4206:C1 0.000170483
5 *4212:C1 0.000719076
6 *4214:C1 1.86298e-05
7 *4685:B1 1.85694e-05
8 *4656:B1 0.000451483
9 *4210:C1 0.000574402
10 *4621:B1 1.0887e-05
11 *4951:X 3.69588e-05
12 *849:104 0.000755481
13 *849:102 0.00112826
14 *849:76 0.000588624
15 *849:55 0.000955726
16 *849:53 0.00120275
17 *849:51 0.000296917
18 *849:43 0.00180623
19 *849:24 0.00338671
20 *849:16 0.00303902
21 *849:12 0.00299267
22 *849:8 0.00194865
23 *4206:C1 *966:49 0.000178504
24 *4206:C1 *971:87 0
25 *4210:C1 *4209:B 5.00325e-05
26 *4212:C1 *4212:A1 0
27 *4212:C1 *4212:B1 2.75229e-05
28 *4212:C1 *4214:A1 0.000161529
29 *4212:C1 *5073:A 0
30 *4621:B1 *4621:A2 9.53428e-06
31 *4656:B1 *4655:A 1.94805e-05
32 *4656:B1 *4956:A 0.000160641
33 *4656:B1 *1011:54 0
34 *849:12 *4815:A2 5.21046e-05
35 *849:12 *961:50 0.000109825
36 *849:12 *968:80 0
37 *849:12 *970:100 0
38 *849:43 *4621:A2 6.58339e-05
39 *849:43 *4713:A1 9.61838e-05
40 *849:43 *4713:A2 3.26889e-05
41 *849:76 *4956:A 0.000275684
42 *849:102 *4213:B 0.000121023
43 *849:102 *4713:A2 0.00038879
44 rdata[13] *4212:C1 0
45 rdata[14] *4212:C1 0
46 *4198:A *849:12 6.00003e-05
47 *4200:B1 *849:12 0
48 *4208:A2 *849:55 0
49 *4208:B2 *849:55 2.97004e-06
50 *4208:B2 *849:102 4.49498e-05
51 *4209:A *4210:C1 0
52 *4210:B2 *4210:C1 5.06989e-05
53 *4212:B2 *4212:C1 4.99619e-05
54 *4213:A *4206:C1 0
55 *4214:B2 *4212:C1 7.22354e-05
56 *4214:B2 *4214:C1 9.53428e-06
57 *4214:B2 *849:102 0.00010766
58 *4443:A *849:16 0
59 *4445:A2 *849:16 1.22505e-05
60 *4456:A1 *849:12 0.000137578
61 *4491:A *849:16 3.86529e-05
62 *4492:A1 *849:16 0
63 *4493:C1 *849:16 0.000154481
64 *4494:B1 *849:16 0.000185398
65 *4534:A1 *849:24 1.90762e-05
66 *4534:B1 *849:24 2.75229e-05
67 *4534:C1 *849:24 0.000163204
68 *4581:B *849:24 9.2741e-05
69 *4582:B *849:24 6.90177e-05
70 *4619:A *4621:B1 3.26889e-05
71 *4619:A *849:24 0.00043044
72 *4619:B *849:24 0.000579417
73 *4685:A2 *4685:B1 9.53428e-06
74 *4685:A2 *849:76 4.00541e-06
75 *4685:C1 *4656:B1 1.70935e-05
76 *4812:A *849:12 0
77 *4813:B *849:12 0
78 *4817:B1_N *849:12 9.49116e-05
79 *4818:B *849:12 0.000296074
80 *4825:B1 *849:12 0
81 *4857:CLK *849:55 0
82 *4860:D *4212:C1 0.000139933
83 *4897:CLK *849:43 0.000139245
84 *4897:D *849:43 3.86607e-05
85 *4899:D *849:76 0.000149404
86 *4900:D *849:102 9.50342e-06
87 *4935:A *849:12 0
88 *4940:A *849:12 0
89 *4940:A *849:16 0.0003835
90 *4941:A *849:55 0
91 *4941:A *849:102 0
92 *4951:A *4950:A 8.7074e-05
93 *4951:A *849:12 0.000431588
94 *4960:A *849:12 3.83319e-05
95 *11:9 *849:16 0
96 *181:60 *849:102 0
97 *183:53 *849:12 8.29439e-05
98 *400:10 *849:16 1.95374e-05
99 *401:10 *849:16 0.000114492
100 *402:27 *849:16 0.00018116
101 *403:12 *849:16 0.000167073
102 *404:12 *849:16 0
103 *406:12 *849:16 0
104 *412:28 *849:16 0.000137578
105 *448:6 *849:24 0.000222562
106 *451:8 *849:16 0.000323188
107 *492:10 *849:24 0.000237243
108 *538:8 *849:24 0.000109101
109 *539:6 *849:24 0.000311288
110 *574:25 *849:43 0.00080154
111 *671:14 *849:43 0
112 *754:12 *849:12 9.45784e-05
113 *772:16 *849:16 0
114 *772:38 *849:16 0
115 *778:29 *849:51 0.000362278
116 *778:29 *849:55 0
117 *778:29 *849:102 0
118 *778:31 *4210:C1 0
119 *778:31 *849:55 0
120 *778:33 *4210:C1 0
121 *778:71 *4212:C1 0
122 *778:80 *4212:C1 0
123 *779:100 *4950:A 0.000156767
124 *779:100 *849:8 4.66108e-05
125 *801:8 *849:76 0.000178002
126 *801:10 *4656:B1 9.66106e-05
127 *801:10 *849:76 2.05056e-05
128 *826:12 *849:12 0.000142727
129 *826:27 *849:12 0
130 *826:27 *849:16 0.000413102
131 *845:18 *849:12 0
132 *845:26 *849:12 0
*RES
1 *4951:X *849:8 4.05 
2 *849:8 *849:12 35.3775 
3 *849:12 *849:16 30.2825 
4 *849:16 *849:24 28.185 
5 *849:24 *4621:B1 1.96 
6 *849:24 *849:43 24.055 
7 *849:43 *849:51 10.36 
8 *849:51 *849:53 2 
9 *849:53 *849:55 4.185 
10 *849:55 *4210:C1 12.24 
11 *849:55 *849:76 7.055 
12 *849:76 *4656:B1 13.82 
13 *849:76 *4685:B1 1.96 
14 *849:53 *849:102 16.115 
15 *849:102 *849:104 0.36 
16 *849:104 *4214:C1 1.96 
17 *849:104 *4212:C1 18.125 
18 *849:102 *4206:C1 9.275 
19 *849:51 *4208:C1 1.6 
20 *849:43 *4713:B1 1.6 
21 *849:8 *4950:A 5.7 
*END

*D_NET *850 0.000328679
*CONN
*I *4524:A2 I *D sky130_fd_sc_hd__a21oi_1
*I *5109:X O *D sky130_fd_sc_hd__dlymetal6s2s_1
*CAP
1 *4524:A2 3.26362e-05
2 *5109:X 3.26362e-05
3 *4524:A1 *4524:A2 5.05521e-05
4 *4524:B1 *4524:A2 0.000162311
5 *479:27 *4524:A2 5.05437e-05
*RES
1 *5109:X *4524:A2 4.685 
*END

*D_NET *851 0.000616257
*CONN
*I *5109:A I *D sky130_fd_sc_hd__dlymetal6s2s_1
*I *5110:X O *D sky130_fd_sc_hd__dlymetal6s2s_1
*CAP
1 *5109:A 0.000284611
2 *5110:X 0.000284611
3 *481:12 *5109:A 0
4 *482:12 *5109:A 4.70343e-05
*RES
1 *5110:X *5109:A 11.52 
*END

*D_NET *852 0.00665136
*CONN
*I *4158:A1 I *D sky130_fd_sc_hd__mux2_1
*I *4252:A1 I *D sky130_fd_sc_hd__mux2_1
*I *5051:X O *D sky130_fd_sc_hd__buf_1
*CAP
1 *4158:A1 0.0002274
2 *4252:A1 0.000313072
3 *5051:X 0.00125343
4 *852:8 0.0017939
5 *4158:A1 *4250:A0 0
6 *4158:A1 *4975:A 0.000296088
7 *4158:A1 *866:25 0
8 *4158:A1 *990:10 7.30547e-05
9 *4252:A1 *4250:A0 0.000354719
10 *4252:A1 *4252:A0 4.82919e-05
11 *4252:A1 *4987:A 6.59822e-05
12 *4158:S *4158:A1 0.00042877
13 *4199:C1 *4158:A1 0.00042877
14 *4253:B *4252:A1 0
15 *4840:CLK *852:8 0.000594731
16 *224:10 *4252:A1 0
17 *774:42 *852:8 0.000128545
18 *774:44 *852:8 0.000221242
19 *789:8 *4158:A1 0.000139933
20 *789:8 *4252:A1 8.53113e-06
21 *789:21 *4158:A1 0.000153794
22 *841:77 *4158:A1 5.47804e-05
23 *841:77 *4252:A1 6.63219e-05
*RES
1 *5051:X *852:8 19.92 
2 *852:8 *4252:A1 9.9 
3 *852:8 *4158:A1 12.96 
*END

*D_NET *853 0.00172624
*CONN
*I *4792:B I *D sky130_fd_sc_hd__or2_1
*I *5111:X O *D sky130_fd_sc_hd__dlygate4sd1_1
*CAP
1 *4792:B 0.00035401
2 *5111:X 0.00035401
3 *4792:B *4236:B1 0
4 *4792:B *1002:28 4.82919e-05
5 *4202:B2 *4792:B 0.000473422
6 *4807:A3 *4792:B 0.000188719
7 *737:12 *4792:B 8.15598e-05
8 *772:94 *4792:B 0.000176266
9 *779:8 *4792:B 4.99619e-05
*RES
1 *5111:X *4792:B 16.23 
*END

*D_NET *854 0.000467809
*CONN
*I *5113:A I *D sky130_fd_sc_hd__dlymetal6s2s_1
*I *4678:A3 I *D sky130_fd_sc_hd__a31o_1
*I *5112:X O *D sky130_fd_sc_hd__clkbuf_2
*CAP
1 *5113:A 1.77632e-05
2 *4678:A3 6.42251e-05
3 *5112:X 2.22788e-05
4 *854:6 0.000104267
5 *4650:A *5113:A 4.82919e-05
6 *4650:A *854:6 4.82863e-05
7 *4680:A *4678:A3 9.16315e-05
8 *4680:B *4678:A3 6.55328e-05
9 *601:12 *4678:A3 5.53249e-06
*RES
1 *5112:X *854:6 2.05 
2 *854:6 *4678:A3 7.49 
3 *854:6 *5113:A 2.05 
*END

*D_NET *855 0.000996072
*CONN
*I *4650:B I *D sky130_fd_sc_hd__nand2_4
*I *5113:X O *D sky130_fd_sc_hd__dlymetal6s2s_1
*CAP
1 *4650:B 0.000122489
2 *5113:X 0.000122489
3 *4650:A *4650:B 0.000279787
4 *654:18 *4650:B 0.000471307
*RES
1 *5113:X *4650:B 7.805 
*END

*D_NET *856 0.00350166
*CONN
*I *4742:A2_N I *D sky130_fd_sc_hd__a2bb2o_4
*I *4741:B1 I *D sky130_fd_sc_hd__o21ai_1
*I *4739:B I *D sky130_fd_sc_hd__nand2_1
*I *4735:A2 I *D sky130_fd_sc_hd__a21bo_1
*I *4754:B1 I *D sky130_fd_sc_hd__o41a_1
*I *4934:X O *D sky130_fd_sc_hd__clkbuf_1
*CAP
1 *4742:A2_N 0
2 *4741:B1 0.000105752
3 *4739:B 0
4 *4735:A2 0
5 *4754:B1 0.000272765
6 *4934:X 2.08101e-05
7 *856:38 0.000265656
8 *856:30 0.000303785
9 *856:8 0.000488631
10 *856:6 0.000380557
11 *4588:B1 *4741:B1 0
12 *4735:B1_N *856:8 2.59835e-05
13 *4735:B1_N *856:30 0.000177857
14 *4735:B1_N *856:38 0.000164874
15 *4741:A2 *4741:B1 5.05521e-05
16 *4742:A1_N *4741:B1 5.64057e-05
17 *4742:A1_N *856:38 8.17924e-05
18 *4742:B1 *856:38 3.09233e-05
19 *4742:B2 *4741:B1 6.47516e-05
20 *4742:B2 *856:38 0.000110315
21 *4934:A *856:8 0.000161837
22 *4934:A *856:30 5.4155e-06
23 *671:27 *4754:B1 2.75145e-05
24 *671:27 *856:8 6.1357e-05
25 *684:8 *4754:B1 0
26 *689:25 *856:38 0
27 *700:10 *4754:B1 0.000545256
28 *805:53 *4741:B1 1.22762e-05
29 *805:66 *4741:B1 8.65961e-05
*RES
1 *4934:X *856:6 1.96 
2 *856:6 *856:8 4.245 
3 *856:8 *4754:B1 12.275 
4 *856:8 *4735:A2 1.6 
5 *856:6 *856:30 3.225 
6 *856:30 *856:38 6.5 
7 *856:38 *4739:B 3.6 
8 *856:38 *4741:B1 6.54 
9 *856:30 *4742:A2_N 1.6 
*END

*D_NET *857 0.0019421
*CONN
*I *4431:B1 I *D sky130_fd_sc_hd__a211o_1
*I *4430:A1 I *D sky130_fd_sc_hd__o211ai_2
*I *5114:X O *D sky130_fd_sc_hd__dlymetal6s2s_1
*CAP
1 *4431:B1 0.000178469
2 *4430:A1 6.58093e-05
3 *5114:X 0.000238674
4 *857:12 0.000482952
5 *4431:B1 *999:42 0
6 *857:12 *997:55 0.000208491
7 *857:12 *999:42 0
8 *4386:A *857:12 2.30292e-05
9 *4386:B *857:12 4.70343e-05
10 *4386:C *857:12 0.000162311
11 *181:44 *4431:B1 0.000130209
12 *199:10 *4431:B1 0
13 *390:12 *4430:A1 5.07419e-05
14 *390:12 *857:12 4.30929e-05
15 *391:12 *4431:B1 0.000311288
*RES
1 *5114:X *857:12 10.865 
2 *857:12 *4430:A1 2.74 
3 *857:12 *4431:B1 10.205 
*END

*D_NET *858 0.00044689
*CONN
*I *4387:A1 I *D sky130_fd_sc_hd__o21ai_1
*I *5115:X O *D sky130_fd_sc_hd__dlygate4sd1_1
*CAP
1 *4387:A1 0.000122515
2 *5115:X 0.000122515
3 *4385:A *4387:A1 8.57024e-05
4 *4387:A2 *4387:A1 0.000116158
5 *199:10 *4387:A1 0
*RES
1 *5115:X *4387:A1 9.375 
*END

*D_NET *859 0.00807208
*CONN
*I *4318:B I *D sky130_fd_sc_hd__and4_1
*I *5103:A I *D sky130_fd_sc_hd__dlymetal6s2s_1
*I *4384:A1 I *D sky130_fd_sc_hd__a22oi_2
*I *5102:X O *D sky130_fd_sc_hd__dlygate4sd1_1
*CAP
1 *4318:B 0.000272513
2 *5103:A 0
3 *4384:A1 0
4 *5102:X 0.000770081
5 *859:29 0.000640992
6 *859:16 0.00113856
7 *4318:B *4296:A1 0.000123225
8 *4318:B *4317:A 0
9 *4318:B *4317:B 0.000665581
10 *4318:B *999:65 0.000158297
11 *4318:B *1000:97 0.000468802
12 *4318:B *1001:71 1.89685e-05
13 *859:16 *4192:B2 0.000594546
14 *859:16 *4199:B2 0.000159964
15 *859:16 *4383:A 2.16833e-05
16 *859:16 *4384:B2 8.57024e-05
17 *859:16 *866:65 0.000774395
18 *859:29 *4192:A1 4.05358e-05
19 *859:29 *4192:B2 0.000203443
20 *859:29 *4195:A1 0.000217535
21 *859:29 *4195:B2 0.000162332
22 *859:29 *4384:B2 4.82863e-05
23 *859:29 *973:24 0
24 *859:29 *995:81 8.53113e-06
25 *4192:B1 *859:29 9.54469e-05
26 *4193:B1 *859:29 0
27 *4928:A *859:16 6.69341e-05
28 *4933:A *859:16 5.30673e-05
29 *180:86 *859:16 0.00105016
30 *199:10 *4318:B 0
31 *282:8 *4318:B 1.22676e-05
32 *345:8 *859:16 4.82919e-05
33 *345:8 *859:29 3.83041e-05
34 *772:48 *859:29 0.000133639
*RES
1 *5102:X *859:16 29.36 
2 *859:16 *4384:A1 1.6 
3 *859:16 *859:29 14.5 
4 *859:29 *5103:A 1.6 
5 *859:29 *4318:B 15.35 
*END

*D_NET *860 0.000775932
*CONN
*I *4296:A1 I *D sky130_fd_sc_hd__a22oi_2
*I *5103:X O *D sky130_fd_sc_hd__dlymetal6s2s_1
*CAP
1 *4296:A1 8.71157e-05
2 *5103:X 8.71157e-05
3 *4296:A1 *4295:C 4.51031e-05
4 *4296:A1 *4296:A2 4.00541e-06
5 *4296:A1 *4317:B 0.000382276
6 *4296:A1 *1000:97 4.70919e-05
7 *4318:B *4296:A1 0.000123225
*RES
1 *5103:X *4296:A1 6.77 
*END

*D_NET *861 0.000498323
*CONN
*I *4519:B1 I *D sky130_fd_sc_hd__a31o_1
*I *5104:X O *D sky130_fd_sc_hd__dlygate4sd1_1
*CAP
1 *4519:B1 0.000156273
2 *5104:X 0.000156273
3 *4519:B1 *985:21 3.00381e-05
4 *4519:B1 *985:27 1.12578e-05
5 *4519:B1 *995:40 9.61948e-05
6 *4519:A3 *4519:B1 4.82863e-05
*RES
1 *5104:X *4519:B1 6.08 
*END

*D_NET *862 0.000775504
*CONN
*I *4518:A1_N I *D sky130_fd_sc_hd__a2bb2o_1
*I *5106:A I *D sky130_fd_sc_hd__dlygate4sd1_1
*I *5105:X O *D sky130_fd_sc_hd__dlymetal6s4s_1
*CAP
1 *4518:A1_N 0.000127862
2 *5106:A 0.000110294
3 *5105:X 0
4 *862:4 0.000238156
5 *5106:A *993:34 4.40899e-05
6 *4518:A2_N *4518:A1_N 0.000238919
7 *4518:A2_N *5106:A 1.61831e-05
8 *4522:A2 *5106:A 0
9 *431:12 *5106:A 0
*RES
1 *5105:X *862:4 1.6 
2 *862:4 *5106:A 7.43 
3 *862:4 *4518:A1_N 4.39 
*END

*D_NET *863 0.00207646
*CONN
*I *4254:A1 I *D sky130_fd_sc_hd__mux2_1
*I *4160:A1 I *D sky130_fd_sc_hd__mux2_1
*I *5052:X O *D sky130_fd_sc_hd__clkbuf_1
*CAP
1 *4254:A1 0.000167314
2 *4160:A1 0.000158167
3 *5052:X 0.000525785
4 *863:6 0.000851265
5 *4254:A1 *4254:A0 4.99619e-05
6 *4943:A *4160:A1 0.000122465
7 *4943:A *4254:A1 0.000113237
8 *4943:A *863:6 8.8266e-05
*RES
1 *5052:X *863:6 7.57 
2 *863:6 *4160:A1 9.02 
3 *863:6 *4254:A1 3.775 
*END

*D_NET *864 0.0013153
*CONN
*I *4521:B I *D sky130_fd_sc_hd__nand2_1
*I *4520:B I *D sky130_fd_sc_hd__and2_1
*I *5106:X O *D sky130_fd_sc_hd__dlygate4sd1_1
*CAP
1 *4521:B 4.86522e-05
2 *4520:B 0
3 *5106:X 0.000365746
4 *864:12 0.000414398
5 *4521:B *985:67 0.0001249
6 *864:12 *4422:B 0.000351268
7 *864:12 *4987:A 1.03323e-05
8 *864:12 *985:65 0
9 *864:12 *997:27 0
*RES
1 *5106:X *864:12 10.79 
2 *864:12 *4520:B 1.6 
3 *864:12 *4521:B 2.74 
*END

*D_NET *865 0.00375191
*CONN
*I *4319:A1 I *D sky130_fd_sc_hd__a22oi_2
*I *5107:X O *D sky130_fd_sc_hd__dlygate4sd1_1
*CAP
1 *4319:A1 0.00127778
2 *5107:X 0.00127778
3 *4319:A1 *4189:A1 4.18603e-06
4 *4319:A1 *4199:A2 0
5 *4319:A1 *4319:B1 4.18603e-06
6 *4319:A1 *4346:C 0
7 *4319:A1 *4347:B1 0.000114921
8 *4319:A1 *4383:D 0
9 *4319:A1 *997:87 0
10 *4319:A1 *997:104 0
11 *4319:A1 *999:73 1.94892e-05
12 *4196:B1 *4319:A1 0
13 *4430:B1 *4319:A1 0.000185398
14 *4430:C1 *4319:A1 0.000195925
15 *199:10 *4319:A1 0
16 *346:8 *4319:A1 3.39069e-05
17 *387:10 *4319:A1 0
18 *387:23 *4319:A1 0
19 *388:10 *4319:A1 0.000319167
20 *389:10 *4319:A1 0.000319167
*RES
1 *5107:X *4319:A1 31.275 
*END

*D_NET *866 0.0109156
*CONN
*I *5107:A I *D sky130_fd_sc_hd__dlygate4sd1_1
*I *4474:A2 I *D sky130_fd_sc_hd__o21a_1
*I *4266:A2 I *D sky130_fd_sc_hd__a31o_1
*I *4178:A1 I *D sky130_fd_sc_hd__a211o_1
*I *4250:A0 I *D sky130_fd_sc_hd__mux2_1
*I *4933:X O *D sky130_fd_sc_hd__clkbuf_1
*CAP
1 *5107:A 0.000174199
2 *4474:A2 0.000175898
3 *4266:A2 5.23966e-05
4 *4178:A1 0.000841055
5 *4250:A0 0.000671079
6 *4933:X 0
7 *866:65 0.000942249
8 *866:25 0.00138809
9 *866:6 0.00116572
10 *866:4 0.000592152
11 *4178:A1 *4180:A1 1.77568e-05
12 *4178:A1 *4180:B2 7.07433e-05
13 *4178:A1 *4266:A3 0.000386221
14 *4178:A1 *4267:C 1.70906e-05
15 *4178:A1 *4975:A 0.000314445
16 *4178:A1 *1010:80 2.68721e-05
17 *4250:A0 *4252:A0 0.000157872
18 *4250:A0 *4422:B 4.57056e-05
19 *4250:A0 *4987:A 0.000543676
20 *4250:A0 *1004:27 0.00027839
21 *4266:A2 *4266:A1 7.00889e-06
22 *4266:A2 *4266:A3 8.65961e-05
23 *4474:A2 *4192:B2 0.000360604
24 *4474:A2 *4199:A1 7.5416e-05
25 *4474:A2 *4426:A1 1.03592e-05
26 *4474:A2 *4427:B 1.71207e-05
27 *4474:A2 *4474:A1 4.99619e-05
28 *4474:A2 *990:44 6.03272e-05
29 *4474:A2 *995:48 6.95335e-05
30 *5107:A *4192:B2 0.000109989
31 *5107:A *4199:A1 0.000116853
32 *5107:A *4199:A2 0.000101894
33 *5107:A *995:68 3.83194e-05
34 *866:25 *1005:17 0
35 *866:65 *4426:A2 3.64998e-06
36 *866:65 *975:105 3.81908e-06
37 *866:65 *975:124 6.3124e-06
38 *4158:A1 *4250:A0 0
39 *4158:A1 *866:25 0
40 *4159:B *866:25 0
41 *4178:A2 *4178:A1 0.000237257
42 *4199:B1 *5107:A 5.83121e-06
43 *4250:S *4250:A0 2.20014e-05
44 *4252:A1 *4250:A0 0.000354719
45 *4253:B *4250:A0 0
46 *4269:A *4178:A1 0
47 *4269:C *4178:A1 7.23533e-05
48 *4839:CLK *866:25 0
49 *4886:CLK *866:25 0
50 *180:48 *4178:A1 0.000187807
51 *180:67 *4178:A1 4.05053e-05
52 *199:8 *5107:A 0.000158965
53 *789:8 *4250:A0 0
54 *789:21 *4250:A0 0
55 *797:24 *4178:A1 8.23457e-05
56 *859:16 *866:65 0.000774395
*RES
1 *4933:X *866:4 1.6 
2 *866:4 *866:6 2 
3 *866:6 *4250:A0 18.24 
4 *866:6 *866:25 9.5 
5 *866:25 *4178:A1 25.11 
6 *866:25 *4266:A2 2.74 
7 *866:4 *866:65 10.04 
8 *866:65 *4474:A2 8.235 
9 *866:65 *5107:A 7.845 
*END

*D_NET *867 0.000358952
*CONN
*I *4683:A I *D sky130_fd_sc_hd__xnor2_1
*I *5108:X O *D sky130_fd_sc_hd__dlygate4sd1_1
*CAP
1 *4683:A 0.000116191
2 *5108:X 0.000116191
3 *4683:B *4683:A 0.00012657
4 *4684:B *4683:A 0
*RES
1 *5108:X *4683:A 5.3 
*END

*D_NET *868 0.000221746
*CONN
*I *4179:A1 I *D sky130_fd_sc_hd__o211a_1
*I *4997:X O *D sky130_fd_sc_hd__dlygate4sd3_1
*CAP
1 *4179:A1 8.5892e-05
2 *4997:X 8.5892e-05
3 *4179:A2 *4179:A1 4.99619e-05
*RES
1 *4997:X *4179:A1 4.685 
*END

*D_NET *869 0.000398531
*CONN
*I *4182:A1 I *D sky130_fd_sc_hd__o211a_1
*I *4998:X O *D sky130_fd_sc_hd__dlygate4sd3_1
*CAP
1 *4182:A1 0.000194514
2 *4998:X 0.000194514
3 *4887:CLK *4182:A1 0
4 *773:53 *4182:A1 0
5 *839:23 *4182:A1 9.50342e-06
6 *841:22 *4182:A1 0
*RES
1 *4998:X *4182:A1 9.375 
*END

*D_NET *870 0.000866535
*CONN
*I *4188:A1 I *D sky130_fd_sc_hd__o211a_1
*I *4999:X O *D sky130_fd_sc_hd__dlygate4sd3_1
*CAP
1 *4188:A1 0.00023514
2 *4999:X 0.00023514
3 *4849:D *4188:A1 7.70938e-05
4 *164:14 *4188:A1 0
5 *839:49 *4188:A1 9.50342e-06
6 *839:62 *4188:A1 0.000309657
*RES
1 *4999:X *4188:A1 12.015 
*END

*D_NET *871 0.000396029
*CONN
*I *4185:A1 I *D sky130_fd_sc_hd__o211a_1
*I *5000:X O *D sky130_fd_sc_hd__dlygate4sd3_1
*CAP
1 *4185:A1 0.000138758
2 *5000:X 0.000138758
3 *164:14 *4185:A1 0
4 *839:40 *4185:A1 9.50342e-06
5 *839:49 *4185:A1 0.000109009
*RES
1 *5000:X *4185:A1 9.375 
*END

*D_NET *872 0.000244594
*CONN
*I *4194:A1 I *D sky130_fd_sc_hd__o211a_1
*I *5001:X O *D sky130_fd_sc_hd__dlygate4sd3_1
*CAP
1 *4194:A1 7.58687e-05
2 *5001:X 7.58687e-05
3 *839:62 *4194:A1 9.28568e-05
*RES
1 *5001:X *4194:A1 4.685 
*END

*D_NET *873 0.00367168
*CONN
*I *4162:A1 I *D sky130_fd_sc_hd__mux2_1
*I *4256:A1 I *D sky130_fd_sc_hd__mux2_1
*I *5053:X O *D sky130_fd_sc_hd__clkbuf_1
*CAP
1 *4162:A1 0.000353041
2 *4256:A1 7.41112e-05
3 *5053:X 0.00101333
4 *873:8 0.00144049
5 *4162:A1 *4162:A0 4.98756e-05
6 *4162:A1 *4256:A0 7.06865e-05
7 *4256:A1 *4256:A0 0.000233918
8 *4257:B *4256:A1 0.000139933
9 *4257:B *873:8 0.000147936
10 *4881:CLK *4162:A1 0
11 *4881:CLK *4256:A1 0
12 *4881:D *873:8 0.000148363
13 *792:8 *4162:A1 0
14 *792:25 *4162:A1 0
*RES
1 *5053:X *873:8 15.435 
2 *873:8 *4256:A1 6.255 
3 *873:8 *4162:A1 9.345 
*END

*D_NET *874 0.000833551
*CONN
*I *4191:A1 I *D sky130_fd_sc_hd__o211a_1
*I *5002:X O *D sky130_fd_sc_hd__dlygate4sd3_1
*CAP
1 *4191:A1 0.000252644
2 *5002:X 0.000252644
3 *4850:D *4191:A1 9.30717e-05
4 *775:89 *4191:A1 6.61336e-05
5 *836:29 *4191:A1 8.41703e-06
6 *839:93 *4191:A1 0.000160641
7 *844:10 *4191:A1 0
8 *844:12 *4191:A1 0
*RES
1 *5002:X *4191:A1 12.105 
*END

*D_NET *875 0.000754348
*CONN
*I *4226:A1 I *D sky130_fd_sc_hd__o221a_1
*I *5003:X O *D sky130_fd_sc_hd__dlygate4sd3_1
*CAP
1 *4226:A1 0.000237905
2 *5003:X 0.000237905
3 *4866:CLK *4226:A1 0.00012657
4 *4866:D *4226:A1 0.000151967
*RES
1 *5003:X *4226:A1 11.79 
*END

*D_NET *876 0.000179941
*CONN
*I *4228:A1 I *D sky130_fd_sc_hd__o221a_1
*I *5004:X O *D sky130_fd_sc_hd__dlygate4sd3_1
*CAP
1 *4228:A1 6.64575e-05
2 *5004:X 6.64575e-05
3 *4228:A1 *5004:A 0
4 *4228:A1 *940:8 0
5 *4228:B2 *4228:A1 4.70256e-05
*RES
1 *5004:X *4228:A1 8.58 
*END

*D_NET *877 0.000754348
*CONN
*I *4224:A1 I *D sky130_fd_sc_hd__o221a_1
*I *5005:X O *D sky130_fd_sc_hd__dlygate4sd3_1
*CAP
1 *4224:A1 0.000237905
2 *5005:X 0.000237905
3 *4224:A1 *5005:A 0
4 *4865:CLK *4224:A1 0.00012657
5 *4865:D *4224:A1 0.000151967
*RES
1 *5005:X *4224:A1 11.79 
*END

*D_NET *878 0.000764857
*CONN
*I *4230:A1 I *D sky130_fd_sc_hd__o221a_1
*I *5006:X O *D sky130_fd_sc_hd__dlygate4sd3_1
*CAP
1 *4230:A1 0.000265479
2 *5006:X 0.000265479
3 *4230:A1 *941:12 0
4 *4228:C1 *4230:A1 0.000101698
5 *4868:D *4230:A1 0.000132201
*RES
1 *5006:X *4230:A1 12 
*END

*D_NET *879 0.000861531
*CONN
*I *4218:A1 I *D sky130_fd_sc_hd__o221a_1
*I *5007:X O *D sky130_fd_sc_hd__dlygate4sd3_1
*CAP
1 *4218:A1 0.000322783
2 *5007:X 0.000322783
3 *4218:A1 *5076:A 3.00381e-05
4 *4862:CLK *4218:A1 0.00011852
5 *838:88 *4218:A1 6.74079e-05
*RES
1 *5007:X *4218:A1 11.79 
*END

*D_NET *880 0.000486716
*CONN
*I *4214:A1 I *D sky130_fd_sc_hd__o221a_1
*I *5008:X O *D sky130_fd_sc_hd__dlygate4sd3_1
*CAP
1 *4214:A1 0.000153406
2 *5008:X 0.000153406
3 *4212:C1 *4214:A1 0.000161529
4 *4860:D *4214:A1 1.83756e-05
*RES
1 *5008:X *4214:A1 6.065 
*END

*D_NET *881 0.000436219
*CONN
*I *4232:A1 I *D sky130_fd_sc_hd__o221a_1
*I *5009:X O *D sky130_fd_sc_hd__dlygate4sd3_1
*CAP
1 *4232:A1 0.000117934
2 *5009:X 0.000117934
3 *4232:B2 *4232:A1 0.000113891
4 *847:12 *4232:A1 8.64599e-05
*RES
1 *5009:X *4232:A1 9.375 
*END

*D_NET *882 0.000536475
*CONN
*I *4200:A1 I *D sky130_fd_sc_hd__o221a_1
*I *5010:X O *D sky130_fd_sc_hd__dlygate4sd3_1
*CAP
1 *4200:A1 0.000158267
2 *5010:X 0.000158267
3 *4200:A1 *968:61 0.000116531
4 *4200:A1 *968:70 5.56293e-05
5 *4200:C1 *4200:A1 4.77807e-05
*RES
1 *5010:X *4200:A1 6.08 
*END

*D_NET *883 0.000650945
*CONN
*I *4244:A1 I *D sky130_fd_sc_hd__o221a_1
*I *5011:X O *D sky130_fd_sc_hd__dlygate4sd3_1
*CAP
1 *4244:A1 0.000279744
2 *5011:X 0.000279744
3 *4244:A1 *949:14 2.13642e-05
4 *4875:D *4244:A1 5.18362e-05
5 *779:110 *4244:A1 1.82571e-05
*RES
1 *5011:X *4244:A1 11.76 
*END

*D_NET *884 0.00510239
*CONN
*I *4164:A1 I *D sky130_fd_sc_hd__mux2_1
*I *4258:A1 I *D sky130_fd_sc_hd__mux2_1
*I *5054:X O *D sky130_fd_sc_hd__clkbuf_1
*CAP
1 *4164:A1 0.000224343
2 *4258:A1 0.000204645
3 *5054:X 0.00131223
4 *884:16 0.00174122
5 *4164:A1 *4983:A 2.97004e-06
6 *4164:A1 *998:6 4.82919e-05
7 *4164:A1 *998:25 3.66286e-05
8 *4258:A1 *981:12 0.00024756
9 *4258:A1 *981:21 4.82863e-05
10 *884:16 *1000:37 0.000506266
11 *4258:S *4258:A1 5.83121e-06
12 *4259:B *4258:A1 0
13 *4841:CLK *884:16 0.000233741
14 *4841:D *884:16 0.000149154
15 *4985:A *884:16 9.13949e-06
16 *170:40 *4164:A1 3.1835e-05
17 *224:44 *4164:A1 0.000214281
18 *224:44 *4258:A1 3.31282e-05
19 *784:6 *884:16 2.19313e-05
20 *792:25 *4258:A1 3.09088e-05
*RES
1 *5054:X *884:16 24.12 
2 *884:16 *4258:A1 8.07 
3 *884:16 *4164:A1 8.835 
*END

*D_NET *885 0.00127947
*CONN
*I *4202:A1 I *D sky130_fd_sc_hd__o221a_1
*I *5012:X O *D sky130_fd_sc_hd__dlygate4sd3_1
*CAP
1 *4202:A1 0.00055041
2 *5012:X 0.00055041
3 *4202:A1 *5012:A 5.74817e-06
4 *4202:A1 *967:10 4.18005e-05
5 *4202:A2 *4202:A1 8.33066e-06
6 *4854:CLK *4202:A1 6.04361e-05
7 *4854:D *4202:A1 1.45551e-05
8 *4872:CLK *4202:A1 4.77769e-05
*RES
1 *5012:X *4202:A1 14.22 
*END

*D_NET *886 0.00104104
*CONN
*I *4238:A1 I *D sky130_fd_sc_hd__o221a_1
*I *5013:X O *D sky130_fd_sc_hd__dlygate4sd3_1
*CAP
1 *4238:A1 0.000271511
2 *5013:X 0.000271511
3 *4949:A *4238:A1 0.000498021
*RES
1 *5013:X *4238:A1 13.17 
*END

*D_NET *887 0.000202897
*CONN
*I *4212:A1 I *D sky130_fd_sc_hd__o221a_1
*I *5014:X O *D sky130_fd_sc_hd__dlygate4sd3_1
*CAP
1 *4212:A1 0.000101448
2 *5014:X 0.000101448
3 *4212:A1 *5071:A 0
4 *4212:C1 *4212:A1 0
*RES
1 *5014:X *4212:A1 8.58 
*END

*D_NET *888 0.000634026
*CONN
*I *4222:A1 I *D sky130_fd_sc_hd__o221a_1
*I *5015:X O *D sky130_fd_sc_hd__dlygate4sd3_1
*CAP
1 *4222:A1 0.000317013
2 *5015:X 0.000317013
3 *4222:A1 *5078:A 0
4 *4222:A2 *4222:A1 0
5 *4864:D *4222:A1 0
*RES
1 *5015:X *4222:A1 11.955 
*END

*D_NET *889 0.000415247
*CONN
*I *4216:A1 I *D sky130_fd_sc_hd__o221a_1
*I *5016:X O *D sky130_fd_sc_hd__dlygate4sd3_1
*CAP
1 *4216:A1 0.000186268
2 *5016:X 0.000186268
3 *4216:A2 *4216:A1 1.08758e-05
4 *4861:D *4216:A1 3.1835e-05
*RES
1 *5016:X *4216:A1 6.065 
*END

*D_NET *890 0.000442006
*CONN
*I *4206:A1 I *D sky130_fd_sc_hd__o221a_1
*I *5017:X O *D sky130_fd_sc_hd__dlygate4sd3_1
*CAP
1 *4206:A1 0.000211815
2 *5017:X 0.000211815
3 *4856:D *4206:A1 1.83756e-05
*RES
1 *5017:X *4206:A1 6.41 
*END

*D_NET *891 0.00145762
*CONN
*I *4242:A1 I *D sky130_fd_sc_hd__o221a_1
*I *5018:X O *D sky130_fd_sc_hd__dlygate4sd3_1
*CAP
1 *4242:A1 0.000502837
2 *5018:X 0.000502837
3 *4242:A1 *5018:A 5.74817e-06
4 *4874:D *4242:A1 2.01737e-05
5 *779:82 *4242:A1 3.33839e-05
6 *779:92 *4242:A1 3.54721e-05
7 *848:27 *4242:A1 0.000357163
*RES
1 *5018:X *4242:A1 15.465 
*END

*D_NET *892 0.000469575
*CONN
*I *4236:A1 I *D sky130_fd_sc_hd__o221a_1
*I *5019:X O *D sky130_fd_sc_hd__dlygate4sd3_1
*CAP
1 *4236:A1 0.000170306
2 *5019:X 0.000170306
3 *4202:C1 *4236:A1 4.77807e-05
4 *848:44 *4236:A1 8.11819e-05
*RES
1 *5019:X *4236:A1 6.08 
*END

*D_NET *893 0.00150959
*CONN
*I *4220:A1 I *D sky130_fd_sc_hd__o221a_1
*I *5020:X O *D sky130_fd_sc_hd__dlygate4sd3_1
*CAP
1 *4220:A1 0.000275045
2 *5020:X 0.000275045
3 *4220:A1 *4220:B1 0.000309381
4 *4220:A1 *4224:B1 0.000197264
5 *4220:A2 *4220:A1 4.21973e-05
6 *837:93 *4220:A1 6.55406e-05
7 *846:23 *4220:A1 0.000345116
*RES
1 *5020:X *4220:A1 14.55 
*END

*D_NET *894 0.00125176
*CONN
*I *4248:A1 I *D sky130_fd_sc_hd__o221a_1
*I *5021:X O *D sky130_fd_sc_hd__dlygate4sd3_1
*CAP
1 *4248:A1 0.000208627
2 *5021:X 0.000208627
3 *4248:A1 *4248:B1 2.75145e-05
4 *4248:A1 *5097:A 0
5 *4248:A1 *968:23 1.91597e-05
6 *4246:C1 *4248:A1 0.000237243
7 *4248:A2 *4248:A1 5.59592e-05
8 *839:114 *4248:A1 0.00049463
*RES
1 *5021:X *4248:A1 13.185 
*END

*D_NET *895 0.00603448
*CONN
*I *4260:A1 I *D sky130_fd_sc_hd__mux2_1
*I *4166:A1 I *D sky130_fd_sc_hd__mux2_1
*I *5055:X O *D sky130_fd_sc_hd__buf_1
*CAP
1 *4260:A1 0
2 *4166:A1 0.000251387
3 *5055:X 0.00175126
4 *895:20 0.00200265
5 *4166:A1 *4981:A 0
6 *4166:A1 *997:23 0.000199833
7 *4166:A1 *998:25 9.34067e-05
8 *895:20 *998:6 0.000353831
9 *895:20 *998:25 0.000313852
10 *4165:A *895:20 2.49909e-05
11 *4165:B *895:20 7.89304e-05
12 *4260:S *4166:A1 3.1226e-05
13 *4260:S *895:20 0.000347911
14 *4261:B *895:20 8.53113e-06
15 *4982:A *4166:A1 7.35729e-05
16 *170:40 *895:20 7.1907e-05
17 *170:55 *4166:A1 0.00023301
18 *170:55 *895:20 0.000198178
19 *224:44 *895:20 0
*RES
1 *5055:X *895:20 32.69 
2 *895:20 *4166:A1 11.84 
3 *895:20 *4260:A1 1.6 
*END

*D_NET *896 0.000840058
*CONN
*I *4234:A1 I *D sky130_fd_sc_hd__o221a_1
*I *5022:X O *D sky130_fd_sc_hd__dlygate4sd3_1
*CAP
1 *4234:A1 0.000339172
2 *5022:X 0.000339172
3 *4234:A1 *967:68 0.000116165
4 *4234:A1 *970:58 0
5 *4866:CLK *4234:A1 4.18603e-06
6 *837:89 *4234:A1 4.13628e-05
*RES
1 *5022:X *4234:A1 11.79 
*END

*D_NET *897 0.000963479
*CONN
*I *4240:A1 I *D sky130_fd_sc_hd__o221a_1
*I *5023:X O *D sky130_fd_sc_hd__dlygate4sd3_1
*CAP
1 *4240:A1 0.000270596
2 *5023:X 0.000270596
3 *4240:A1 *4240:B1 0
4 *4240:A1 *968:80 0.000132759
5 *4240:A1 *970:108 2.30292e-05
6 *4240:A1 *970:125 1.19928e-05
7 *4240:A2 *4240:A1 8.3877e-05
8 *4240:C1 *4240:A1 3.18219e-05
9 *4873:CLK *4240:A1 0.000138808
*RES
1 *5023:X *4240:A1 12 
*END

*D_NET *898 0.000423344
*CONN
*I *4210:A1 I *D sky130_fd_sc_hd__o221a_1
*I *5024:X O *D sky130_fd_sc_hd__dlygate4sd3_1
*CAP
1 *4210:A1 0.000148022
2 *5024:X 0.000148022
3 *4210:A1 *4210:B1 5.37194e-05
4 *778:67 *4210:A1 7.35813e-05
*RES
1 *5024:X *4210:A1 5.735 
*END

*D_NET *899 0.00023815
*CONN
*I *4246:A1 I *D sky130_fd_sc_hd__o221a_1
*I *5025:X O *D sky130_fd_sc_hd__dlygate4sd3_1
*CAP
1 *4246:A1 1.77416e-05
2 *5025:X 1.77416e-05
3 *4246:A1 *968:44 0.00012657
4 *4244:A2 *4246:A1 7.60965e-05
*RES
1 *5025:X *4246:A1 4.34 
*END

*D_NET *900 0.000880388
*CONN
*I *4208:A1 I *D sky130_fd_sc_hd__o221a_1
*I *5026:X O *D sky130_fd_sc_hd__dlygate4sd3_1
*CAP
1 *4208:A1 0.000318077
2 *5026:X 0.000318077
3 *4208:A1 *4207:B 0.000203114
4 *4208:B2 *4208:A1 4.11194e-05
5 *4941:A *4208:A1 0
*RES
1 *5026:X *4208:A1 11.79 
*END

*D_NET *901 0.00100485
*CONN
*I *4204:A1 I *D sky130_fd_sc_hd__o221a_1
*I *5027:X O *D sky130_fd_sc_hd__dlygate4sd3_1
*CAP
1 *4204:A1 0.000306149
2 *5027:X 0.000306149
3 *4204:A1 *966:84 0.000346381
4 *4204:A1 *971:70 4.61744e-05
*RES
1 *5027:X *4204:A1 11.79 
*END

*D_NET *902 0.000425687
*CONN
*I *4197:A1 I *D sky130_fd_sc_hd__o211a_1
*I *5028:X O *D sky130_fd_sc_hd__dlygate4sd3_1
*CAP
1 *4197:A1 9.29402e-05
2 *5028:X 9.29402e-05
3 *843:131 *4197:A1 0.000239807
*RES
1 *5028:X *4197:A1 5.375 
*END

*D_NET *903 0.000325905
*CONN
*I *4456:A2 I *D sky130_fd_sc_hd__o211a_1
*I *5029:X O *D sky130_fd_sc_hd__dlygate4sd3_1
*CAP
1 *4456:A2 0.000100591
2 *5029:X 0.000100591
3 *4456:A1 *4456:A2 7.47608e-05
4 *4456:C1 *4456:A2 4.99619e-05
*RES
1 *5029:X *4456:A2 5.045 
*END

*D_NET *904 0.000901722
*CONN
*I *4545:A2 I *D sky130_fd_sc_hd__o211a_1
*I *5030:X O *D sky130_fd_sc_hd__dlygate4sd3_1
*CAP
1 *4545:A2 0.000380409
2 *5030:X 0.000380409
3 *4545:B1 *4545:A2 0.000140905
*RES
1 *5030:X *4545:A2 12.045 
*END

*D_NET *905 0.00116477
*CONN
*I *4713:A2 I *D sky130_fd_sc_hd__o211a_1
*I *5031:X O *D sky130_fd_sc_hd__dlygate4sd3_1
*CAP
1 *4713:A2 0.000351859
2 *5031:X 0.000351859
3 *4713:A2 *4713:A1 3.95724e-05
4 *4713:A2 *971:87 0
5 *849:43 *4713:A2 3.26889e-05
6 *849:102 *4713:A2 0.00038879
*RES
1 *5031:X *4713:A2 13.965 
*END

*D_NET *906 0.00395494
*CONN
*I *4168:A1 I *D sky130_fd_sc_hd__mux2_1
*I *4262:A1 I *D sky130_fd_sc_hd__mux2_1
*I *5056:X O *D sky130_fd_sc_hd__clkbuf_1
*CAP
1 *4168:A1 0.000342613
2 *4262:A1 4.47623e-05
3 *5056:X 0.00115367
4 *906:10 0.00154105
5 *4168:A1 *4963:A 0
6 *4168:A1 *4979:A 8.8266e-05
7 *906:10 *4262:A0 9.05592e-05
8 *4168:S *4168:A1 0.000198945
9 *4263:B *906:10 3.72179e-05
10 *4264:S *4168:A1 0
11 *4844:CLK *4168:A1 0.000291467
12 *4977:A *4168:A1 6.27114e-05
13 *5056:A *906:10 1.83847e-05
14 *170:59 *4168:A1 0
15 *774:113 *4262:A1 8.52972e-05
16 *796:12 *4168:A1 0
*RES
1 *5056:X *906:10 21.87 
2 *906:10 *4262:A1 4.395 
3 *906:10 *4168:A1 11.91 
*END

*D_NET *907 0.00061861
*CONN
*I *4278:A2 I *D sky130_fd_sc_hd__o211a_1
*I *5032:X O *D sky130_fd_sc_hd__dlygate4sd3_1
*CAP
1 *4278:A2 0.000102704
2 *5032:X 0.000102704
3 *4278:A2 *972:51 0
4 *4278:A2 *1010:52 0.000140912
5 *182:53 *4278:A2 9.4087e-05
6 *808:8 *4278:A2 0.000124895
7 *841:18 *4278:A2 4.38051e-05
8 *841:22 *4278:A2 9.50342e-06
*RES
1 *5032:X *4278:A2 10.32 
*END

*D_NET *908 0.00113778
*CONN
*I *4293:A2 I *D sky130_fd_sc_hd__o211a_1
*I *5033:X O *D sky130_fd_sc_hd__dlygate4sd3_1
*CAP
1 *4293:A2 0.000274095
2 *5033:X 0.000274095
3 *4185:C1 *4293:A2 5.23362e-05
4 *4848:CLK *4293:A2 0.000159957
5 *775:26 *4293:A2 0.000131401
6 *843:50 *4293:A2 0.000245893
*RES
1 *5033:X *4293:A2 12.45 
*END

*D_NET *909 0.00117937
*CONN
*I *4313:A2 I *D sky130_fd_sc_hd__o211a_1
*I *5034:X O *D sky130_fd_sc_hd__dlygate4sd3_1
*CAP
1 *4313:A2 0.000390742
2 *5034:X 0.000390742
3 *4313:A2 *4313:A1 0.000191645
4 *4190:B1 *4313:A2 0
5 *4313:B1 *4313:A2 3.7837e-05
6 *4313:C1 *4313:A2 4.98756e-05
7 *844:22 *4313:A2 0.000118527
*RES
1 *5034:X *4313:A2 14.22 
*END

*D_NET *910 0.000795891
*CONN
*I *4815:A2 I *D sky130_fd_sc_hd__o211a_1
*I *5035:X O *D sky130_fd_sc_hd__dlygate4sd3_1
*CAP
1 *4815:A2 0.000259226
2 *5035:X 0.000259226
3 *4815:A2 *970:100 5.02217e-05
4 *4815:A1 *4815:A2 3.18915e-05
5 *4815:B1 *4815:A2 4.82863e-05
6 *4815:C1 *4815:A2 9.49342e-05
7 *849:12 *4815:A2 5.21046e-05
*RES
1 *5035:X *4815:A2 11.895 
*END

*D_NET *911 0.000908852
*CONN
*I *4799:A2 I *D sky130_fd_sc_hd__o211a_1
*I *5036:X O *D sky130_fd_sc_hd__dlygate4sd3_1
*CAP
1 *4799:A2 0.000257391
2 *5036:X 0.000257391
3 *4202:B2 *4799:A2 6.55406e-05
4 *4791:A2 *4799:A2 0.000228171
5 *4799:B1 *4799:A2 9.53428e-06
6 *845:88 *4799:A2 2.75145e-05
7 *845:103 *4799:A2 6.33103e-05
*RES
1 *5036:X *4799:A2 12.495 
*END

*D_NET *912 0.00122504
*CONN
*I *4371:A2 I *D sky130_fd_sc_hd__o211a_1
*I *5037:X O *D sky130_fd_sc_hd__dlygate4sd3_1
*CAP
1 *4371:A2 0.000367001
2 *5037:X 0.000367001
3 *4371:A2 *4834:B1 0.000178759
4 *4371:A2 *1010:131 6.47326e-05
5 *4371:C1 *4371:A2 5.32116e-05
6 *4891:D *4371:A2 4.92062e-05
7 *824:10 *4371:A2 4.05256e-05
8 *844:64 *4371:A2 0.000104599
*RES
1 *5037:X *4371:A2 14.91 
*END

*D_NET *913 0.000653921
*CONN
*I *4621:A2 I *D sky130_fd_sc_hd__o211a_1
*I *5038:X O *D sky130_fd_sc_hd__dlygate4sd3_1
*CAP
1 *4621:A2 0.000258557
2 *5038:X 0.000258557
3 *4619:A *4621:A2 1.31519e-05
4 *4621:B1 *4621:A2 9.53428e-06
5 *4897:D *4621:A2 4.82863e-05
6 *849:43 *4621:A2 6.58339e-05
*RES
1 *5038:X *4621:A2 7.115 
*END

*D_NET *914 0.00121272
*CONN
*I *4411:A2 I *D sky130_fd_sc_hd__o211a_1
*I *5039:X O *D sky130_fd_sc_hd__dlygate4sd3_1
*CAP
1 *4411:A2 0.000149204
2 *5039:X 0.000149204
3 *4411:A2 *4411:A1 9.53428e-06
4 *4411:A2 *4820:A1 0.00026033
5 *4411:A2 *4834:B1 0.000113797
6 *4411:A2 *1002:46 0
7 *4411:A2 *1009:80 3.00381e-05
8 *4244:C1 *4411:A2 0.000500609
*RES
1 *5039:X *4411:A2 13.185 
*END

*D_NET *915 0.00119755
*CONN
*I *4750:A2 I *D sky130_fd_sc_hd__o211a_1
*I *5040:X O *D sky130_fd_sc_hd__dlygate4sd3_1
*CAP
1 *4750:A2 0.000287386
2 *5040:X 0.000287386
3 *4750:A2 *970:33 0.000388784
4 *4750:B1 *4750:A2 0.000117832
5 *777:78 *4750:A2 0.000116165
*RES
1 *5040:X *4750:A2 12.135 
*END

*D_NET *916 0.00137078
*CONN
*I *4725:A2 I *D sky130_fd_sc_hd__o221a_1
*I *5041:X O *D sky130_fd_sc_hd__dlygate4sd3_1
*CAP
1 *4725:A2 0.000555799
2 *5041:X 0.000555799
3 *4725:B1 *4725:A2 3.09164e-05
4 *4901:CLK *4725:A2 0
5 *778:25 *4725:A2 0.000228262
*RES
1 *5041:X *4725:A2 14.46 
*END

*D_NET *917 0.00335477
*CONN
*I *4170:A1 I *D sky130_fd_sc_hd__mux2_1
*I *4264:A1 I *D sky130_fd_sc_hd__mux2_1
*I *5057:X O *D sky130_fd_sc_hd__clkbuf_1
*CAP
1 *4170:A1 0.000347161
2 *4264:A1 0
3 *5057:X 0.000976481
4 *917:10 0.00132364
5 *4170:A1 *4170:A0 1.4399e-05
6 *4170:A1 *975:12 0.000186725
7 *4170:A1 *975:105 0.000169591
8 *4168:S *4170:A1 3.26889e-05
9 *4171:B *4170:A1 0
10 *4264:S *4170:A1 0.000197601
11 *4264:S *917:10 9.12494e-06
12 *5057:A *917:10 1.83847e-05
13 *796:12 *4170:A1 7.89689e-05
*RES
1 *5057:X *917:10 19.05 
2 *917:10 *4264:A1 3.6 
3 *917:10 *4170:A1 12.42 
*END

*D_NET *918 0.000503663
*CONN
*I *4786:A2 I *D sky130_fd_sc_hd__o211a_1
*I *5042:X O *D sky130_fd_sc_hd__dlygate4sd3_1
*CAP
1 *4786:A2 0.000188817
2 *5042:X 0.000188817
3 *813:12 *4786:A2 0.000126028
*RES
1 *5042:X *4786:A2 6.425 
*END

*D_NET *919 0.00134396
*CONN
*I *4760:A2 I *D sky130_fd_sc_hd__o211a_1
*I *5043:X O *D sky130_fd_sc_hd__dlygate4sd3_1
*CAP
1 *4760:A2 0.000379088
2 *5043:X 0.000379088
3 *4760:B1 *4760:A2 0.000585789
4 *833:74 *4760:A2 0
*RES
1 *5043:X *4760:A2 12.825 
*END

*D_NET *920 0.000769507
*CONN
*I *4830:B I *D sky130_fd_sc_hd__nor2_1
*I *5044:X O *D sky130_fd_sc_hd__dlygate4sd3_1
*CAP
1 *4830:B 0.000105279
2 *5044:X 0.000105279
3 *4244:A2 *4830:B 0.000245199
4 *820:16 *4830:B 0.000187071
5 *820:36 *4830:B 0.000126679
*RES
1 *5044:X *4830:B 10.875 
*END

*D_NET *921 0.00134347
*CONN
*I *4819:B I *D sky130_fd_sc_hd__nor2_1
*I *5045:X O *D sky130_fd_sc_hd__dlygate4sd3_1
*CAP
1 *4819:B 0.000243989
2 *5045:X 0.000243989
3 *4819:A *4819:B 0.000463981
4 *4820:B1 *4819:B 4.06238e-05
5 *4915:CLK *4819:B 4.82863e-05
6 *4915:D *4819:B 1.43717e-05
7 *4938:A *4819:B 4.80085e-05
8 *818:8 *4819:B 4.9253e-06
9 *818:12 *4819:B 4.80085e-05
10 *835:27 *4819:B 0.000187281
*RES
1 *5045:X *4819:B 14.31 
*END

*D_NET *922 0.000149146
*CONN
*I *4803:B I *D sky130_fd_sc_hd__nor2_1
*I *5046:X O *D sky130_fd_sc_hd__dlygate4sd3_1
*CAP
1 *4803:B 3.04398e-05
2 *5046:X 3.04398e-05
3 *4804:A1 *4803:B 8.8266e-05
*RES
1 *5046:X *4803:B 3.995 
*END

*D_NET *923 5.97061e-05
*CONN
*I *4835:A I *D sky130_fd_sc_hd__nor2_1
*I *5047:X O *D sky130_fd_sc_hd__dlygate4sd3_1
*CAP
1 *4835:A 2.9853e-05
2 *5047:X 2.9853e-05
*RES
1 *5047:X *4835:A 3.65 
*END

*D_NET *924 0.00278886
*CONN
*I *4249:B I *D sky130_fd_sc_hd__and3_4
*I *4155:B I *D sky130_fd_sc_hd__and3_4
*I *4148:C I *D sky130_fd_sc_hd__and3_1
*I *4175:A_N I *D sky130_fd_sc_hd__nand2b_4
*I *4174:A_N I *D sky130_fd_sc_hd__and2b_4
*I *5058:X O *D sky130_fd_sc_hd__buf_1
*CAP
1 *4249:B 0.000199567
2 *4155:B 0
3 *4148:C 9.90992e-05
4 *4175:A_N 0
5 *4174:A_N 0
6 *5058:X 0.000202814
7 *924:32 0.000215676
8 *924:26 0.000387377
9 *924:17 0.000187489
10 *924:8 0.00031907
11 *4161:A *924:32 2.96297e-05
12 *4174:B *924:8 2.75229e-05
13 *4249:A *4249:B 0.000164874
14 *182:10 *4249:B 4.35348e-05
15 *831:18 *4148:C 0.00012458
16 *831:33 *4148:C 1.61831e-05
17 *831:33 *4249:B 0.000190633
18 *831:33 *924:26 4.66108e-05
19 *831:33 *924:32 0.000163019
20 *842:17 *4148:C 0.000371175
*RES
1 *5058:X *924:8 4.48 
2 *924:8 *4174:A_N 1.6 
3 *924:8 *924:17 1.845 
4 *924:17 *4175:A_N 1.6 
5 *924:17 *924:26 1.155 
6 *924:26 *924:32 6.655 
7 *924:32 *4148:C 5.5 
8 *924:32 *4155:B 1.6 
9 *924:26 *4249:B 5.5 
*END

*D_NET *925 0.00159711
*CONN
*I *4149:A I *D sky130_fd_sc_hd__or4b_1
*I *4172:A I *D sky130_fd_sc_hd__or3b_2
*I *4154:A I *D sky130_fd_sc_hd__nor4_1
*I *5059:X O *D sky130_fd_sc_hd__clkbuf_1
*CAP
1 *4149:A 0
2 *4172:A 0.000133152
3 *4154:A 0.000127646
4 *5059:X 0
5 *925:23 0.000481812
6 *925:4 0.000476307
7 *4172:A *4172:C_N 8.8266e-05
8 *4172:A *5096:A 8.65905e-05
9 *5059:A *4154:A 5.83121e-06
10 *164:14 *4172:A 0
11 *168:10 *4172:A 0
12 *168:10 *925:23 0
13 *169:26 *4172:A 9.37731e-05
14 *179:10 *4172:A 0
15 *830:10 *4154:A 5.2089e-05
16 *830:10 *925:23 0
17 *839:62 *4172:A 5.16418e-05
*RES
1 *5059:X *925:4 1.6 
2 *925:4 *4154:A 7.52 
3 *925:4 *925:23 6.245 
4 *925:23 *4172:A 6.795 
5 *925:23 *4149:A 3.6 
*END

*D_NET *926 0.000772165
*CONN
*I *4997:A I *D sky130_fd_sc_hd__dlygate4sd3_1
*I *5069:A I *D sky130_fd_sc_hd__buf_2
*I *4846:Q O *D sky130_fd_sc_hd__dfxtp_1
*CAP
1 *4997:A 0.000181006
2 *5069:A 0
3 *4846:Q 0.000182602
4 *926:12 0.000363607
5 *164:14 *926:12 4.49498e-05
*RES
1 *4846:Q *926:12 8.12 
2 *926:12 *5069:A 1.6 
3 *926:12 *4997:A 4.12 
*END

*D_NET *927 0.00149662
*CONN
*I *5017:A I *D sky130_fd_sc_hd__dlygate4sd3_1
*I *5070:A I *D sky130_fd_sc_hd__buf_2
*I *4856:Q O *D sky130_fd_sc_hd__dfxtp_1
*CAP
1 *5017:A 0.000182173
2 *5070:A 0.000223444
3 *4856:Q 0
4 *927:6 0.000405617
5 *5070:A *5008:A 6.29758e-05
6 *5070:A *5073:A 0
7 *5070:A *5074:A 0.000119374
8 rdata[10] *5017:A 4.4123e-05
9 rdata[10] *5070:A 0.000434694
10 rdata[11] *5070:A 2.42236e-05
*RES
1 *4856:Q *927:6 3.6 
2 *927:6 *5070:A 9.855 
3 *927:6 *5017:A 6.705 
*END

*D_NET *928 0.00221191
*CONN
*I *5026:A I *D sky130_fd_sc_hd__dlygate4sd3_1
*I *5071:A I *D sky130_fd_sc_hd__buf_2
*I *4857:Q O *D sky130_fd_sc_hd__dfxtp_1
*CAP
1 *5026:A 0.000224348
2 *5071:A 0.000793189
3 *4857:Q 0
4 *928:6 0.00101754
5 *5026:A *971:91 0
6 *5071:A *5073:A 0.000119631
7 *5071:A *930:12 5.72004e-05
8 *5071:A *971:91 0
9 *4212:A1 *5071:A 0
*RES
1 *4857:Q *928:6 3.6 
2 *928:6 *5071:A 19.51 
3 *928:6 *5026:A 7.05 
*END

*D_NET *929 0.000895644
*CONN
*I *5072:A I *D sky130_fd_sc_hd__buf_2
*I *5024:A I *D sky130_fd_sc_hd__dlygate4sd3_1
*I *4858:Q O *D sky130_fd_sc_hd__dfxtp_1
*CAP
1 *5072:A 0.000314497
2 *5024:A 0.000133325
3 *4858:Q 0
4 *929:4 0.000447822
5 *4859:D *5024:A 0
6 *778:67 *5024:A 0
*RES
1 *4858:Q *929:4 1.6 
2 *929:4 *5024:A 7.43 
3 *929:4 *5072:A 6.46 
*END

*D_NET *930 0.00132555
*CONN
*I *5014:A I *D sky130_fd_sc_hd__dlygate4sd3_1
*I *5073:A I *D sky130_fd_sc_hd__buf_2
*I *4859:Q O *D sky130_fd_sc_hd__dfxtp_1
*CAP
1 *5014:A 0
2 *5073:A 0.000243499
3 *4859:Q 0.000179288
4 *930:12 0.000422787
5 rdata[11] *5073:A 0
6 rdata[11] *930:12 0.000138961
7 rdata[12] *930:12 0.000106338
8 rdata[13] *5073:A 5.78448e-05
9 *4212:C1 *5073:A 0
10 *5070:A *5073:A 0
11 *5071:A *5073:A 0.000119631
12 *5071:A *930:12 5.72004e-05
*RES
1 *4859:Q *930:12 9.725 
2 *930:12 *5073:A 10.265 
3 *930:12 *5014:A 1.6 
*END

*D_NET *931 0.000823876
*CONN
*I *5008:A I *D sky130_fd_sc_hd__dlygate4sd3_1
*I *5074:A I *D sky130_fd_sc_hd__buf_2
*I *4860:Q O *D sky130_fd_sc_hd__dfxtp_1
*CAP
1 *5008:A 5.60374e-05
2 *5074:A 0.000198006
3 *4860:Q 0
4 *931:6 0.000254043
5 rdata[14] *5008:A 2.57244e-05
6 rdata[14] *5074:A 0.000107716
7 *5070:A *5008:A 6.29758e-05
8 *5070:A *5074:A 0.000119374
*RES
1 *4860:Q *931:6 3.6 
2 *931:6 *5074:A 7.95 
3 *931:6 *5008:A 4.98 
*END

*D_NET *932 0.000635054
*CONN
*I *5075:A I *D sky130_fd_sc_hd__buf_2
*I *5016:A I *D sky130_fd_sc_hd__dlygate4sd3_1
*I *4861:Q O *D sky130_fd_sc_hd__dfxtp_1
*CAP
1 *5075:A 0.000173097
2 *5016:A 0
3 *4861:Q 0.00014443
4 *932:10 0.000317527
5 rdata[15] *5075:A 0
*RES
1 *4861:Q *932:10 5.685 
2 *932:10 *5016:A 3.6 
3 *932:10 *5075:A 6.285 
*END

*D_NET *933 0.0010639
*CONN
*I *5007:A I *D sky130_fd_sc_hd__dlygate4sd3_1
*I *5076:A I *D sky130_fd_sc_hd__buf_2
*I *4862:Q O *D sky130_fd_sc_hd__dfxtp_1
*CAP
1 *5007:A 0
2 *5076:A 0.000178634
3 *4862:Q 0.000338296
4 *933:10 0.00051693
5 *4218:A1 *5076:A 3.00381e-05
*RES
1 *4862:Q *933:10 6.64 
2 *933:10 *5076:A 4.465 
3 *933:10 *5007:A 1.6 
*END

*D_NET *934 0.000866985
*CONN
*I *5077:A I *D sky130_fd_sc_hd__buf_2
*I *5020:A I *D sky130_fd_sc_hd__dlygate4sd3_1
*I *4863:Q O *D sky130_fd_sc_hd__dfxtp_1
*CAP
1 *5077:A 0.000230816
2 *5020:A 0
3 *4863:Q 0.000202676
4 *934:8 0.000433493
*RES
1 *4863:Q *934:8 4.48 
2 *934:8 *5020:A 1.6 
3 *934:8 *5077:A 5.17 
*END

*D_NET *935 0.000599173
*CONN
*I *5078:A I *D sky130_fd_sc_hd__buf_2
*I *5015:A I *D sky130_fd_sc_hd__dlygate4sd3_1
*I *4864:Q O *D sky130_fd_sc_hd__dfxtp_1
*CAP
1 *5078:A 0.000159167
2 *5015:A 0
3 *4864:Q 0.000126671
4 *935:10 0.000285838
5 rdata[18] *5078:A 1.88271e-05
6 rdata[9] *935:10 8.66976e-06
7 *4222:A1 *5078:A 0
*RES
1 *4864:Q *935:10 5.43 
2 *935:10 *5015:A 3.6 
3 *935:10 *5078:A 6.195 
*END

*D_NET *936 0.00172288
*CONN
*I *4149:C I *D sky130_fd_sc_hd__or4b_1
*I *4154:C I *D sky130_fd_sc_hd__nor4_1
*I *4172:C_N I *D sky130_fd_sc_hd__or3b_2
*I *5060:X O *D sky130_fd_sc_hd__clkbuf_1
*CAP
1 *4149:C 0.000134465
2 *4154:C 0
3 *4172:C_N 0.000198158
4 *5060:X 7.59747e-05
5 *936:21 0.000267282
6 *936:8 0.000406949
7 *4172:C_N *5096:A 0.000153482
8 *4154:D *4149:C 6.77501e-05
9 *4172:A *4172:C_N 8.8266e-05
10 *164:14 *4149:C 5.48629e-05
11 *164:14 *936:8 0
12 *164:14 *936:21 0
13 *169:26 *4149:C 0.000162311
14 *179:10 *4172:C_N 8.57024e-05
15 *830:25 *4149:C 2.76781e-05
*RES
1 *5060:X *936:8 4.725 
2 *936:8 *4172:C_N 7.515 
3 *936:8 *936:21 1.89 
4 *936:21 *4154:C 3.6 
5 *936:21 *4149:C 6.6 
*END

*D_NET *937 0.000748248
*CONN
*I *5079:A I *D sky130_fd_sc_hd__buf_2
*I *5005:A I *D sky130_fd_sc_hd__dlygate4sd3_1
*I *4865:Q O *D sky130_fd_sc_hd__dfxtp_1
*CAP
1 *5079:A 9.02334e-05
2 *5005:A 0.000160215
3 *4865:Q 0.00010704
4 *937:8 0.000357488
5 rdata[19] *5079:A 3.32709e-05
6 *4224:A1 *5005:A 0
*RES
1 *4865:Q *937:8 4.74 
2 *937:8 *5005:A 6.255 
3 *937:8 *5079:A 5.235 
*END

*D_NET *938 0.00128839
*CONN
*I *4998:A I *D sky130_fd_sc_hd__dlygate4sd3_1
*I *5080:A I *D sky130_fd_sc_hd__buf_2
*I *4847:Q O *D sky130_fd_sc_hd__dfxtp_1
*CAP
1 *4998:A 0.000294108
2 *5080:A 0.000129763
3 *4847:Q 0.000107051
4 *938:6 0.000530922
5 rdata[1] *5080:A 0
6 *164:14 *4998:A 0
7 *164:14 *5080:A 0.000108031
8 *839:40 *4998:A 0.00011852
*RES
1 *4847:Q *938:6 2.74 
2 *938:6 *5080:A 8.51 
3 *938:6 *4998:A 9.5 
*END

*D_NET *939 0.00105672
*CONN
*I *5003:A I *D sky130_fd_sc_hd__dlygate4sd3_1
*I *5081:A I *D sky130_fd_sc_hd__buf_2
*I *4866:Q O *D sky130_fd_sc_hd__dfxtp_1
*CAP
1 *5003:A 0
2 *5081:A 0.000190064
3 *4866:Q 0.000338296
4 *939:10 0.00052836
*RES
1 *4866:Q *939:10 6.64 
2 *939:10 *5081:A 4.465 
3 *939:10 *5003:A 1.6 
*END

*D_NET *940 0.000629552
*CONN
*I *5004:A I *D sky130_fd_sc_hd__dlygate4sd3_1
*I *5082:A I *D sky130_fd_sc_hd__buf_2
*I *4867:Q O *D sky130_fd_sc_hd__dfxtp_1
*CAP
1 *5004:A 0.000111952
2 *5082:A 8.26316e-05
3 *4867:Q 8.3179e-05
4 *940:8 0.000277762
5 rdata[21] *940:8 7.4027e-05
6 *4228:A1 *5004:A 0
7 *4228:A1 *940:8 0
*RES
1 *4867:Q *940:8 5.235 
2 *940:8 *5082:A 4.74 
3 *940:8 *5004:A 5.49 
*END

*D_NET *941 0.000316462
*CONN
*I *5083:A I *D sky130_fd_sc_hd__buf_2
*I *5006:A I *D sky130_fd_sc_hd__dlygate4sd3_1
*I *4868:Q O *D sky130_fd_sc_hd__dfxtp_1
*CAP
1 *5083:A 0
2 *5006:A 2.9853e-05
3 *4868:Q 0.000106556
4 *941:12 0.000136409
5 rdata[22] *941:12 4.36438e-05
6 *4230:A1 *941:12 0
*RES
1 *4868:Q *941:12 7.43 
2 *941:12 *5006:A 2.05 
3 *941:12 *5083:A 1.6 
*END

*D_NET *942 0.00112257
*CONN
*I *5084:A I *D sky130_fd_sc_hd__buf_2
*I *5009:A I *D sky130_fd_sc_hd__dlygate4sd3_1
*I *4869:Q O *D sky130_fd_sc_hd__dfxtp_1
*CAP
1 *5084:A 0.000209377
2 *5009:A 0.000174004
3 *4869:Q 0.000138017
4 *942:8 0.000521398
5 *942:8 *967:64 7.97759e-05
*RES
1 *4869:Q *942:8 5.43 
2 *942:8 *5009:A 6.255 
3 *942:8 *5084:A 7.02 
*END

*D_NET *943 0.00181459
*CONN
*I *5085:A I *D sky130_fd_sc_hd__buf_2
*I *5022:A I *D sky130_fd_sc_hd__dlygate4sd3_1
*I *4870:Q O *D sky130_fd_sc_hd__dfxtp_1
*CAP
1 *5085:A 0.000742356
2 *5022:A 0.000162023
3 *4870:Q 0
4 *943:4 0.000904379
5 *5022:A *967:87 5.83121e-06
6 *5022:A *970:58 0
*RES
1 *4870:Q *943:4 1.6 
2 *943:4 *5022:A 7.775 
3 *943:4 *5085:A 9.91 
*END

*D_NET *944 0.00246012
*CONN
*I *5086:A I *D sky130_fd_sc_hd__buf_2
*I *5019:A I *D sky130_fd_sc_hd__dlygate4sd3_1
*I *4871:Q O *D sky130_fd_sc_hd__dfxtp_1
*CAP
1 *5086:A 0.000233769
2 *5019:A 0.000234285
3 *4871:Q 0.00023327
4 *944:8 0.000701324
5 *5019:A *4957:A 9.29903e-05
6 *5019:A *967:22 7.03276e-05
7 *5086:A *4957:A 0.000144963
8 rdata[25] *5086:A 2.5238e-05
9 rdata[8] *5086:A 9.88165e-05
10 *4202:A2 *5019:A 2.4002e-05
11 *4202:B2 *5019:A 0.000157396
12 *4872:CLK *5019:A 3.59784e-05
13 *4872:CLK *944:8 0.000341439
14 *779:158 *944:8 6.63221e-05
*RES
1 *4871:Q *944:8 7.845 
2 *944:8 *5019:A 11.59 
3 *944:8 *5086:A 8.415 
*END

*D_NET *945 0.00122111
*CONN
*I *5013:A I *D sky130_fd_sc_hd__dlygate4sd3_1
*I *5087:A I *D sky130_fd_sc_hd__buf_2
*I *4872:Q O *D sky130_fd_sc_hd__dfxtp_1
*CAP
1 *5013:A 0.000219719
2 *5087:A 0.000334351
3 *4872:Q 0
4 *945:4 0.000554071
5 *5013:A *967:41 0.000112973
*RES
1 *4872:Q *945:4 1.6 
2 *945:4 *5087:A 10.85 
3 *945:4 *5013:A 4.735 
*END

*D_NET *946 0.00185444
*CONN
*I *5023:A I *D sky130_fd_sc_hd__dlygate4sd3_1
*I *5088:A I *D sky130_fd_sc_hd__buf_2
*I *4873:Q O *D sky130_fd_sc_hd__dfxtp_1
*CAP
1 *5023:A 0.000148771
2 *5088:A 0.000546657
3 *4873:Q 0
4 *946:4 0.000695428
5 rdata[28] *5088:A 2.2016e-05
6 *4240:A2 *5088:A 2.55603e-05
7 *4240:C1 *5088:A 3.18248e-05
8 *4873:CLK *5023:A 0.000241483
9 *4873:CLK *5088:A 7.67345e-05
10 *848:27 *5088:A 6.5961e-05
*RES
1 *4873:Q *946:4 1.6 
2 *946:4 *5088:A 14.93 
3 *946:4 *5023:A 4.735 
*END

*D_NET *947 0.0010488
*CONN
*I *4153:A I *D sky130_fd_sc_hd__or2_1
*I *4146:A I *D sky130_fd_sc_hd__inv_2
*I *5061:X O *D sky130_fd_sc_hd__clkbuf_1
*CAP
1 *4153:A 0.000268957
2 *4146:A 3.55506e-05
3 *5061:X 7.22434e-05
4 *947:6 0.000376751
5 *4151:A *4153:A 4.60584e-05
6 *4153:B *4153:A 0.000203178
7 *167:6 *4153:A 4.60584e-05
*RES
1 *5061:X *947:6 2.395 
2 *947:6 *4146:A 2.215 
3 *947:6 *4153:A 5.515 
*END

*D_NET *948 0.000856534
*CONN
*I *5018:A I *D sky130_fd_sc_hd__dlygate4sd3_1
*I *5089:A I *D sky130_fd_sc_hd__buf_2
*I *4874:Q O *D sky130_fd_sc_hd__dfxtp_1
*CAP
1 *5018:A 0.000257791
2 *5089:A 0.000167602
3 *4874:Q 0
4 *948:4 0.000425393
5 *4242:A1 *5018:A 5.74817e-06
*RES
1 *4874:Q *948:4 1.6 
2 *948:4 *5089:A 8.12 
3 *948:4 *5018:A 4.735 
*END

*D_NET *949 0.0011394
*CONN
*I *5090:A I *D sky130_fd_sc_hd__buf_2
*I *5011:A I *D sky130_fd_sc_hd__dlygate4sd3_1
*I *4875:Q O *D sky130_fd_sc_hd__dfxtp_1
*CAP
1 *5090:A 0.00023747
2 *5011:A 0
3 *4875:Q 0.000282381
4 *949:14 0.000519852
5 rdata[29] *5090:A 7.83354e-05
6 *4244:A1 *949:14 2.13642e-05
*RES
1 *4875:Q *949:14 7.62 
2 *949:14 *5011:A 3.6 
3 *949:14 *5090:A 7.665 
*END

*D_NET *950 0.0011978
*CONN
*I *5091:A I *D sky130_fd_sc_hd__buf_2
*I *5000:A I *D sky130_fd_sc_hd__dlygate4sd3_1
*I *4848:Q O *D sky130_fd_sc_hd__dfxtp_1
*CAP
1 *5091:A 0.000210562
2 *5000:A 0.000125295
3 *4848:Q 0.000209871
4 *950:8 0.000545728
5 rdata[2] *5091:A 0.000106344
6 *164:14 *5091:A 0
7 *164:14 *950:8 0
*RES
1 *4848:Q *950:8 7.02 
2 *950:8 *5000:A 5.43 
3 *950:8 *5091:A 7.14 
*END

*D_NET *951 0.00193989
*CONN
*I *5092:A I *D sky130_fd_sc_hd__buf_2
*I *5025:A I *D sky130_fd_sc_hd__dlygate4sd3_1
*I *4876:Q O *D sky130_fd_sc_hd__dfxtp_1
*CAP
1 *5092:A 0.000575867
2 *5025:A 0.000193763
3 *4876:Q 4.18693e-05
4 *951:8 0.000811499
5 *5025:A *968:44 0.000163199
6 *5025:A *972:144 0
7 *4244:A2 *5025:A 9.4087e-05
8 *4245:A *5025:A 0
9 *4245:A *5092:A 0
10 *4246:B2 *5025:A 0
11 *4246:B2 *951:8 5.36384e-06
12 *4876:D *5025:A 5.42473e-05
*RES
1 *4876:Q *951:8 4.05 
2 *951:8 *5025:A 7.995 
3 *951:8 *5092:A 13.14 
*END

*D_NET *952 0.00226329
*CONN
*I *5093:A I *D sky130_fd_sc_hd__buf_2
*I *5021:A I *D sky130_fd_sc_hd__dlygate4sd3_1
*I *4877:Q O *D sky130_fd_sc_hd__dfxtp_1
*CAP
1 *5093:A 0.000604708
2 *5021:A 0.000145501
3 *4877:Q 0
4 *952:6 0.000750209
5 *5021:A *5097:A 2.15738e-05
6 *5093:A *5097:A 0.000303842
7 rdata[6] *5093:A 0.000121036
8 *4876:CLK *5021:A 0.000316421
*RES
1 *4877:Q *952:6 3.6 
2 *952:6 *5021:A 7.08 
3 *952:6 *5093:A 15.765 
*END

*D_NET *953 0.000447939
*CONN
*I *4999:A I *D sky130_fd_sc_hd__dlygate4sd3_1
*I *5094:A I *D sky130_fd_sc_hd__buf_2
*I *4849:Q O *D sky130_fd_sc_hd__dfxtp_1
*CAP
1 *4999:A 8.34255e-05
2 *5094:A 0
3 *4849:Q 9.78011e-05
4 *953:12 0.000181227
5 rdata[3] *953:12 4.05358e-05
6 *164:14 *953:12 4.49498e-05
*RES
1 *4849:Q *953:12 7.43 
2 *953:12 *5094:A 1.6 
3 *953:12 *4999:A 2.74 
*END

*D_NET *954 0.00219704
*CONN
*I *5002:A I *D sky130_fd_sc_hd__dlygate4sd3_1
*I *5095:A I *D sky130_fd_sc_hd__buf_2
*I *4850:Q O *D sky130_fd_sc_hd__dfxtp_1
*CAP
1 *5002:A 0.000232218
2 *5095:A 0.000859105
3 *4850:Q 0
4 *954:4 0.00109132
5 *843:10 *5095:A 1.4399e-05
*RES
1 *4850:Q *954:4 1.6 
2 *954:4 *5095:A 13.81 
3 *954:4 *5002:A 9.065 
*END

*D_NET *955 0.00200471
*CONN
*I *5001:A I *D sky130_fd_sc_hd__dlygate4sd3_1
*I *5096:A I *D sky130_fd_sc_hd__buf_2
*I *4851:Q O *D sky130_fd_sc_hd__dfxtp_1
*CAP
1 *5001:A 6.29418e-05
2 *5096:A 0.00028752
3 *4851:Q 7.77769e-05
4 *955:10 0.000428238
5 *955:10 *1010:22 5.72004e-05
6 *4172:A *5096:A 8.65905e-05
7 *4172:C_N *5096:A 0.000153482
8 *169:26 *5096:A 4.0843e-05
9 *179:10 *5096:A 0.000110549
10 *180:12 *955:10 0
11 *839:62 *5001:A 0.000160125
12 *839:62 *5096:A 0.000539443
*RES
1 *4851:Q *955:10 7.235 
2 *955:10 *5096:A 9.655 
3 *955:10 *5001:A 3.085 
*END

*D_NET *956 0.00371846
*CONN
*I *5097:A I *D sky130_fd_sc_hd__buf_2
*I *5028:A I *D sky130_fd_sc_hd__dlygate4sd3_1
*I *4852:Q O *D sky130_fd_sc_hd__dfxtp_1
*CAP
1 *5097:A 0.000923064
2 *5028:A 0.000134682
3 *4852:Q 0
4 *956:6 0.00105775
5 *5097:A *968:10 0.000169542
6 rdata[6] *5097:A 5.0096e-05
7 *4248:A1 *5097:A 0
8 *5021:A *5097:A 2.15738e-05
9 *5093:A *5097:A 0.000303842
10 *199:10 *5097:A 0
11 *843:131 *5028:A 0.000233925
12 *843:131 *5097:A 0.00082399
*RES
1 *4852:Q *956:6 3.6 
2 *956:6 *5028:A 6.705 
3 *956:6 *5097:A 25.38 
*END

*D_NET *957 0.00131467
*CONN
*I *5098:A I *D sky130_fd_sc_hd__buf_2
*I *5010:A I *D sky130_fd_sc_hd__dlygate4sd3_1
*I *4853:Q O *D sky130_fd_sc_hd__dfxtp_1
*CAP
1 *5098:A 0.000174251
2 *5010:A 0.000173985
3 *4853:Q 3.72359e-05
4 *957:8 0.000385472
5 *5010:A *968:70 0.000120417
6 rdata[7] *5098:A 5.20249e-05
7 *4951:A *5010:A 0.000221846
8 *4951:A *5098:A 0.000131525
9 *848:19 *957:8 1.79098e-05
*RES
1 *4853:Q *957:8 4.05 
2 *957:8 *5010:A 7.395 
3 *957:8 *5098:A 7.02 
*END

*D_NET *958 0.00142336
*CONN
*I *4150:B I *D sky130_fd_sc_hd__or4_1
*I *5062:X O *D sky130_fd_sc_hd__clkbuf_1
*CAP
1 *4150:B 0.000392266
2 *5062:X 0.000392266
3 *4150:B *4150:A 2.03321e-05
4 *4150:B *4150:C 0.000499083
5 *4150:B *4150:D 9.54469e-05
6 ready *4150:B 0
7 *5064:A *4150:B 2.39692e-05
*RES
1 *5062:X *4150:B 15.915 
*END

*D_NET *959 0.000760841
*CONN
*I *5012:A I *D sky130_fd_sc_hd__dlygate4sd3_1
*I *5099:A I *D sky130_fd_sc_hd__buf_2
*I *4854:Q O *D sky130_fd_sc_hd__dfxtp_1
*CAP
1 *5012:A 0.000230068
2 *5099:A 0.000147478
3 *4854:Q 0
4 *959:4 0.000377546
5 *4202:A1 *5012:A 5.74817e-06
*RES
1 *4854:Q *959:4 1.6 
2 *959:4 *5099:A 7.775 
3 *959:4 *5012:A 4.84 
*END

*D_NET *960 0.00180202
*CONN
*I *5100:A I *D sky130_fd_sc_hd__buf_2
*I *5027:A I *D sky130_fd_sc_hd__dlygate4sd3_1
*I *4855:Q O *D sky130_fd_sc_hd__dfxtp_1
*CAP
1 *5100:A 0.000561738
2 *5027:A 0
3 *4855:Q 0.000116456
4 *960:10 0.000678194
5 *5100:A *4222:B1 0.000185405
6 *960:10 *4222:B1 2.23922e-05
7 *960:10 *966:80 9.37731e-05
8 *4222:B2 *5100:A 1.56428e-05
9 *838:103 *960:10 9.76295e-06
10 *846:29 *5100:A 7.24866e-05
11 *846:29 *960:10 4.61744e-05
*RES
1 *4855:Q *960:10 5.775 
2 *960:10 *5027:A 3.6 
3 *960:10 *5100:A 13.215 
*END

*D_NET *961 0.0116154
*CONN
*I *4793:B I *D sky130_fd_sc_hd__nand2_1
*I *4807:B1 I *D sky130_fd_sc_hd__o41a_1
*I *4809:B I *D sky130_fd_sc_hd__and2_1
*I *4826:B1 I *D sky130_fd_sc_hd__o21ai_1
*I *4821:B I *D sky130_fd_sc_hd__nor2_1
*I *4822:B I *D sky130_fd_sc_hd__and2_1
*I *4832:B I *D sky130_fd_sc_hd__xnor2_1
*I *4810:B I *D sky130_fd_sc_hd__nor2_1
*I *4816:B I *D sky130_fd_sc_hd__xor2_1
*I *4800:B I *D sky130_fd_sc_hd__xnor2_1
*I *4952:X O *D sky130_fd_sc_hd__buf_2
*CAP
1 *4793:B 0
2 *4807:B1 3.27993e-05
3 *4809:B 0
4 *4826:B1 0
5 *4821:B 0
6 *4822:B 0
7 *4832:B 0.000193228
8 *4810:B 1.73849e-05
9 *4816:B 0.000115186
10 *4800:B 0.000247027
11 *4952:X 0
12 *961:79 0.000232219
13 *961:77 0.000253947
14 *961:65 0.000558597
15 *961:52 0.000380855
16 *961:50 0.000242527
17 *961:35 0.000616405
18 *961:27 0.000439814
19 *961:23 0.000505384
20 *961:6 0.000623917
21 *4800:B *970:27 0.000118527
22 *961:23 *4236:B1 0
23 *961:23 *970:27 0.000229203
24 *961:50 *970:100 0.000437361
25 *4794:B *961:23 0.000163199
26 *4794:B *961:27 1.46828e-05
27 *4801:B1 *961:27 8.63479e-05
28 *4805:D *961:23 0
29 *4807:A1 *961:27 4.66108e-05
30 *4807:A2 *961:27 1.81431e-05
31 *4807:A3 *961:27 4.82919e-05
32 *4807:A4 *4807:B1 4.9559e-06
33 *4807:A4 *961:27 6.07575e-06
34 *4810:A *961:65 0
35 *4811:B *4810:B 8.40213e-05
36 *4811:B *961:52 4.66108e-05
37 *4811:B *961:65 5.4155e-06
38 *4818:B *961:50 0.000166935
39 *4822:A *4832:B 0
40 *4822:A *961:77 4.4465e-05
41 *4822:A *961:79 4.99619e-05
42 *4826:A2 *961:65 0.000347023
43 *4827:A1 *961:65 9.80943e-06
44 *4827:A1 *961:77 2.55587e-05
45 *4827:A2 *961:65 2.05056e-05
46 *4827:A2 *961:77 8.8266e-05
47 *4827:B1 *961:65 0
48 *4827:B1 *961:77 9.22715e-05
49 *4833:B1 *4832:B 0.00012657
50 *4834:A1 *4832:B 0.000123225
51 *4834:A3 *4832:B 0.000162311
52 *4836:A2 *4832:B 0.000198186
53 *183:53 *961:35 0.000633226
54 *737:12 *961:23 9.19221e-05
55 *740:10 *4800:B 4.82919e-05
56 *740:10 *961:23 0
57 *745:24 *4807:B1 4.41761e-05
58 *745:24 *961:23 8.95933e-05
59 *745:24 *961:27 0.000375056
60 *754:12 *4816:B 0.000232111
61 *754:12 *961:35 3.66286e-05
62 *754:12 *961:50 0.00015998
63 *764:6 *961:77 3.9806e-05
64 *764:12 *4832:B 2.57314e-05
65 *764:12 *961:77 0.000392136
66 *764:12 *961:79 6.52265e-05
67 *772:94 *961:23 6.06573e-05
68 *779:10 *961:35 0.000132865
69 *817:14 *4810:B 4.82863e-05
70 *817:14 *961:65 0.000114024
71 *818:8 *4816:B 0
72 *820:16 *961:77 8.65905e-05
73 *835:27 *4816:B 0.000344454
74 *835:27 *961:35 0.000347917
75 *835:54 *961:35 0.00076095
76 *836:46 *961:35 0.000152088
77 *849:12 *961:50 0.000109825
*RES
1 *4952:X *961:6 3.6 
2 *961:6 *4800:B 7.845 
3 *961:6 *961:23 10.22 
4 *961:23 *961:27 3.915 
5 *961:27 *961:35 15.745 
6 *961:35 *4816:B 5.17 
7 *961:35 *961:50 12.265 
8 *961:50 *961:52 0.45 
9 *961:52 *4810:B 2.395 
10 *961:52 *961:65 6.255 
11 *961:65 *961:77 6.57 
12 *961:77 *961:79 1.14 
13 *961:79 *4832:B 7.375 
14 *961:79 *4822:B 1.6 
15 *961:77 *4821:B 1.6 
16 *961:65 *4826:B1 1.6 
17 *961:50 *4809:B 1.6 
18 *961:27 *4807:B1 2.53 
19 *961:23 *4793:B 1.6 
*END

*D_NET *962 0.0142108
*CONN
*I *4766:B I *D sky130_fd_sc_hd__or2_1
*I *4762:A2 I *D sky130_fd_sc_hd__a21bo_1
*I *4761:B I *D sky130_fd_sc_hd__xnor2_1
*I *4746:B I *D sky130_fd_sc_hd__xnor2_1
*I *4780:B1 I *D sky130_fd_sc_hd__o41ai_2
*I *4796:A2_N I *D sky130_fd_sc_hd__a2bb2o_4
*I *4787:B I *D sky130_fd_sc_hd__xnor2_1
*I *4788:A2 I *D sky130_fd_sc_hd__a21boi_1
*I *4795:B1 I *D sky130_fd_sc_hd__o21ai_1
*I *4779:B I *D sky130_fd_sc_hd__xnor2_1
*I *4953:X O *D sky130_fd_sc_hd__buf_4
*CAP
1 *4766:B 0.000186285
2 *4762:A2 0.000304257
3 *4761:B 0.000449137
4 *4746:B 0.000482763
5 *4780:B1 2.08101e-05
6 *4796:A2_N 0
7 *4787:B 0.00024905
8 *4788:A2 0
9 *4795:B1 1.36534e-05
10 *4779:B 0.000117101
11 *4953:X 0
12 *962:90 0.00101321
13 *962:88 0.000454571
14 *962:86 0.000669794
15 *962:75 0.000622258
16 *962:51 0.00039434
17 *962:38 0.000166994
18 *962:34 0.000345072
19 *962:21 0.000482954
20 *962:4 0.000449976
21 *4746:B *963:23 0
22 *4762:A2 *4769:B1 4.82919e-05
23 *4766:B *4774:B 4.66108e-05
24 *4787:B *1002:28 0.000543589
25 *962:90 *963:23 0
26 *4746:A *4746:B 8.65905e-05
27 *4759:A1 *4746:B 6.23119e-05
28 *4762:B1_N *4762:A2 8.65905e-05
29 *4769:A1 *4766:B 0
30 *4769:A1 *962:88 0
31 *4769:A1 *962:90 0
32 *4770:B2 *4762:A2 0.000275553
33 *4779:A *4779:B 0.000278117
34 *4779:A *962:21 1.34503e-05
35 *4780:A1 *962:86 4.99619e-05
36 *4780:A2 *4766:B 2.34423e-05
37 *4780:A2 *962:86 0.000269974
38 *4780:A3 *4780:B1 0
39 *4780:A3 *962:86 1.19928e-05
40 *4780:A4 *962:86 8.65905e-05
41 *4781:A *4746:B 0.00011579
42 *4781:A *4761:B 4.66742e-05
43 *4781:C *4746:B 5.12017e-06
44 *4781:D *4746:B 3.09164e-05
45 *4781:D *4766:B 0.000329681
46 *4781:D *962:88 0.000132096
47 *4781:D *962:90 0.000153794
48 *4785:A1 *962:21 6.47594e-05
49 *4788:B1_N *962:51 8.65961e-05
50 *4789:A *4787:B 0.000102014
51 *4796:B2 *962:51 4.82863e-05
52 *4805:B *4787:B 0.000177495
53 *4925:A *4787:B 0.000210151
54 *4926:A *962:38 4.66108e-05
55 *4926:A *962:51 0.000300421
56 *183:53 *4795:B1 4.66108e-05
57 *183:53 *962:34 0.000377026
58 *671:39 *4746:B 0.000672636
59 *694:8 *4746:B 4.82919e-05
60 *703:12 *4746:B 0.000105068
61 *707:6 *4761:B 9.3305e-05
62 *707:23 *4761:B 2.20732e-05
63 *707:23 *4762:A2 6.3889e-05
64 *713:27 *4766:B 7.30547e-05
65 *715:10 *4766:B 0
66 *722:10 *4779:B 3.72916e-05
67 *723:10 *962:75 7.35813e-05
68 *723:10 *962:86 2.30292e-05
69 *726:21 *962:21 0.000113907
70 *745:24 *962:34 0.000183738
71 *745:24 *962:51 0.000476187
72 *745:24 *962:75 4.14369e-05
73 *780:10 *962:34 6.18754e-05
74 *780:12 *962:34 1.71013e-05
75 *780:47 *962:34 2.23407e-05
76 *780:47 *962:75 0.000103974
77 *809:24 *4762:A2 5.83498e-05
78 *809:28 *4762:A2 0.00014785
79 *810:29 *962:86 2.54431e-05
80 *811:29 *4766:B 4.66108e-05
81 *813:12 *962:21 1.83847e-05
82 *813:25 *962:21 0.000617032
83 *813:38 *962:21 4.9968e-05
84 *833:17 *962:21 0
85 *835:77 *4795:B1 4.66108e-05
86 *835:77 *962:34 0.000313857
87 *835:77 *962:75 7.4538e-05
*RES
1 *4953:X *962:4 1.6 
2 *962:4 *4779:B 4.735 
3 *962:4 *962:21 12.55 
4 *962:21 *4795:B1 2.05 
5 *962:21 *962:34 7.7 
6 *962:34 *962:38 2.45 
7 *962:38 *4788:A2 1.6 
8 *962:38 *962:51 5.76 
9 *962:51 *4787:B 13.655 
10 *962:51 *4796:A2_N 1.6 
11 *962:34 *962:75 6.32 
12 *962:75 *4780:B1 1.96 
13 *962:75 *962:86 10.04 
14 *962:86 *962:88 1.635 
15 *962:88 *962:90 1.89 
16 *962:90 *4746:B 15.9 
17 *962:90 *4761:B 9.405 
18 *962:88 *4762:A2 10.62 
19 *962:86 *4766:B 8.49 
*END

*D_NET *963 0.00655201
*CONN
*I *4767:B I *D sky130_fd_sc_hd__nand2_1
*I *4774:B I *D sky130_fd_sc_hd__xnor2_1
*I *4770:A2_N I *D sky130_fd_sc_hd__a2bb2o_4
*I *4769:B1 I *D sky130_fd_sc_hd__o21ai_1
*I *4751:B I *D sky130_fd_sc_hd__xnor2_1
*I *4954:X O *D sky130_fd_sc_hd__clkbuf_2
*CAP
1 *4767:B 1.85694e-05
2 *4774:B 0.000330395
3 *4770:A2_N 2.11983e-05
4 *4769:B1 1.17375e-05
5 *4751:B 0.00015401
6 *4954:X 0
7 *963:49 0.000613801
8 *963:34 0.000384788
9 *963:23 0.000486284
10 *963:4 0.000529803
11 *4751:B *971:41 4.43871e-06
12 *4746:B *963:23 0
13 *4751:A *4751:B 0.000205422
14 *4762:A2 *4769:B1 4.82919e-05
15 *4766:B *4774:B 4.66108e-05
16 *4767:A *4767:B 0
17 *4767:A *4774:B 0.000124007
18 *4768:A *4767:B 9.53428e-06
19 *4768:A *4774:B 4.60584e-05
20 *4768:A *963:49 3.00381e-05
21 *4768:B *963:49 1.34503e-05
22 *4769:A1 *963:23 1.89685e-05
23 *4769:A1 *963:34 9.9535e-05
24 *4769:A1 *963:49 1.1561e-05
25 *4770:B1 *963:34 0
26 *4774:A *4774:B 0.000275548
27 *4781:C *4774:B 3.83194e-05
28 *4781:D *4774:B 0.000197264
29 *4782:B1 *4751:B 0
30 *183:69 *4751:B 0.000117512
31 *183:69 *963:23 0.000873304
32 *671:47 *4751:B 1.03423e-05
33 *704:25 *963:23 0
34 *707:23 *963:23 0
35 *713:6 *4774:B 0.000161837
36 *713:6 *963:49 4.35348e-05
37 *715:10 *963:49 0
38 *718:6 *4774:B 0.000464505
39 *809:24 *4769:B1 2.75229e-05
40 *810:14 *4770:A2_N 4.82919e-05
41 *811:29 *4774:B 7.99093e-05
42 *837:89 *4751:B 0.000122331
43 *837:89 *963:23 0.000883286
44 *962:90 *963:23 0
*RES
1 *4954:X *963:4 1.6 
2 *963:4 *4751:B 9.395 
3 *963:4 *963:23 13.97 
4 *963:23 *4769:B1 4.05 
5 *963:23 *963:34 2.145 
6 *963:34 *4770:A2_N 4.05 
7 *963:34 *963:49 6.725 
8 *963:49 *4774:B 11.71 
9 *963:49 *4767:B 1.96 
*END

*D_NET *964 0.00542122
*CONN
*I *4734:B I *D sky130_fd_sc_hd__xnor2_4
*I *4740:B I *D sky130_fd_sc_hd__xnor2_2
*I *4726:B I *D sky130_fd_sc_hd__xnor2_4
*I *4720:B I *D sky130_fd_sc_hd__nor2_1
*I *4721:B I *D sky130_fd_sc_hd__and2_4
*I *4955:X O *D sky130_fd_sc_hd__buf_12
*CAP
1 *4734:B 0.00021874
2 *4740:B 0.000176862
3 *4726:B 3.38837e-05
4 *4720:B 0
5 *4721:B 7.23429e-05
6 *4955:X 3.11957e-05
7 *964:45 0.000515199
8 *964:32 0.000496802
9 *964:14 0.000336165
10 *964:8 0.000638339
11 *4740:B *971:62 0.000199532
12 *4204:B2 *4726:B 1.83847e-05
13 *4205:A *964:8 0.000163204
14 *4588:B1 *964:8 6.69341e-05
15 *4720:A *4721:B 9.78003e-05
16 *671:14 *964:14 0.000184717
17 *671:14 *964:32 2.30797e-05
18 *671:27 *4734:B 0.000178707
19 *671:27 *964:32 0.000742827
20 *671:27 *964:45 0.000324979
21 *672:8 *4721:B 0.000164874
22 *684:8 *4734:B 0
23 *685:12 *4734:B 0.000118527
24 *685:12 *4740:B 4.66108e-05
25 *685:12 *964:45 2.92496e-05
26 *700:10 *4734:B 1.52945e-05
27 *700:10 *964:32 6.14602e-05
28 *700:10 *964:45 0.000115782
29 *778:161 *4721:B 4.36241e-05
30 *778:161 *964:14 0.000257815
31 *804:22 *964:32 0
32 *838:118 *4726:B 4.82919e-05
*RES
1 *4955:X *964:8 5.085 
2 *964:8 *964:14 8.045 
3 *964:14 *4721:B 4.15 
4 *964:14 *4720:B 1.6 
5 *964:8 *964:32 8.775 
6 *964:32 *4726:B 4.41 
7 *964:32 *964:45 3.93 
8 *964:45 *4740:B 7.155 
9 *964:45 *4734:B 8.01 
*END

*D_NET *965 0.000596521
*CONN
*I *4525:A2 I *D sky130_fd_sc_hd__a21bo_1
*I *5101:X O *D sky130_fd_sc_hd__buf_2
*CAP
1 *4525:A2 0.00026118
2 *5101:X 0.00026118
3 *4525:A2 *979:61 0
4 *5101:A *4525:A2 4.85494e-05
5 *430:20 *4525:A2 0
6 *438:18 *4525:A2 2.56106e-05
*RES
1 *5101:X *4525:A2 10.755 
*END

*D_NET *966 0.024326
*CONN
*I *4212:B1 I *D sky130_fd_sc_hd__o221a_1
*I *4222:B1 I *D sky130_fd_sc_hd__o221a_1
*I *4204:B1 I *D sky130_fd_sc_hd__o221a_1
*I *4236:B1 I *D sky130_fd_sc_hd__o221a_1
*I *4218:B1 I *D sky130_fd_sc_hd__o221a_1
*I *4216:B1 I *D sky130_fd_sc_hd__o221a_1
*I *4206:B1 I *D sky130_fd_sc_hd__o221a_1
*I *4214:B1 I *D sky130_fd_sc_hd__o221a_1
*I *4208:B1 I *D sky130_fd_sc_hd__o221a_1
*I *4210:B1 I *D sky130_fd_sc_hd__o221a_1
*I *4956:X O *D sky130_fd_sc_hd__clkbuf_4
*CAP
1 *4212:B1 0.000366457
2 *4222:B1 0.000150072
3 *4204:B1 4.70502e-05
4 *4236:B1 0.00157578
5 *4218:B1 0
6 *4216:B1 7.08475e-05
7 *4206:B1 0
8 *4214:B1 0
9 *4208:B1 0.000880845
10 *4210:B1 0.000421547
11 *4956:X 0
12 *966:100 0.00432663
13 *966:84 0.00316946
14 *966:80 0.000679304
15 *966:71 0.000402715
16 *966:58 0.000510798
17 *966:49 0.000325612
18 *966:40 0.000301757
19 *966:23 0.00124478
20 *966:6 0.000614436
21 *966:4 0.000366457
22 *4204:B1 *971:70 0.000139245
23 *4236:B1 *970:27 0
24 *966:100 *4545:A1 0.000234777
25 *4201:A *4236:B1 0
26 *4202:B2 *4236:B1 0
27 *4204:A1 *966:84 0.000346381
28 *4206:C1 *966:49 0.000178504
29 *4208:A2 *4208:B1 4.87317e-05
30 *4210:A1 *4210:B1 5.37194e-05
31 *4210:B2 *4210:B1 4.94457e-05
32 *4212:A2 *4210:B1 2.78732e-05
33 *4212:B2 *4212:B1 0.000163947
34 *4212:C1 *4212:B1 2.75229e-05
35 *4216:A2 *4216:B1 5.83121e-06
36 *4216:B2 *4216:B1 3.00381e-05
37 *4222:A2 *4222:B1 0.000144336
38 *4222:A2 *966:80 0.000110315
39 *4222:B2 *4222:B1 0.00011852
40 *4236:B2 *4236:B1 0.000293217
41 *4502:A1 *4236:B1 0
42 *4502:A1 *966:100 0.000113205
43 *4502:S *4236:B1 9.78647e-05
44 *4503:A *4236:B1 0
45 *4504:A2 *966:100 0.000181152
46 *4543:C *966:100 0.000162311
47 *4731:B *966:100 4.82863e-05
48 *4732:A2 *966:100 0.000572603
49 *4752:A *966:100 0.000360015
50 *4752:B *966:100 0.000134306
51 *4752:C *966:100 3.83995e-05
52 *4753:B1 *966:100 0.000278111
53 *4792:B *4236:B1 0
54 *4793:A *4236:B1 5.16348e-05
55 *4798:B *4236:B1 6.40354e-05
56 *4799:C1 *4236:B1 0.000116165
57 *4805:D *4236:B1 0.000131401
58 *4857:D *4208:B1 0.000148363
59 *4864:CLK *966:84 0.000264425
60 *4894:D *4236:B1 0.000164679
61 *4995:A *966:100 0.000186204
62 *5100:A *4222:B1 0.000185405
63 *181:60 *4204:B1 7.44453e-05
64 *459:20 *4236:B1 0
65 *459:20 *966:100 0
66 *462:8 *966:100 3.85943e-05
67 *462:15 *966:100 1.33293e-05
68 *498:14 *966:100 6.1357e-05
69 *499:30 *966:100 0.000124895
70 *737:12 *4236:B1 0
71 *740:10 *4236:B1 0.000162332
72 *778:67 *4210:B1 0.000163204
73 *778:71 *4210:B1 0
74 *779:65 *4236:B1 0
75 *815:14 *4236:B1 0.00071574
76 *815:16 *4236:B1 0.000157595
77 *827:14 *4236:B1 0
78 *827:22 *966:100 0
79 *832:89 *4236:B1 9.56302e-05
80 *832:134 *4236:B1 0
81 *836:65 *966:100 7.64878e-05
82 *838:42 *4212:B1 4.80285e-05
83 *838:57 *4210:B1 2.42236e-05
84 *838:57 *966:23 0.000203501
85 *838:57 *966:40 0.000178504
86 *838:57 *966:49 5.53249e-06
87 *838:66 *966:49 0.00019907
88 *838:66 *966:58 5.53249e-06
89 *838:75 *966:58 0.000177495
90 *838:88 *966:58 3.57846e-05
91 *838:88 *966:71 0.000283344
92 *838:88 *966:80 1.70935e-05
93 *838:97 *966:80 5.92191e-05
94 *845:28 *4236:B1 0
95 *845:88 *4236:B1 0
96 *845:103 *4236:B1 0.000501033
97 *846:27 *4222:B1 2.97004e-06
98 *846:29 *4222:B1 5.93303e-05
99 *846:29 *966:80 0
100 *846:33 *966:58 0
101 *846:33 *966:71 0
102 *960:10 *4222:B1 2.23922e-05
103 *960:10 *966:80 9.37731e-05
104 *961:23 *4236:B1 0
*RES
1 *4956:X *966:4 1.6 
2 *966:4 *966:6 2 
3 *966:6 *4210:B1 10.62 
4 *966:6 *966:23 4.185 
5 *966:23 *4208:B1 13.845 
6 *966:23 *966:40 3.675 
7 *966:40 *4214:B1 3.6 
8 *966:40 *966:49 4.185 
9 *966:49 *4206:B1 3.6 
10 *966:49 *966:58 4.44 
11 *966:58 *4216:B1 4.755 
12 *966:58 *966:71 5.715 
13 *966:71 *4218:B1 3.6 
14 *966:71 *966:80 3.93 
15 *966:80 *966:84 9.35 
16 *966:84 *966:100 49.6475 
17 *966:100 *4236:B1 39.1275 
18 *966:84 *4204:B1 7.235 
19 *966:80 *4222:B1 8.595 
20 *966:4 *4212:B1 6.91 
*END

*D_NET *967 0.0199615
*CONN
*I *4202:B1 I *D sky130_fd_sc_hd__o221a_1
*I *4230:B1 I *D sky130_fd_sc_hd__o221a_1
*I *4228:B1 I *D sky130_fd_sc_hd__o221a_1
*I *4226:B1 I *D sky130_fd_sc_hd__o221a_1
*I *4224:B1 I *D sky130_fd_sc_hd__o221a_1
*I *4220:B1 I *D sky130_fd_sc_hd__o221a_1
*I *4234:B1 I *D sky130_fd_sc_hd__o221a_1
*I *4232:B1 I *D sky130_fd_sc_hd__o221a_1
*I *4238:B1 I *D sky130_fd_sc_hd__o221a_1
*I *4957:X O *D sky130_fd_sc_hd__buf_2
*CAP
1 *4202:B1 0
2 *4230:B1 0.000554906
3 *4228:B1 0.000470109
4 *4226:B1 2.96148e-05
5 *4224:B1 0.000143652
6 *4220:B1 0.000100744
7 *4234:B1 3.02971e-05
8 *4232:B1 7.671e-06
9 *4238:B1 4.06464e-05
10 *4957:X 0.000210155
11 *967:117 0.000644974
12 *967:91 0.00053974
13 *967:87 0.000926722
14 *967:68 0.000943779
15 *967:64 0.00255322
16 *967:41 0.0023453
17 *967:22 0.0011582
18 *967:10 0.00056104
19 *4228:B1 *970:58 0
20 *967:10 *4957:A 0.000226387
21 *967:68 *4229:B 0
22 *967:87 *970:58 0
23 *967:91 *970:58 0
24 rdata[25] *967:10 8.52972e-05
25 *4202:A1 *967:10 4.18005e-05
26 *4202:A2 *967:22 0.000111315
27 *4202:B2 *967:22 1.10951e-05
28 *4202:C1 *967:10 5.31158e-06
29 *4202:C1 *967:22 0.00013104
30 *4220:A1 *4220:B1 0.000309381
31 *4220:A1 *4224:B1 0.000197264
32 *4220:A2 *4220:B1 0.000379192
33 *4220:A2 *4224:B1 0.000187008
34 *4220:B2 *4220:B1 4.89295e-05
35 *4220:C1 *4220:B1 4.89295e-05
36 *4224:A2 *4224:B1 8.97564e-05
37 *4225:A *4234:B1 6.1357e-05
38 *4225:A *967:87 4.82863e-05
39 *4226:B2 *4226:B1 4.99619e-05
40 *4226:C1 *4226:B1 2.97004e-06
41 *4226:C1 *967:91 0.000471547
42 *4228:A2 *4228:B1 0.000391475
43 *4229:A *967:64 0.000135304
44 *4229:A *967:68 1.26626e-05
45 *4230:A2 *4230:B1 0.0007649
46 *4232:A2 *4232:B1 5.19006e-06
47 *4232:A2 *967:64 0.00190275
48 *4232:B2 *967:64 8.52972e-05
49 *4232:C1 *4232:B1 5.19006e-06
50 *4232:C1 *967:41 4.25106e-05
51 *4232:C1 *967:64 8.28018e-06
52 *4234:A1 *967:68 0.000116165
53 *4863:D *967:91 0
54 *4866:CLK *4226:B1 4.82919e-05
55 *4867:CLK *4228:B1 0
56 *4868:CLK *4230:B1 0
57 *4869:D *967:64 0.000538596
58 *4870:D *967:87 8.32817e-05
59 *4872:CLK *967:41 4.77807e-05
60 *4872:D *967:41 8.89676e-05
61 *4949:A *967:22 8.52972e-05
62 *5013:A *967:41 0.000112973
63 *5019:A *967:22 7.03276e-05
64 *5022:A *967:87 5.83121e-06
65 *181:71 *967:68 0.000912339
66 *777:62 *967:91 0
67 *777:117 *4234:B1 0.000122325
68 *777:117 *967:87 9.87327e-05
69 *809:14 *967:87 0
70 *837:91 *4226:B1 1.14361e-05
71 *837:91 *4228:B1 0.00016466
72 *837:93 *4224:B1 1.07797e-05
73 *837:93 *4226:B1 2.97004e-06
74 *846:23 *4220:B1 9.03305e-05
75 *846:25 *4224:B1 0
76 *846:25 *967:91 4.86642e-05
77 *848:44 *967:22 0.000100871
78 *942:8 *967:64 7.97759e-05
*RES
1 *4957:X *967:10 8.07 
2 *967:10 *967:22 9.49 
3 *967:22 *4238:B1 4.215 
4 *967:22 *967:41 15.335 
5 *967:41 *4232:B1 1.96 
6 *967:41 *967:64 40.1 
7 *967:64 *967:68 12.815 
8 *967:68 *4234:B1 2.74 
9 *967:68 *967:87 10.8125 
10 *967:87 *967:91 8.6075 
11 *967:91 *4220:B1 6.31 
12 *967:91 *4224:B1 9.575 
13 *967:87 *967:117 1.485 
14 *967:117 *4226:B1 4.5375 
15 *967:117 *4228:B1 14.0475 
16 *967:64 *4230:B1 15.475 
17 *967:10 *4202:B1 3.6 
*END

*D_NET *968 0.03306
*CONN
*I *4242:B1 I *D sky130_fd_sc_hd__o221a_1
*I *4957:A I *D sky130_fd_sc_hd__buf_2
*I *4956:A I *D sky130_fd_sc_hd__clkbuf_4
*I *4240:B1 I *D sky130_fd_sc_hd__o221a_1
*I *4200:B2 I *D sky130_fd_sc_hd__o221a_1
*I *4244:B1 I *D sky130_fd_sc_hd__o221a_1
*I *4246:B1 I *D sky130_fd_sc_hd__o221a_1
*I *4248:B1 I *D sky130_fd_sc_hd__o221a_1
*I *4958:X O *D sky130_fd_sc_hd__clkbuf_4
*CAP
1 *4242:B1 8.82647e-05
2 *4957:A 0.000526156
3 *4956:A 0.00132379
4 *4240:B1 2.98842e-05
5 *4200:B2 0
6 *4244:B1 0
7 *4246:B1 0
8 *4248:B1 4.02e-05
9 *4958:X 0.000122004
10 *968:111 0.00361567
11 *968:103 0.00446242
12 *968:95 0.0033396
13 *968:80 0.00110664
14 *968:70 0.000660606
15 *968:61 0.000721183
16 *968:44 0.00146275
17 *968:23 0.00167297
18 *968:10 0.000955114
19 *4240:B1 *970:125 0
20 *968:44 *4831:C1 3.09233e-05
21 *968:44 *972:144 0
22 *968:80 *970:108 0.00017561
23 *968:80 *970:125 1.17409e-05
24 *968:95 *4237:B 0.000502809
25 *968:95 *970:125 0.000477754
26 rdata[8] *4957:A 2.48962e-05
27 *4200:A1 *968:61 0.000116531
28 *4200:A1 *968:70 5.56293e-05
29 *4200:A2 *968:61 3.93375e-05
30 *4200:A2 *968:70 0.000491513
31 *4200:C1 *968:70 4.89395e-05
32 *4202:B2 *4957:A 1.62464e-05
33 *4202:B2 *968:103 0.000771485
34 *4202:C1 *4957:A 0.000111836
35 *4208:A2 *4956:A 0.000418988
36 *4211:A *4956:A 1.61831e-05
37 *4235:A *968:95 4.43682e-05
38 *4238:B2 *4957:A 0.000293719
39 *4240:A1 *4240:B1 0
40 *4240:A1 *968:80 0.000132759
41 *4242:B2 *4242:B1 0.000178952
42 *4242:B2 *968:80 0.000340345
43 *4244:A2 *968:44 0.000160576
44 *4244:C1 *968:44 0.000524997
45 *4245:A *968:44 0
46 *4246:A1 *968:44 0.00012657
47 *4246:C1 *968:23 0.00161619
48 *4248:A1 *4248:B1 2.75145e-05
49 *4248:A1 *968:23 1.91597e-05
50 *4248:A2 *4248:B1 1.85674e-05
51 *4248:B2 *968:10 1.89685e-05
52 *4544:A2 *968:103 9.54469e-05
53 *4577:A *968:111 0.000159957
54 *4581:A *968:111 0.000167716
55 *4583:B *968:111 0
56 *4584:A2 *968:103 8.48354e-05
57 *4585:A1 *968:103 6.61989e-05
58 *4585:A1 *968:111 8.29874e-06
59 *4585:B1 *968:111 0
60 *4614:A2 *968:111 0.000210246
61 *4647:A1 *968:111 0.000449554
62 *4648:B1 *968:111 0
63 *4649:C1 *968:111 9.83771e-05
64 *4656:B1 *4956:A 0.000160641
65 *4681:A *968:111 6.88941e-05
66 *4706:A_N *968:111 0.000233004
67 *4709:B1 *968:111 8.40269e-05
68 *4794:A *968:103 0.000134509
69 *4795:A1 *968:103 5.28263e-05
70 *4805:C *968:103 0.000180405
71 *4807:A4 *968:103 0.000118513
72 *4899:D *4956:A 0.000149404
73 *4940:A *968:80 7.21296e-06
74 *5010:A *968:70 0.000120417
75 *5019:A *4957:A 9.29903e-05
76 *5025:A *968:44 0.000163199
77 *5086:A *4957:A 0.000144963
78 *5097:A *968:10 0.000169542
79 *199:10 *968:10 0.000121688
80 *462:19 *968:103 0.000143443
81 *496:12 *968:103 0.00011852
82 *499:30 *968:103 0
83 *531:21 *968:111 7.47215e-05
84 *535:12 *968:111 0
85 *537:8 *968:111 4.11198e-05
86 *540:12 *968:111 0.000199981
87 *567:19 *968:111 0
88 *568:27 *968:111 0
89 *602:10 *968:111 0.000107694
90 *735:8 *968:103 0.000111459
91 *772:94 *968:103 0
92 *801:8 *4956:A 3.82966e-05
93 *801:10 *4956:A 8.26245e-05
94 *801:10 *968:111 0.000213579
95 *801:12 *968:111 9.27495e-05
96 *814:8 *968:103 0.000328118
97 *814:10 *968:103 0.000230466
98 *814:12 *968:103 4.5783e-05
99 *814:62 *968:103 4.65643e-05
100 *827:14 *968:103 0
101 *827:22 *968:103 0
102 *836:46 *968:103 0
103 *837:85 *4957:A 0
104 *837:85 *968:103 0
105 *838:8 *4956:A 0.000242064
106 *838:42 *4956:A 4.60584e-05
107 *839:114 *968:23 2.7441e-05
108 *839:114 *968:44 5.30673e-05
109 *843:131 *968:10 3.09233e-05
110 *849:12 *968:80 0
111 *849:76 *4956:A 0.000275684
112 *967:10 *4957:A 0.000226387
*RES
1 *4958:X *968:10 9.53 
2 *968:10 *4248:B1 2.41 
3 *968:10 *968:23 15.99 
4 *968:23 *4246:B1 1.6 
5 *968:23 *968:44 21.865 
6 *968:44 *4244:B1 1.6 
7 *968:44 *968:61 10.02 
8 *968:61 *4200:B2 1.6 
9 *968:61 *968:70 6.59 
10 *968:70 *968:80 10.385 
11 *968:80 *4240:B1 2.215 
12 *968:80 *968:95 13.61 
13 *968:95 *968:103 48.2325 
14 *968:103 *968:111 44.705 
15 *968:111 *4956:A 19.4875 
16 *968:95 *4957:A 15.405 
17 *968:70 *4242:B1 5.745 
*END

*D_NET *969 0.000865327
*CONN
*I *4150:A I *D sky130_fd_sc_hd__or4_1
*I *5063:X O *D sky130_fd_sc_hd__clkbuf_1
*CAP
1 *4150:A 0.000288049
2 *5063:X 0.000288049
3 *4150:A *4150:C 1.89685e-05
4 *4150:B *4150:A 2.03321e-05
5 *166:12 *4150:A 0.000249928
*RES
1 *5063:X *4150:A 12.36 
*END

*D_NET *970 0.0230686
*CONN
*I *4241:B I *D sky130_fd_sc_hd__and2_1
*I *4237:B I *D sky130_fd_sc_hd__and2_1
*I *4235:B I *D sky130_fd_sc_hd__and2_1
*I *4239:B I *D sky130_fd_sc_hd__and2_1
*I *4201:B I *D sky130_fd_sc_hd__and2_1
*I *4225:B I *D sky130_fd_sc_hd__and2_1
*I *4227:B I *D sky130_fd_sc_hd__and2_1
*I *4229:B I *D sky130_fd_sc_hd__and2_1
*I *4219:B I *D sky130_fd_sc_hd__and2_1
*I *4198:B I *D sky130_fd_sc_hd__and2_1
*I *4959:X O *D sky130_fd_sc_hd__buf_2
*CAP
1 *4241:B 0
2 *4237:B 8.23494e-05
3 *4235:B 0
4 *4239:B 0.000165055
5 *4201:B 0
6 *4225:B 0
7 *4227:B 0.000113117
8 *4229:B 0.000256964
9 *4219:B 2.08101e-05
10 *4198:B 9.21919e-05
11 *4959:X 0
12 *970:125 0.000394933
13 *970:108 0.000842065
14 *970:100 0.00107398
15 *970:58 0.000889894
16 *970:52 0.00110943
17 *970:33 0.00260181
18 *970:27 0.00289496
19 *970:19 0.00170809
20 *970:4 0.000187167
21 *4198:B *4959:A 1.60388e-05
22 *970:27 *1002:28 0.000613895
23 *970:27 *1002:30 0.000401043
24 *4198:A *4198:B 0.000164874
25 *4198:A *970:19 1.34503e-05
26 *4200:B1 *970:19 3.90167e-05
27 *4200:B1 *970:100 0.000187759
28 *4201:A *970:33 0.000113797
29 *4220:B2 *970:52 7.35813e-05
30 *4220:C1 *4219:B 0
31 *4223:B *970:52 0.000331548
32 *4225:A *970:52 0.000131701
33 *4225:A *970:58 0
34 *4227:A *4229:B 9.49116e-05
35 *4228:B1 *970:58 0
36 *4230:A2 *4229:B 2.75229e-05
37 *4234:A1 *970:58 0
38 *4235:A *4237:B 0.000440617
39 *4235:A *970:125 8.8266e-05
40 *4236:B1 *970:27 0
41 *4240:A1 *970:108 2.30292e-05
42 *4240:A1 *970:125 1.19928e-05
43 *4240:A2 *970:108 3.21634e-05
44 *4240:A2 *970:125 5.83121e-06
45 *4240:B1 *970:125 0
46 *4240:B2 *4239:B 0.000273695
47 *4241:A *970:100 0.000257005
48 *4242:B2 *970:108 9.29176e-05
49 *4746:A *970:33 4.66108e-05
50 *4750:A2 *970:33 0.000388784
51 *4755:A *970:33 0.00012657
52 *4800:B *970:27 0.000118527
53 *4805:D *970:27 0.000197264
54 *4814:B *4239:B 4.18603e-06
55 *4815:A2 *970:100 5.02217e-05
56 *4820:A2 *970:19 8.53113e-06
57 *4820:A2 *970:100 0.000370063
58 *4866:CLK *970:52 1.12578e-05
59 *4866:CLK *970:58 4.77757e-05
60 *4940:A *4239:B 0
61 *4960:A *970:19 2.93818e-05
62 *5022:A *970:58 0
63 *181:60 *970:52 0.000181841
64 *183:53 *970:19 2.98439e-05
65 *183:53 *970:100 8.97642e-05
66 *754:12 *970:100 6.58955e-06
67 *772:94 *970:27 0.000407087
68 *772:94 *970:33 1.71013e-05
69 *805:42 *970:33 0.000564771
70 *805:53 *970:33 4.60584e-05
71 *807:27 *970:33 0.00152765
72 *817:12 *970:100 0.000487978
73 *827:8 *970:33 0.000201508
74 *827:14 *970:33 3.09164e-05
75 *832:89 *970:27 0.000308909
76 *847:70 *970:33 1.91597e-05
77 *847:147 *4229:B 4.82919e-05
78 *849:12 *970:100 0
79 *961:23 *970:27 0.000229203
80 *961:50 *970:100 0.000437361
81 *967:68 *4229:B 0
82 *967:87 *970:58 0
83 *967:91 *970:58 0
84 *968:80 *970:108 0.00017561
85 *968:80 *970:125 1.17409e-05
86 *968:95 *4237:B 0.000502809
87 *968:95 *970:125 0.000477754
*RES
1 *4959:X *970:4 1.6 
2 *970:4 *4198:B 3.7 
3 *970:4 *970:19 3.83 
4 *970:19 *970:27 28.24 
5 *970:27 *970:33 39.275 
6 *970:33 *4219:B 1.96 
7 *970:33 *970:52 15.205 
8 *970:52 *970:58 10.715 
9 *970:58 *4229:B 8.685 
10 *970:58 *4227:B 5.085 
11 *970:52 *4225:B 1.6 
12 *970:27 *4201:B 3.6 
13 *970:19 *970:100 21.275 
14 *970:100 *970:108 7.14 
15 *970:108 *4239:B 9.275 
16 *970:108 *970:125 7.035 
17 *970:125 *4235:B 1.6 
18 *970:125 *4237:B 6.19 
19 *970:100 *4241:B 1.6 
*END

*D_NET *971 0.0206393
*CONN
*I *4221:B I *D sky130_fd_sc_hd__and2_1
*I *4215:B I *D sky130_fd_sc_hd__and2_1
*I *4205:B I *D sky130_fd_sc_hd__and2_1
*I *4213:B I *D sky130_fd_sc_hd__and2_1
*I *4207:B I *D sky130_fd_sc_hd__and2_1
*I *4211:B I *D sky130_fd_sc_hd__and2_1
*I *4209:B I *D sky130_fd_sc_hd__and2_1
*I *4217:B I *D sky130_fd_sc_hd__and2_1
*I *4203:B I *D sky130_fd_sc_hd__and2_1
*I *4959:A I *D sky130_fd_sc_hd__buf_2
*I *4960:X O *D sky130_fd_sc_hd__buf_2
*CAP
1 *4221:B 0.000315781
2 *4215:B 4.54445e-05
3 *4205:B 6.71415e-05
4 *4213:B 7.00584e-05
5 *4207:B 0.000333985
6 *4211:B 0
7 *4209:B 0.00023519
8 *4217:B 0
9 *4203:B 0.000254352
10 *4959:A 9.05472e-05
11 *4960:X 0
12 *971:91 0.000605426
13 *971:89 0.000856253
14 *971:87 0.000465988
15 *971:83 0.000574164
16 *971:81 0.000729898
17 *971:70 0.00082287
18 *971:62 0.00220402
19 *971:41 0.00273531
20 *971:39 0.00307579
21 *971:4 0.00217208
22 *4203:B *1012:51 3.45213e-05
23 *4198:A *4959:A 7.60965e-05
24 *4198:A *971:39 4.16353e-05
25 *4198:B *4959:A 1.60388e-05
26 *4204:A1 *971:70 4.61744e-05
27 *4204:B1 *971:70 0.000139245
28 *4205:A *971:83 0
29 *4205:A *971:87 0
30 *4206:C1 *971:87 0
31 *4208:A1 *4207:B 0.000203114
32 *4208:B2 *4207:B 0.000205372
33 *4210:A2 *4209:B 6.44307e-05
34 *4210:A2 *971:91 1.22676e-05
35 *4210:B2 *4209:B 0.000124473
36 *4210:C1 *4209:B 5.00325e-05
37 *4213:A *971:87 0.000137571
38 *4213:A *971:89 3.09164e-05
39 *4215:A *4215:B 5.83121e-06
40 *4217:A *971:70 8.60799e-05
41 *4218:B2 *971:81 0.000123589
42 *4221:A *4221:B 8.69583e-05
43 *4233:A *971:41 7.53115e-05
44 *4713:A2 *971:87 0
45 *4736:A1 *971:62 3.90495e-05
46 *4736:A2 *971:41 2.05571e-05
47 *4737:B1 *971:62 8.65961e-05
48 *4738:C1 *971:41 0
49 *4740:B *971:62 0.000199532
50 *4751:B *971:41 4.43871e-06
51 *4752:A *4203:B 0
52 *4752:A *971:41 0
53 *4784:A *971:39 0.000110511
54 *4785:A1 *971:39 0.000129808
55 *4785:A2 *971:39 5.41176e-05
56 *4802:B *971:39 7.61941e-05
57 *4804:A1 *971:39 0.000382275
58 *4804:B1 *971:39 3.23663e-05
59 *4855:CLK *971:70 0
60 *4903:CLK *971:41 0
61 *4936:A *971:39 2.75145e-05
62 *4941:A *4207:B 6.19997e-05
63 *4941:A *971:89 0
64 *4941:A *971:91 0
65 *4952:A *971:39 0.00057429
66 *4995:A *4203:B 0
67 *5026:A *971:91 0
68 *5041:A *971:81 6.80428e-05
69 *5041:A *971:83 2.85837e-05
70 *5071:A *971:91 0
71 *181:56 *4207:B 0.000218936
72 *181:60 *971:70 0.000161492
73 *671:27 *4203:B 0
74 *684:8 *971:41 0
75 *685:12 *971:62 0.00027209
76 *689:8 *971:62 1.4389e-05
77 *725:6 *971:39 0.000135652
78 *725:14 *971:39 3.00381e-05
79 *777:12 *4221:B 4.82919e-05
80 *777:12 *971:62 0.000198939
81 *777:23 *971:70 0
82 *780:12 *971:39 2.24968e-05
83 *780:12 *971:41 0
84 *813:8 *971:41 5.20968e-05
85 *813:62 *971:41 2.60986e-05
86 *832:61 *971:39 2.66586e-05
87 *833:17 *971:39 1.03833e-05
88 *833:46 *971:39 2.59926e-05
89 *838:118 *4203:B 4.82919e-05
90 *846:33 *971:81 0
91 *846:33 *971:83 0
92 *846:41 *4215:B 0.000116624
93 *849:102 *4213:B 0.000121023
*RES
1 *4960:X *971:4 1.6 
2 *971:4 *4959:A 3.46 
3 *971:4 *971:39 37.2 
4 *971:39 *971:41 16.68 
5 *971:41 *4203:B 7.83 
6 *971:41 *971:62 25.34 
7 *971:62 *971:70 11.71 
8 *971:70 *4217:B 1.6 
9 *971:70 *971:81 9.545 
10 *971:81 *971:83 4.3125 
11 *971:83 *971:87 4.5075 
12 *971:87 *971:89 2.655 
13 *971:89 *971:91 5.97 
14 *971:91 *4209:B 7.9275 
15 *971:91 *4211:B 3.6 
16 *971:89 *4207:B 12.33 
17 *971:87 *4213:B 5.1 
18 *971:83 *4205:B 4.7325 
19 *971:81 *4215:B 4.755 
20 *971:62 *4221:B 6.55 
*END

*D_NET *972 0.0240879
*CONN
*I *4243:B I *D sky130_fd_sc_hd__and2_1
*I *4245:B I *D sky130_fd_sc_hd__and2_1
*I *4247:B I *D sky130_fd_sc_hd__and2_1
*I *4196:A2 I *D sky130_fd_sc_hd__a211o_1
*I *4193:A2 I *D sky130_fd_sc_hd__a211o_1
*I *4190:A2 I *D sky130_fd_sc_hd__a211o_1
*I *4186:B1 I *D sky130_fd_sc_hd__a22o_1
*I *4177:B1 I *D sky130_fd_sc_hd__a22o_1
*I *4181:A2 I *D sky130_fd_sc_hd__a211o_1
*I *4184:A2 I *D sky130_fd_sc_hd__a211o_1
*I *4961:X O *D sky130_fd_sc_hd__clkbuf_4
*CAP
1 *4243:B 0.000767906
2 *4245:B 0
3 *4247:B 0
4 *4196:A2 3.71711e-05
5 *4193:A2 0.000419705
6 *4190:A2 0
7 *4186:B1 0.000211665
8 *4177:B1 0.00056725
9 *4181:A2 0
10 *4184:A2 0.000207681
11 *4961:X 0
12 *972:144 0.00209245
13 *972:131 0.0022433
14 *972:116 0.00134513
15 *972:99 0.00115041
16 *972:51 0.0010456
17 *972:32 0.00178831
18 *972:16 0.00201142
19 *972:10 0.000902239
20 *972:4 0.000546252
21 *4177:B1 *4177:A2 5.59879e-06
22 *4177:B1 *974:24 8.7706e-05
23 *4177:B1 *974:26 0.000134509
24 *4184:A2 *4183:A2 0
25 *4186:B1 *4186:A1 2.14559e-05
26 *4186:B1 *5067:A 3.04467e-05
27 *4186:B1 *973:10 8.49205e-05
28 *4186:B1 *974:14 2.85764e-05
29 *4186:B1 *1001:44 0.000122797
30 *972:32 *4271:A 7.66511e-06
31 *972:32 *974:14 0
32 *972:32 *986:48 1.22505e-05
33 *972:32 *1001:44 4.85381e-05
34 *972:51 *986:48 0.000304534
35 *972:51 *1010:52 0
36 *972:116 *1010:131 2.4477e-05
37 *972:144 *4831:C1 0
38 *4181:A1 *972:51 0.000489644
39 *4181:B1 *4177:B1 0.000142165
40 *4182:B1 *4177:B1 0
41 *4184:A1 *4184:A2 3.95724e-05
42 *4184:B1 *4184:A2 4.66826e-05
43 *4185:B1 *4184:A2 0
44 *4186:A2 *4186:B1 0
45 *4186:B2 *4186:B1 3.46502e-05
46 *4190:A1 *4193:A2 2.48249e-05
47 *4190:A1 *972:10 0.000349924
48 *4190:A1 *972:99 0.000246937
49 *4190:C1 *972:99 2.96334e-05
50 *4190:C1 *972:116 4.43682e-05
51 *4191:B1 *972:16 9.65676e-05
52 *4193:B1 *4193:A2 5.53249e-06
53 *4196:A1 *4196:A2 7.3253e-05
54 *4196:A1 *972:131 0.000167135
55 *4196:B1 *972:116 1.56428e-05
56 *4196:C1 *972:116 0.000115484
57 *4197:B1 *4196:A2 8.53113e-06
58 *4197:B1 *972:131 0.000285654
59 *4245:A *972:144 5.53249e-06
60 *4247:A *972:144 0.00104419
61 *4248:B2 *972:131 5.30673e-05
62 *4278:A2 *972:51 0
63 *4312:B *972:16 0.000167716
64 *4336:A *4193:A2 0.000164679
65 *4337:A1 *4193:A2 0
66 *4916:CLK *4243:B 0.000646648
67 *4986:A *972:16 0
68 *4986:A *972:32 0.000602098
69 *4994:A *972:16 0.000136884
70 *5025:A *972:144 0
71 *180:22 *972:32 0.000231564
72 *180:44 *4177:B1 4.746e-05
73 *182:39 *4177:B1 0.000270089
74 *182:53 *4184:A2 1.03755e-05
75 *182:53 *972:32 0
76 *182:53 *972:51 0
77 *182:68 *972:32 0
78 *182:91 *4193:A2 0.000288695
79 *183:18 *972:10 1.12578e-05
80 *183:18 *972:16 0.000313857
81 *199:10 *4196:A2 0
82 *237:12 *972:32 0.0003593
83 *775:14 *972:16 0.000200063
84 *776:71 *972:131 0.000450833
85 *822:10 *972:16 0.00027169
86 *823:40 *972:131 2.25075e-05
87 *839:81 *972:16 9.58544e-05
88 *839:110 *972:131 5.22921e-05
89 *841:18 *972:51 1.94805e-05
90 *841:22 *972:51 0.000147049
91 *841:37 *972:51 8.53113e-06
92 *843:42 *972:16 0
93 *844:22 *972:16 0
94 *844:22 *972:32 0
95 *968:44 *972:144 0
*RES
1 *4961:X *972:4 1.6 
2 *972:4 *972:10 4.185 
3 *972:10 *972:16 19.76 
4 *972:16 *972:32 23.7325 
5 *972:32 *4184:A2 7.1625 
6 *972:32 *972:51 13.9625 
7 *972:51 *4181:A2 1.6 
8 *972:51 *4177:B1 15.185 
9 *972:16 *4186:B1 11.545 
10 *972:10 *4190:A2 1.6 
11 *972:4 *972:99 4.59 
12 *972:99 *4193:A2 15.08 
13 *972:99 *972:116 6.935 
14 *972:116 *4196:A2 4.47 
15 *972:116 *972:131 20.81 
16 *972:131 *4247:B 1.6 
17 *972:131 *972:144 27.61 
18 *972:144 *4245:B 1.6 
19 *972:144 *4243:B 11.56 
*END

*D_NET *973 0.0106071
*CONN
*I *4189:A2 I *D sky130_fd_sc_hd__a22o_1
*I *4195:A2 I *D sky130_fd_sc_hd__a22o_1
*I *4199:A2 I *D sky130_fd_sc_hd__a221o_1
*I *4192:A2 I *D sky130_fd_sc_hd__a22o_1
*I *5067:X O *D sky130_fd_sc_hd__clkbuf_2
*CAP
1 *4189:A2 0
2 *4195:A2 2.61242e-05
3 *4199:A2 0.000642257
4 *4192:A2 0
5 *5067:X 0.000302381
6 *973:35 0.000749962
7 *973:24 0.00126794
8 *973:10 0.00148874
9 *4195:A2 *4973:A 4.66108e-05
10 *4199:A2 *988:55 0.000179008
11 *4199:A2 *988:83 0.000293726
12 *4199:A2 *988:102 2.07184e-05
13 *973:24 *4189:A1 2.26018e-05
14 *973:24 *4189:B2 0.000658589
15 *973:24 *4192:B2 0.000134613
16 *973:24 *986:78 0.000136884
17 *973:24 *987:41 0
18 *973:24 *987:52 0
19 *973:24 *1004:90 0
20 *973:35 *4192:B2 0.000119756
21 *973:35 *988:102 0.000163019
22 *4186:B1 *973:10 8.49205e-05
23 *4186:B2 *973:10 6.05513e-05
24 *4189:B1 *973:24 8.65961e-05
25 *4190:B1 *973:10 9.37731e-05
26 *4192:B1 *973:24 5.83121e-06
27 *4192:B1 *973:35 4.21973e-05
28 *4193:B1 *973:24 0.00132499
29 *4301:A1 *973:24 9.37731e-05
30 *4319:A1 *4199:A2 0
31 *4430:B1 *4199:A2 0
32 *4920:A *4199:A2 0.000374947
33 *5107:A *4199:A2 0.000101894
34 *249:29 *973:24 6.36578e-05
35 *258:10 *973:24 0.000313764
36 *259:10 *973:24 8.06507e-05
37 *262:12 *973:24 3.42142e-05
38 *263:16 *973:24 0
39 *274:10 *973:10 6.31804e-05
40 *274:10 *973:24 2.15738e-05
41 *386:25 *4199:A2 3.32209e-05
42 *387:23 *4199:A2 2.75538e-05
43 *388:10 *4199:A2 0
44 *772:48 *4199:A2 0.00104139
45 *772:48 *973:35 0.000152127
46 *775:14 *973:10 0.000180988
47 *781:39 *4199:A2 7.23602e-05
48 *859:29 *973:24 0
*RES
1 *5067:X *973:10 9.735 
2 *973:10 *973:24 32.055 
3 *973:24 *4192:A2 1.6 
4 *973:24 *973:35 5.03 
5 *973:35 *4199:A2 20.9925 
6 *973:35 *4195:A2 4.05 
7 *973:10 *4189:A2 3.6 
*END

*D_NET *974 0.0110463
*CONN
*I *5067:A I *D sky130_fd_sc_hd__clkbuf_2
*I *4183:A2 I *D sky130_fd_sc_hd__a22o_1
*I *4180:A2 I *D sky130_fd_sc_hd__a22o_1
*I *4177:A2 I *D sky130_fd_sc_hd__a22o_1
*I *4155:C I *D sky130_fd_sc_hd__and3_4
*I *5068:X O *D sky130_fd_sc_hd__clkbuf_2
*CAP
1 *5067:A 0.000112893
2 *4183:A2 0.00034631
3 *4180:A2 4.08211e-05
4 *4177:A2 8.12533e-05
5 *4155:C 0.000643322
6 *5068:X 0
7 *974:26 0.000796237
8 *974:24 0.00058243
9 *974:14 0.00160771
10 *974:4 0.000904346
11 *4155:C *4156:A0 0.000366994
12 *4155:C *986:48 0
13 *4183:A2 *4183:A1 1.03423e-05
14 *4183:A2 *986:57 1.91597e-05
15 *974:14 *1001:44 0
16 *974:14 *1010:22 0
17 *974:24 *986:48 0
18 *974:26 *986:48 0
19 *4156:A1 *4155:C 0.000162325
20 *4177:B1 *4177:A2 5.59879e-06
21 *4177:B1 *974:24 8.7706e-05
22 *4177:B1 *974:26 0.000134509
23 *4178:B1 *4177:A2 5.29349e-05
24 *4178:C1 *4177:A2 4.00541e-06
25 *4181:B1 *974:24 0.000116158
26 *4184:A2 *4183:A2 0
27 *4184:B1 *4183:A2 0
28 *4186:B1 *5067:A 3.04467e-05
29 *4186:B1 *974:14 2.85764e-05
30 *4186:B2 *5067:A 4.66108e-05
31 *4189:B1 *974:14 0.00010131
32 *4287:A *974:14 1.36727e-05
33 *4310:A1 *974:14 6.63985e-05
34 *4310:A2 *974:14 0.000109995
35 *4986:A *5067:A 0.000194108
36 *4986:A *974:14 0.000122083
37 *170:6 *4155:C 8.65905e-05
38 *170:98 *4155:C 0.000503574
39 *180:22 *974:14 0
40 *180:44 *4183:A2 0.000337239
41 *180:44 *974:14 2.07184e-05
42 *180:44 *974:24 0.000967399
43 *180:48 *4180:A2 8.35106e-05
44 *180:67 *4155:C 0.000682982
45 *180:67 *974:26 0.000160118
46 *255:10 *974:14 0.000608113
47 *255:10 *974:24 0.000692639
48 *784:19 *4155:C 0
49 *784:19 *974:24 0
50 *784:19 *974:26 0
51 *842:17 *4155:C 0.000115146
52 *972:32 *974:14 0
*RES
1 *5068:X *974:4 1.6 
2 *974:4 *974:14 18.08 
3 *974:14 *974:24 14.985 
4 *974:24 *974:26 2.2725 
5 *974:26 *4155:C 20.7825 
6 *974:26 *4177:A2 5.0925 
7 *974:24 *4180:A2 4.395 
8 *974:14 *4183:A2 8.37 
9 *974:4 *5067:A 8.225 
*END

*D_NET *975 0.0160692
*CONN
*I *4427:A I *D sky130_fd_sc_hd__and3_1
*I *4426:B1 I *D sky130_fd_sc_hd__a21oi_1
*I *4199:B2 I *D sky130_fd_sc_hd__a221o_1
*I *4689:A0 I *D sky130_fd_sc_hd__mux2_1
*I *4549:D I *D sky130_fd_sc_hd__and4b_1
*I *4591:D I *D sky130_fd_sc_hd__and4b_1
*I *4632:D I *D sky130_fd_sc_hd__and4b_1
*I *4145:A I *D sky130_fd_sc_hd__inv_2
*I *4663:D I *D sky130_fd_sc_hd__and4b_1
*I *4264:A0 I *D sky130_fd_sc_hd__mux2_1
*I *4962:X O *D sky130_fd_sc_hd__buf_6
*CAP
1 *4427:A 4.32823e-05
2 *4426:B1 0
3 *4199:B2 8.63409e-05
4 *4689:A0 0
5 *4549:D 0.000169164
6 *4591:D 2.43624e-05
7 *4632:D 3.75354e-05
8 *4145:A 0
9 *4663:D 0
10 *4264:A0 0
11 *4962:X 0
12 *975:124 0.000194877
13 *975:105 0.00156192
14 *975:74 0.000510127
15 *975:63 0.000483221
16 *975:52 0.000618941
17 *975:38 0.000545419
18 *975:31 0.00161163
19 *975:12 0.00177551
20 *975:6 0.00154343
21 *4199:B2 *4192:B2 0.000252977
22 *4427:A *993:57 8.40213e-05
23 *4549:D *976:122 0.000309657
24 *4591:D *4591:C 1.08758e-05
25 *4632:D *4632:B 1.19928e-05
26 *4632:D *4632:C 1.08758e-05
27 *975:31 *4262:A0 0.000194299
28 *975:31 *4663:A_N 0.000209217
29 *975:31 *4663:C 5.91353e-05
30 *975:38 *4662:A2_N 2.0187e-05
31 *975:38 *4663:A_N 0.000263866
32 *975:38 *4663:C 0.000251284
33 *975:52 *4663:A_N 0.000370315
34 *975:52 *976:51 2.53191e-06
35 *975:52 *977:31 3.26084e-05
36 *975:52 *994:94 2.01274e-05
37 *975:63 *976:74 0.000158297
38 *975:63 *976:87 3.09233e-05
39 *975:63 *994:80 6.45236e-05
40 *975:63 *994:94 0.000130134
41 *975:74 *976:87 0.000178255
42 *975:74 *976:98 0.00035893
43 *975:74 *976:109 0.000158297
44 *975:74 *976:122 3.09233e-05
45 *975:74 *994:80 0.000227536
46 *975:105 *4192:B2 0
47 *975:124 *4426:A2 4.82919e-05
48 *975:124 *993:57 7.40446e-05
49 *4169:A *975:105 0.000861879
50 *4170:A1 *975:12 0.000186725
51 *4170:A1 *975:105 0.000169591
52 *4199:B1 *4199:B2 1.12643e-05
53 *4263:A *975:12 2.88357e-05
54 *4263:A *975:31 0.000230568
55 *4263:B *975:31 7.03276e-05
56 *4593:B *975:74 0
57 *4662:B2 *975:52 0.000160651
58 *4843:CLK *975:105 0.000400061
59 *4884:CLK *975:31 3.64998e-06
60 *4884:D *975:31 0.000141684
61 *4928:A *4199:B2 0
62 *4928:A *975:105 0.00018714
63 *4966:A *975:105 0.000138544
64 *170:59 *975:105 0
65 *519:22 *4549:D 2.05864e-05
66 *549:12 *4549:D 0
67 *556:18 *4591:D 3.37809e-05
68 *614:10 *975:52 0
69 *617:10 *975:52 1.79536e-05
70 *774:10 *975:105 3.67779e-05
71 *774:12 *975:105 0.000311167
72 *796:23 *975:63 0.000118081
73 *796:25 *4549:D 0
74 *796:25 *975:74 0
75 *840:53 *975:105 0
76 *840:55 *975:105 0
77 *840:57 *975:105 0
78 *840:61 *975:12 0
79 *840:61 *975:105 0
80 *859:16 *4199:B2 0.000159964
81 *866:65 *975:105 3.81908e-06
82 *866:65 *975:124 6.3124e-06
*RES
1 *4962:X *975:6 3.6 
2 *975:6 *975:12 6.38 
3 *975:12 *4264:A0 1.6 
4 *975:12 *975:31 24.9587 
5 *975:31 *4663:D 1.6 
6 *975:31 *975:38 2.77125 
7 *975:38 *975:52 8.4972 
8 *975:52 *4145:A 1.6 
9 *975:52 *975:63 5.285 
10 *975:63 *4632:D 4.14375 
11 *975:63 *975:74 8.265 
12 *975:74 *4591:D 4.14375 
13 *975:74 *4549:D 7.47375 
14 *975:38 *4689:A0 1.6 
15 *975:6 *975:105 32.825 
16 *975:105 *4199:B2 8.61875 
17 *975:105 *975:124 2.295 
18 *975:124 *4426:B1 1.6 
19 *975:124 *4427:A 2.395 
*END

*D_NET *976 0.0132354
*CONN
*I *4506:A1_N I *D sky130_fd_sc_hd__o2bb2a_1
*I *4549:C I *D sky130_fd_sc_hd__and4b_1
*I *4591:C I *D sky130_fd_sc_hd__and4b_1
*I *4592:A1_N I *D sky130_fd_sc_hd__o2bb2a_1
*I *4631:A1_N I *D sky130_fd_sc_hd__o2bb2a_1
*I *4632:C I *D sky130_fd_sc_hd__and4b_1
*I *4662:A1_N I *D sky130_fd_sc_hd__o2bb2a_1
*I *4689:A1 I *D sky130_fd_sc_hd__mux2_1
*I *4663:C I *D sky130_fd_sc_hd__and4b_1
*I *4262:A0 I *D sky130_fd_sc_hd__mux2_1
*I *4963:X O *D sky130_fd_sc_hd__clkbuf_2
*CAP
1 *4506:A1_N 0.00044678
2 *4549:C 0
3 *4591:C 4.8254e-05
4 *4592:A1_N 7.48496e-06
5 *4631:A1_N 2.58229e-05
6 *4632:C 4.61605e-05
7 *4662:A1_N 0.000262442
8 *4689:A1 0
9 *4663:C 0.000198086
10 *4262:A0 0.00020048
11 *4963:X 0
12 *976:122 0.000566584
13 *976:109 0.000214068
14 *976:98 0.000146555
15 *976:87 0.000165302
16 *976:74 0.000208188
17 *976:51 0.00072638
18 *976:29 0.000278278
19 *976:23 0.00181012
20 *976:4 0.00158208
21 *4506:A1_N *4506:B1 0.000126149
22 *4506:A1_N *4507:B 7.75984e-06
23 *4506:A1_N *4512:B 0.000195925
24 *4506:A1_N *977:46 0
25 *4506:A1_N *998:84 0.000106655
26 *4506:A1_N *998:92 0.000203762
27 *4506:A1_N *1000:62 7.35813e-05
28 *4506:A1_N *1003:10 0
29 *4591:C *4591:B 5.83121e-06
30 *4592:A1_N *4592:A2_N 5.83121e-06
31 *4632:C *4632:B 2.49909e-05
32 *976:51 *994:94 7.27194e-05
33 *976:74 *994:94 0.000118459
34 *4263:A *4262:A0 8.46818e-05
35 *4549:D *976:122 0.000309657
36 *4591:D *4591:C 1.08758e-05
37 *4632:D *4632:C 1.08758e-05
38 *4662:B2 *4662:A1_N 8.40213e-05
39 *4662:B2 *976:74 0.000100188
40 *4664:A *976:51 8.52972e-05
41 *4664:B *976:29 1.46781e-05
42 *4688:A2 *976:51 6.34267e-05
43 *161:19 *976:74 0.000120186
44 *161:19 *976:87 0.000201335
45 *161:30 *976:87 8.53113e-06
46 *161:30 *976:98 0.000350399
47 *161:41 *4506:A1_N 0.000172838
48 *161:41 *976:98 8.53113e-06
49 *161:41 *976:109 0.000151432
50 *161:41 *976:122 0.000376542
51 *161:52 *4506:A1_N 0.000858429
52 *556:18 *4591:C 1.19928e-05
53 *580:20 *4631:A1_N 4.7776e-05
54 *587:10 *976:51 8.3135e-05
55 *587:10 *976:74 2.16389e-05
56 *617:10 *976:29 3.1191e-05
57 *617:31 *976:51 0.000313561
58 *618:6 *976:51 4.42148e-05
59 *619:10 *976:51 9.51579e-05
60 *642:18 *4662:A1_N 0.00018663
61 *906:10 *4262:A0 9.05592e-05
62 *975:31 *4262:A0 0.000194299
63 *975:31 *4663:C 5.91353e-05
64 *975:38 *4663:C 0.000251284
65 *975:52 *976:51 2.53191e-06
66 *975:63 *976:74 0.000158297
67 *975:63 *976:87 3.09233e-05
68 *975:74 *976:87 0.000178255
69 *975:74 *976:98 0.00035893
70 *975:74 *976:109 0.000158297
71 *975:74 *976:122 3.09233e-05
*RES
1 *4963:X *976:4 1.6 
2 *976:4 *4262:A0 9.95 
3 *976:4 *976:23 15.645 
4 *976:23 *976:29 5.125 
5 *976:29 *4663:C 4.465 
6 *976:29 *4689:A1 1.6 
7 *976:23 *976:51 10.745 
8 *976:51 *4662:A1_N 7.66125 
9 *976:51 *976:74 3.975 
10 *976:74 *4632:C 4.41 
11 *976:74 *976:87 2.4 
12 *976:87 *4631:A1_N 4.06125 
13 *976:87 *976:98 4.185 
14 *976:98 *4592:A1_N 3.71625 
15 *976:98 *976:109 1.89 
16 *976:109 *4591:C 4.41 
17 *976:109 *976:122 4.44 
18 *976:122 *4549:C 3.6 
19 *976:122 *4506:A1_N 16.8412 
*END

*D_NET *977 0.0227241
*CONN
*I *4507:C I *D sky130_fd_sc_hd__and4b_1
*I *4461:C I *D sky130_fd_sc_hd__and4b_1
*I *4460:A1_N I *D sky130_fd_sc_hd__o2bb2a_1
*I *4372:B1 I *D sky130_fd_sc_hd__o211a_1
*I *4373:A1 I *D sky130_fd_sc_hd__a211oi_1
*I *4195:B2 I *D sky130_fd_sc_hd__a22o_1
*I *4414:A I *D sky130_fd_sc_hd__and4_1
*I *4416:B2 I *D sky130_fd_sc_hd__a22o_1
*I *4548:A1_N I *D sky130_fd_sc_hd__o2bb2a_1
*I *4963:A I *D sky130_fd_sc_hd__clkbuf_2
*I *4964:X O *D sky130_fd_sc_hd__buf_2
*CAP
1 *4507:C 2.83849e-05
2 *4461:C 6.26668e-05
3 *4460:A1_N 0
4 *4372:B1 0.000236742
5 *4373:A1 0
6 *4195:B2 0.00118279
7 *4414:A 0
8 *4416:B2 0
9 *4548:A1_N 0
10 *4963:A 0.000208163
11 *4964:X 3.81602e-05
12 *977:117 0.000926394
13 *977:92 0.0019864
14 *977:83 0.000310511
15 *977:68 0.000646741
16 *977:54 0.000465969
17 *977:52 0.000418515
18 *977:46 0.00103129
19 *977:31 0.00286431
20 *977:6 0.00244779
21 *4195:B2 *4192:B2 0.000163992
22 *4195:B2 *4384:B1 9.80663e-05
23 *4195:B2 *997:55 0.000277114
24 *4195:B2 *1003:73 0.000150345
25 *4372:B1 *4372:C1 0.000130933
26 *4461:C *4461:A_N 0.000111455
27 *4461:C *4461:B 0.00023468
28 *4507:C *4507:B 4.82919e-05
29 *977:31 *4548:B1 0.000206538
30 *977:31 *4631:B1 0.000406069
31 *977:31 *4632:A_N 0.000102184
32 *977:31 *978:49 8.34426e-05
33 *977:31 *978:96 2.68721e-05
34 *977:31 *994:63 0
35 *977:31 *996:100 0.000527967
36 *977:31 *996:102 6.45236e-05
37 *977:46 *4512:B 0
38 *977:46 *998:84 0
39 *977:46 *998:92 0
40 *977:46 *1003:10 5.73518e-05
41 *977:52 *1003:10 5.39961e-05
42 *977:52 *1003:30 0.000534151
43 *977:54 *4461:A_N 4.85529e-05
44 *977:54 *4461:B 5.94567e-05
45 *977:68 *4461:A_N 0.000150381
46 *977:68 *4461:B 3.54684e-05
47 *977:68 *979:61 0.00015997
48 *977:68 *1003:30 0
49 *977:68 *1003:45 0.000182484
50 *977:68 *1006:14 0
51 *977:83 *979:61 9.50342e-06
52 *977:83 *1003:73 1.61461e-05
53 *977:83 *1006:45 0.00022309
54 *977:83 *1008:14 0.00011852
55 *977:92 *1006:59 0.000381323
56 *977:92 *1008:14 0.000205311
57 *977:117 *4372:C1 4.82919e-05
58 *977:117 *979:106 0
59 *977:117 *1006:59 0.000176647
60 *977:117 *1008:14 0.000232766
61 *977:117 *1008:31 3.25997e-05
62 *4168:A1 *4963:A 0
63 *4343:A *977:117 5.16418e-05
64 *4343:B *977:117 0
65 *4344:A *977:117 9.50342e-06
66 *4344:B *977:117 0
67 *4372:A2 *4372:B1 2.57174e-05
68 *4374:B *4372:B1 0.000124895
69 *4379:A_N *4195:B2 8.65961e-05
70 *4380:B *977:117 6.02123e-05
71 *4418:B1 *977:52 4.9968e-05
72 *4418:B1 *977:68 0
73 *4461:D *4461:C 0.0001249
74 *4462:A *977:68 0
75 *4506:A1_N *977:46 0
76 *4508:A *4507:C 7.4725e-05
77 *4548:B2 *977:31 8.65905e-05
78 *4550:A *977:31 9.72742e-06
79 *4550:A *977:46 9.78003e-05
80 *4550:B *977:46 3.09233e-05
81 *4660:B1 *977:31 0
82 *4662:B2 *977:31 0
83 *4844:CLK *4963:A 0
84 *4884:D *4963:A 3.06667e-05
85 *4964:A *977:31 0.000164024
86 *4990:A *977:68 1.92979e-05
87 *161:19 *977:31 0
88 *161:41 *977:31 0
89 *161:52 *977:31 0
90 *301:19 *977:117 0.000185633
91 *304:14 *977:117 0
92 *348:12 *4195:B2 0.000315527
93 *351:20 *4195:B2 0.00123302
94 *393:14 *4195:B2 0.000120655
95 *441:10 *977:68 0
96 *441:10 *977:83 0
97 *442:6 *977:68 0.000154098
98 *511:16 *977:46 6.26945e-05
99 *614:10 *977:31 0.000216945
100 *781:39 *977:68 6.58423e-05
101 *796:23 *977:6 1.4389e-05
102 *796:23 *977:31 0.000556416
103 *796:25 *977:46 0.000343399
104 *796:36 *977:52 0
105 *859:29 *4195:B2 0.000162332
106 *975:52 *977:31 3.26084e-05
*RES
1 *4964:X *977:6 2.05 
2 *977:6 *4963:A 8.765 
3 *977:6 *977:31 42.4863 
4 *977:31 *4548:A1_N 1.6 
5 *977:31 *977:46 15.0238 
6 *977:46 *977:52 9.185 
7 *977:52 *977:54 0.57375 
8 *977:54 *977:68 15.9563 
9 *977:68 *4416:B2 3.6 
10 *977:68 *977:83 5.19 
11 *977:83 *4414:A 3.6 
12 *977:83 *977:92 4.44 
13 *977:92 *4195:B2 34.555 
14 *977:92 *977:117 15.335 
15 *977:117 *4373:A1 1.6 
16 *977:117 *4372:B1 5.08 
17 *977:54 *4460:A1_N 1.6 
18 *977:52 *4461:C 4.12 
19 *977:46 *4507:C 4.395 
*END

*D_NET *978 0.0142604
*CONN
*I *4260:A0 I *D sky130_fd_sc_hd__mux2_1
*I *4561:A1 I *D sky130_fd_sc_hd__a22o_1
*I *4512:A I *D sky130_fd_sc_hd__nand2_1
*I *4467:A I *D sky130_fd_sc_hd__nand2_1
*I *4630:A1 I *D sky130_fd_sc_hd__a31o_1
*I *4625:A1 I *D sky130_fd_sc_hd__a21oi_2
*I *4624:A1 I *D sky130_fd_sc_hd__a22oi_1
*I *4660:A1 I *D sky130_fd_sc_hd__a21oi_2
*I *4599:A I *D sky130_fd_sc_hd__nand2_1
*I *4560:A I *D sky130_fd_sc_hd__nand4_1
*I *4965:X O *D sky130_fd_sc_hd__buf_2
*CAP
1 *4260:A0 0
2 *4561:A1 0
3 *4512:A 8.72713e-05
4 *4467:A 0.000498185
5 *4630:A1 0
6 *4625:A1 0
7 *4624:A1 0.000156071
8 *4660:A1 7.0997e-05
9 *4599:A 7.95331e-05
10 *4560:A 9.69839e-05
11 *4965:X 0.000290733
12 *978:96 0.000870874
13 *978:73 0.000316582
14 *978:71 0.000160512
15 *978:60 0.000350565
16 *978:49 0.00072329
17 *978:43 0.00143184
18 *978:28 0.00120295
19 *978:20 0.00112667
20 *978:10 0.00109367
21 *4467:A *4467:B 0.000275822
22 *4467:A *979:42 0
23 *4560:A *996:49 4.83324e-05
24 *4624:A1 *4557:A 4.82919e-05
25 *4624:A1 *983:54 8.87307e-05
26 *4660:A1 *994:69 0.000116158
27 *978:10 *979:6 6.15324e-05
28 *978:10 *979:23 2.66586e-05
29 *978:10 *999:29 8.67698e-06
30 *978:20 *4556:A2 0.00015502
31 *978:20 *4561:A2 0
32 *978:20 *4981:A 2.16833e-05
33 *978:20 *996:6 4.16445e-05
34 *978:20 *996:19 0.000397142
35 *978:28 *981:98 0.000314745
36 *978:28 *994:43 0
37 *978:43 *4514:B2 7.60398e-05
38 *978:43 *981:98 0.000160641
39 *978:43 *981:122 0.000297067
40 *978:43 *996:81 0.000241483
41 *978:43 *996:100 0.000340498
42 *978:49 *4548:B1 0.00013521
43 *978:49 *994:63 0
44 *978:60 *983:60 0
45 *978:60 *994:63 0.00055577
46 *978:60 *994:69 8.53113e-06
47 *978:60 *1000:37 0
48 *978:73 *4557:A 0.000191521
49 *978:73 *4557:B 1.61831e-05
50 *978:73 *4557:C 9.16333e-06
51 *978:73 *983:54 6.47326e-05
52 *978:96 *4514:A1 0
53 *978:96 *4548:B1 5.16418e-05
54 *978:96 *979:42 0
55 *978:96 *994:63 0
56 *4166:S *978:20 0.000244998
57 *4261:A *978:10 6.45236e-05
58 *4261:A *978:20 0.000178321
59 *4471:A *4467:A 3.00381e-05
60 *4516:A *4512:A 8.65961e-05
61 *4516:B *978:96 0.000116158
62 *4560:C *978:20 2.05056e-05
63 *4561:B1 *978:20 0
64 *4561:B2 *978:28 1.22762e-05
65 *4590:A *4560:A 0
66 *4590:A *978:28 0
67 *4624:B1 *4624:A1 9.53428e-06
68 *4625:A2 *978:60 0
69 *4625:A2 *978:73 8.8266e-05
70 *4625:B1 *4624:A1 4.82919e-05
71 *4630:A3 *4660:A1 7.44453e-05
72 *4630:A3 *978:73 8.49205e-05
73 *4660:B1 *4660:A1 0
74 *4660:B1 *978:73 4.82863e-05
75 *4843:CLK *978:10 7.23533e-05
76 *4843:CLK *978:20 0.000201407
77 *161:52 *4467:A 0
78 *161:52 *978:96 0
79 *463:16 *4467:A 0.000124895
80 *472:10 *978:96 0
81 *504:20 *4512:A 8.8266e-05
82 *504:20 *978:96 0
83 *513:8 *978:20 0.000104924
84 *514:8 *978:73 9.21168e-05
85 *515:6 *4624:A1 1.83847e-05
86 *516:23 *4560:A 0
87 *516:23 *978:28 0
88 *556:18 *978:60 0
89 *840:53 *978:20 3.09164e-05
90 *977:31 *978:49 8.34426e-05
91 *977:31 *978:96 2.68721e-05
*RES
1 *4965:X *978:10 7.68 
2 *978:10 *978:20 17.9 
3 *978:20 *978:28 8.755 
4 *978:28 *4560:A 7.235 
5 *978:28 *978:43 12.8 
6 *978:43 *978:49 8.285 
7 *978:49 *4599:A 2.74 
8 *978:49 *978:60 8.48 
9 *978:60 *4660:A1 5.49 
10 *978:60 *978:71 2 
11 *978:71 *978:73 4.935 
12 *978:73 *4624:A1 4.93 
13 *978:73 *4625:A1 1.6 
14 *978:71 *4630:A1 1.6 
15 *978:43 *978:96 5.0775 
16 *978:96 *4467:A 12.9825 
17 *978:96 *4512:A 5.4225 
18 *978:20 *4561:A1 1.6 
19 *978:10 *4260:A0 3.6 
*END

*D_NET *979 0.0195941
*CONN
*I *4547:A1 I *D sky130_fd_sc_hd__a31o_1
*I *4342:A I *D sky130_fd_sc_hd__nand2_1
*I *4413:A1 I *D sky130_fd_sc_hd__a31o_1
*I *4375:A I *D sky130_fd_sc_hd__nand2_1
*I *4414:B I *D sky130_fd_sc_hd__and4_1
*I *4416:A1 I *D sky130_fd_sc_hd__a22o_1
*I *4505:A1 I *D sky130_fd_sc_hd__a31o_1
*I *4965:A I *D sky130_fd_sc_hd__buf_2
*I *4192:B2 I *D sky130_fd_sc_hd__a22o_1
*I *4966:X O *D sky130_fd_sc_hd__buf_2
*CAP
1 *4547:A1 0
2 *4342:A 0.000292695
3 *4413:A1 3.60828e-05
4 *4375:A 1.71066e-05
5 *4414:B 1.36534e-05
6 *4416:A1 0
7 *4505:A1 0.000116817
8 *4965:A 3.55506e-05
9 *4192:B2 0.00127974
10 *4966:X 5.64599e-05
11 *979:106 0.000767755
12 *979:89 0.000932293
13 *979:76 0.00072443
14 *979:61 0.000937339
15 *979:42 0.00128903
16 *979:36 0.00115263
17 *979:23 0.000759304
18 *979:6 0.00137677
19 *4192:B2 *4192:A1 0.000120655
20 *4192:B2 *4199:A1 1.34361e-05
21 *4192:B2 *995:48 0
22 *4192:B2 *995:68 0.000201772
23 *4192:B2 *995:81 0.000267487
24 *4342:A *1006:67 0.000266243
25 *4342:A *1008:14 0
26 *4413:A1 *1006:67 2.97561e-05
27 *4413:A1 *1008:14 0
28 *4414:B *4414:D 4.66108e-05
29 *4505:A1 *1000:47 0.000307043
30 *979:6 *999:29 0.000193801
31 *979:23 *999:29 0.000163204
32 *979:36 *4554:A2 0.00039046
33 *979:36 *998:25 8.40269e-05
34 *979:36 *998:76 0.000414543
35 *979:36 *999:29 0.000918133
36 *979:42 *984:59 0.000121696
37 *979:42 *1000:43 0
38 *979:61 *4467:B 0.000128197
39 *979:61 *1000:47 0.000377909
40 *979:61 *1000:62 8.65961e-05
41 *979:61 *1003:30 0
42 *979:61 *1006:14 0.000231762
43 *979:61 *1006:30 0.000254052
44 *979:61 *1006:45 2.07184e-05
45 *979:76 *1003:54 0.000292059
46 *979:76 *1003:73 4.9968e-05
47 *979:89 *4414:D 3.74161e-05
48 *979:89 *1003:73 0
49 *979:89 *1006:59 0
50 *979:106 *1006:59 9.85603e-05
51 *4169:A *4192:B2 0.000343499
52 *4193:B1 *4192:B2 2.75229e-05
53 *4195:B2 *4192:B2 0.000163992
54 *4199:B2 *4192:B2 0.000252977
55 *4379:B *4413:A1 0
56 *4379:B *979:106 4.35348e-05
57 *4380:A *4375:A 8.65961e-05
58 *4380:A *979:106 0.000124895
59 *4380:B *979:106 3.09179e-05
60 *4415:A *979:76 0
61 *4418:A2_N *979:76 0
62 *4467:A *979:42 0
63 *4470:A_N *4505:A1 0.000130453
64 *4470:A_N *979:61 7.35813e-05
65 *4474:A2 *4192:B2 0.000360604
66 *4505:B1 *4505:A1 6.58339e-05
67 *4515:A_N *979:36 2.75229e-05
68 *4525:A2 *979:61 0
69 *4554:B1 *4192:B2 0
70 *4554:B1 *979:36 4.82919e-05
71 *5107:A *4192:B2 0.000109989
72 *161:52 *979:61 4.27745e-05
73 *161:65 *979:61 0.00017974
74 *180:86 *4192:B2 0.000150102
75 *181:50 *4414:B 4.66108e-05
76 *181:50 *979:89 0.000161529
77 *304:14 *4342:A 8.8266e-05
78 *339:14 *979:106 8.65961e-05
79 *373:12 *4375:A 5.05521e-05
80 *373:12 *979:106 9.27255e-06
81 *374:12 *979:76 3.68596e-05
82 *375:12 *979:76 0
83 *376:14 *979:76 4.91189e-05
84 *392:12 *979:89 0
85 *418:14 *979:61 4.91952e-05
86 *418:14 *979:76 3.58657e-05
87 *430:12 *979:61 0
88 *439:10 *979:61 0
89 *472:10 *979:42 2.97004e-06
90 *504:20 *979:42 0
91 *511:16 *979:36 0.000500662
92 *859:16 *4192:B2 0.000594546
93 *859:29 *4192:B2 0.000203443
94 *973:24 *4192:B2 0.000134613
95 *973:35 *4192:B2 0.000119756
96 *975:105 *4192:B2 0
97 *977:68 *979:61 0.00015997
98 *977:83 *979:61 9.50342e-06
99 *977:117 *979:106 0
100 *978:10 *979:6 6.15324e-05
101 *978:10 *979:23 2.66586e-05
102 *978:96 *979:42 0
*RES
1 *4966:X *979:6 3.43 
2 *979:6 *4192:B2 40.97 
3 *979:6 *979:23 1.485 
4 *979:23 *4965:A 2.215 
5 *979:23 *979:36 19.545 
6 *979:36 *979:42 11.755 
7 *979:42 *4505:A1 5.17 
8 *979:42 *979:61 21.64 
9 *979:61 *4416:A1 1.6 
10 *979:61 *979:76 9.085 
11 *979:76 *4414:B 2.05 
12 *979:76 *979:89 9.965 
13 *979:89 *4375:A 4.395 
14 *979:89 *979:106 9.895 
15 *979:106 *4413:A1 4.215 
16 *979:106 *4342:A 10.2 
17 *979:36 *4547:A1 1.6 
*END

*D_NET *980 0.000281189
*CONN
*I *4150:D I *D sky130_fd_sc_hd__or4_1
*I *5064:X O *D sky130_fd_sc_hd__clkbuf_1
*CAP
1 *4150:D 6.67162e-05
2 *5064:X 6.67162e-05
3 *4150:B *4150:D 9.54469e-05
4 *5064:A *4150:D 5.23093e-05
*RES
1 *5064:X *4150:D 8.775 
*END

*D_NET *981 0.0144459
*CONN
*I *4514:B2 I *D sky130_fd_sc_hd__a22o_1
*I *4513:A I *D sky130_fd_sc_hd__and4_1
*I *4468:A I *D sky130_fd_sc_hd__and4_1
*I *4469:B2 I *D sky130_fd_sc_hd__a22o_1
*I *4556:B2 I *D sky130_fd_sc_hd__a22o_1
*I *4559:A I *D sky130_fd_sc_hd__nand4_1
*I *4558:A I *D sky130_fd_sc_hd__nand3_1
*I *4557:A I *D sky130_fd_sc_hd__and3_1
*I *4597:A1 I *D sky130_fd_sc_hd__o21a_1
*I *4258:A0 I *D sky130_fd_sc_hd__mux2_1
*I *4967:X O *D sky130_fd_sc_hd__buf_2
*CAP
1 *4514:B2 9.41343e-05
2 *4513:A 0
3 *4468:A 0.000131587
4 *4469:B2 0
5 *4556:B2 0
6 *4559:A 0.000149548
7 *4558:A 0
8 *4557:A 0.000375087
9 *4597:A1 0
10 *4258:A0 0
11 *4967:X 0.000107048
12 *981:122 0.000156881
13 *981:102 0.000418689
14 *981:98 0.000643436
15 *981:85 0.00036927
16 *981:68 0.000289257
17 *981:37 0.000519678
18 *981:31 0.000550635
19 *981:21 0.001606
20 *981:12 0.00124298
21 *4468:A *4468:C 5.83121e-06
22 *4468:A *4469:B1 8.49205e-05
23 *4468:A *4987:A 5.6361e-05
24 *4468:A *985:65 7.63204e-05
25 *4514:B2 *4514:B1 1.85674e-05
26 *4514:B2 *994:52 6.77501e-05
27 *4514:B2 *996:73 0.00015639
28 *4514:B2 *996:81 0.0001249
29 *4557:A *4597:A2 2.30292e-05
30 *4557:A *992:79 4.82919e-05
31 *4557:A *992:85 4.30549e-05
32 *4559:A *983:29 5.16418e-05
33 *4559:A *1000:37 0.000153816
34 *981:12 *1000:37 4.66108e-05
35 *981:21 *995:8 4.82919e-05
36 *981:31 *983:10 6.52181e-05
37 *981:31 *984:27 9.50342e-06
38 *981:31 *984:46 0.000125005
39 *981:31 *992:29 0.00011686
40 *981:37 *4597:A2 0.00034241
41 *981:37 *983:10 3.09233e-05
42 *981:37 *984:27 5.4003e-05
43 *981:37 *992:79 0
44 *981:68 *992:29 0.000248247
45 *981:85 *4556:A2 0.000152134
46 *981:85 *992:29 7.23602e-05
47 *981:98 *4556:A2 3.25831e-05
48 *981:98 *4632:A_N 0.000378797
49 *981:98 *994:43 7.07879e-05
50 *981:98 *997:23 0.000467074
51 *981:102 *996:49 4.9968e-05
52 *981:102 *997:27 0
53 *981:122 *4632:A_N 0.0001947
54 *981:122 *996:73 5.93953e-05
55 *4258:A1 *981:12 0.00024756
56 *4258:A1 *981:21 4.82863e-05
57 *4258:S *981:21 1.47347e-05
58 *4598:B *4557:A 0
59 *4624:A1 *4557:A 4.82919e-05
60 *4968:A *4468:A 0.000162318
61 *4968:A *981:102 0.000551807
62 *4978:A *981:31 0.000118527
63 *4978:A *981:68 0.00024139
64 *4978:A *981:85 0.000219019
65 *4978:A *981:98 0.000154488
66 *4980:A *981:21 4.66742e-05
67 *4980:A *981:31 0
68 *224:44 *981:12 0.000245893
69 *553:8 *4557:A 0
70 *553:26 *4557:A 0.000163204
71 *580:20 *4557:A 9.54469e-05
72 *792:25 *981:21 0.000460545
73 *792:25 *981:31 0.000457691
74 *978:28 *981:98 0.000314745
75 *978:43 *4514:B2 7.60398e-05
76 *978:43 *981:98 0.000160641
77 *978:43 *981:122 0.000297067
78 *978:73 *4557:A 0.000191521
*RES
1 *4967:X *981:12 8.96 
2 *981:12 *4258:A0 1.6 
3 *981:12 *981:21 16.595 
4 *981:21 *981:31 11.26 
5 *981:31 *981:37 5.72 
6 *981:37 *4597:A1 1.6 
7 *981:37 *4557:A 12.725 
8 *981:31 *4558:A 3.6 
9 *981:21 *981:68 2.91 
10 *981:68 *4559:A 9.7 
11 *981:68 *981:85 2.655 
12 *981:85 *4556:B2 3.6 
13 *981:85 *981:98 11.585 
14 *981:98 *981:102 8.48 
15 *981:102 *4469:B2 3.6 
16 *981:102 *4468:A 6.975 
17 *981:98 *981:122 2.865 
18 *981:122 *4513:A 1.6 
19 *981:122 *4514:B2 4.84 
*END

*D_NET *982 0.01052
*CONN
*I *4315:A I *D sky130_fd_sc_hd__and4_1
*I *4314:B2 I *D sky130_fd_sc_hd__a22oi_1
*I *4189:B2 I *D sky130_fd_sc_hd__a22o_1
*I *4340:B2 I *D sky130_fd_sc_hd__a22oi_1
*I *4339:A I *D sky130_fd_sc_hd__and4_1
*I *4377:A I *D sky130_fd_sc_hd__and4_1
*I *4378:B2 I *D sky130_fd_sc_hd__a22o_1
*I *4376:A I *D sky130_fd_sc_hd__nand2_1
*I *4968:X O *D sky130_fd_sc_hd__clkbuf_2
*CAP
1 *4315:A 0
2 *4314:B2 0
3 *4189:B2 0.00117171
4 *4340:B2 0.000285788
5 *4339:A 0
6 *4377:A 2.42561e-05
7 *4378:B2 1.84051e-05
8 *4376:A 0.000123178
9 *4968:X 0
10 *982:83 0.00144586
11 *982:79 0.000730295
12 *982:58 0.000784147
13 *982:49 0.00038317
14 *982:38 0.000609896
15 *982:23 0.00068282
16 *982:4 0.000542903
17 *4189:B2 *4186:A1 9.52646e-05
18 *4189:B2 *4189:A1 0.000304571
19 *4189:B2 *4302:B 4.66108e-05
20 *4189:B2 *984:99 0.000120752
21 *4340:B2 *4340:A2 4.61701e-06
22 *4340:B2 *1003:93 2.0851e-06
23 *4340:B2 *1006:67 8.7152e-06
24 *4340:B2 *1006:73 0.000102296
25 *4376:A *997:55 0
26 *4376:A *1000:97 0.000130065
27 *4377:A *984:59 5.53249e-06
28 *4377:A *984:70 2.77306e-05
29 *982:23 *1000:97 0
30 *982:49 *4340:A2 0
31 *982:49 *984:70 0.000375606
32 *982:49 *984:78 1.22762e-05
33 *982:58 *984:78 3.47668e-05
34 *982:79 *984:78 0.000300095
35 *982:79 *984:93 2.96553e-05
36 *982:79 *1006:73 2.05056e-05
37 *982:83 *4314:A2 0.000113144
38 *982:83 *4314:B1 1.87448e-05
39 *982:83 *1006:73 7.22354e-05
40 *4302:D *4189:B2 8.23457e-05
41 *4314:A1 *982:38 3.96088e-05
42 *4314:A1 *982:49 0
43 *4314:A1 *982:83 2.25157e-05
44 *4425:A *4376:A 1.01661e-05
45 *4425:B *4376:A 6.28843e-05
46 *4459:B1 *4376:A 3.25831e-05
47 *181:44 *4376:A 1.34594e-05
48 *278:12 *982:83 4.99619e-05
49 *339:14 *4377:A 3.09164e-05
50 *384:8 *4376:A 2.4997e-05
51 *385:12 *4376:A 9.13951e-05
52 *385:12 *982:23 0.000205971
53 *391:12 *4376:A 0.000198945
54 *391:12 *982:23 9.94023e-05
55 *792:33 *982:23 0.000205828
56 *792:33 *982:38 6.26955e-05
57 *973:24 *4189:B2 0.000658589
*RES
1 *4968:X *982:4 1.6 
2 *982:4 *4376:A 10.085 
3 *982:4 *982:23 10.7675 
4 *982:23 *4378:B2 4.0875 
5 *982:23 *982:38 3.75 
6 *982:38 *4377:A 4.3425 
7 *982:38 *982:49 7.8825 
8 *982:49 *4339:A 3.6 
9 *982:49 *982:58 1.125 
10 *982:58 *4340:B2 11.5 
11 *982:58 *982:79 11.735 
12 *982:79 *982:83 5.115 
13 *982:83 *4189:B2 23.11 
14 *982:83 *4314:B2 1.6 
15 *982:79 *4315:A 1.6 
*END

*D_NET *983 0.0128357
*CONN
*I *4557:B I *D sky130_fd_sc_hd__and3_1
*I *4514:A1 I *D sky130_fd_sc_hd__a22o_1
*I *4513:B I *D sky130_fd_sc_hd__and4_1
*I *4423:B2 I *D sky130_fd_sc_hd__a22o_1
*I *4422:A I *D sky130_fd_sc_hd__nand4_1
*I *4468:B I *D sky130_fd_sc_hd__and4_1
*I *4558:B I *D sky130_fd_sc_hd__nand3_1
*I *4556:A1 I *D sky130_fd_sc_hd__a22o_1
*I *4559:B I *D sky130_fd_sc_hd__nand4_1
*I *4597:A2 I *D sky130_fd_sc_hd__o21a_1
*I *4969:X O *D sky130_fd_sc_hd__buf_2
*CAP
1 *4557:B 3.28188e-05
2 *4514:A1 0.000296346
3 *4513:B 0
4 *4423:B2 8.47347e-05
5 *4422:A 4.43085e-05
6 *4468:B 0
7 *4558:B 0
8 *4556:A1 5.35574e-05
9 *4559:B 3.69588e-05
10 *4597:A2 0.000203809
11 *4969:X 0
12 *983:89 0.000793246
13 *983:70 0.00102511
14 *983:64 0.00042311
15 *983:60 0.000796343
16 *983:54 0.000937292
17 *983:29 0.000434605
18 *983:23 0.000344088
19 *983:10 0.000351368
20 *983:4 0.000614234
21 *4422:A *4422:D 0.000124895
22 *4422:A *997:42 1.8847e-05
23 *4422:A *999:29 3.07421e-05
24 *4423:B2 *4423:B1 4.82863e-05
25 *4423:B2 *997:42 6.23375e-05
26 *4423:B2 *999:29 7.34364e-05
27 *4423:B2 *999:42 1.71013e-05
28 *4514:A1 *994:63 5.53249e-06
29 *4556:A1 *994:30 8.45475e-05
30 *4559:B *4599:B 4.66108e-05
31 *4597:A2 *994:17 0
32 *983:10 *992:62 1.91597e-05
33 *983:29 *984:27 0.000316415
34 *983:29 *992:51 0.000239813
35 *983:29 *992:62 4.35348e-05
36 *983:29 *994:17 0.000554161
37 *983:29 *994:30 7.30547e-05
38 *983:60 *994:63 0
39 *983:60 *996:81 5.16348e-05
40 *983:60 *1000:37 0.000225189
41 *983:60 *1000:43 0.000241171
42 *983:64 *994:43 3.57349e-05
43 *983:64 *994:52 4.82919e-05
44 *983:70 *4468:C 0.000108659
45 *983:70 *994:43 0.000160635
46 *983:70 *996:53 0.00017219
47 *983:70 *998:25 0.00015829
48 *983:70 *998:29 0.000441825
49 *983:70 *998:46 0.000109995
50 *983:89 *4422:D 0.000991278
51 *983:89 *998:46 9.50342e-06
52 *4557:A *4597:A2 2.30292e-05
53 *4559:A *983:29 5.16418e-05
54 *4561:B2 *4556:A1 0
55 *4600:A *983:60 0.000178496
56 *4624:A1 *983:54 8.87307e-05
57 *4625:A2 *983:54 5.05437e-05
58 *4625:A2 *983:60 0.000103966
59 *4625:B1 *983:54 2.75229e-05
60 *4968:A *983:70 0
61 *4968:A *983:89 0
62 *4980:A *983:10 0
63 *4980:A *983:29 0
64 *382:10 *983:89 0.000238919
65 *471:12 *4514:A1 8.53113e-06
66 *515:6 *983:10 0.000122331
67 *515:6 *983:54 0.000189845
68 *556:18 *983:60 3.42142e-05
69 *781:39 *4423:B2 4.82863e-05
70 *792:33 *983:60 5.51901e-05
71 *792:33 *983:70 8.07785e-05
72 *792:33 *983:89 2.94152e-05
73 *978:60 *983:60 0
74 *978:73 *4557:B 1.61831e-05
75 *978:73 *983:54 6.47326e-05
76 *978:96 *4514:A1 0
77 *981:31 *983:10 6.52181e-05
78 *981:37 *4597:A2 0.00034241
79 *981:37 *983:10 3.09233e-05
*RES
1 *4969:X *983:4 1.6 
2 *983:4 *983:10 4.61 
3 *983:10 *4597:A2 8.01 
4 *983:10 *983:23 2 
5 *983:23 *983:29 12.11 
6 *983:29 *4559:B 4.05 
7 *983:29 *4556:A1 4.725 
8 *983:23 *4558:B 1.6 
9 *983:4 *983:54 6.315 
10 *983:54 *983:60 12.755 
11 *983:60 *983:64 2.795 
12 *983:64 *983:70 11.75 
13 *983:70 *4468:B 3.6 
14 *983:70 *983:89 20.23 
15 *983:89 *4422:A 5.355 
16 *983:89 *4423:B2 5.94 
17 *983:64 *4513:B 1.6 
18 *983:60 *4514:A1 6.6 
19 *983:54 *4557:B 2.05 
*END

*D_NET *984 0.0268334
*CONN
*I *4339:B I *D sky130_fd_sc_hd__and4_1
*I *4340:A1 I *D sky130_fd_sc_hd__a22oi_1
*I *4303:A1 I *D sky130_fd_sc_hd__a22o_1
*I *4302:A I *D sky130_fd_sc_hd__nand4_1
*I *4186:A1 I *D sky130_fd_sc_hd__a22o_1
*I *4315:B I *D sky130_fd_sc_hd__and4_1
*I *4377:B I *D sky130_fd_sc_hd__and4_1
*I *4469:A1 I *D sky130_fd_sc_hd__a22o_1
*I *4969:A I *D sky130_fd_sc_hd__buf_2
*I *4256:A0 I *D sky130_fd_sc_hd__mux2_1
*I *4970:X O *D sky130_fd_sc_hd__buf_6
*CAP
1 *4339:B 0
2 *4340:A1 0.000153395
3 *4303:A1 5.3921e-05
4 *4302:A 0
5 *4186:A1 0.00122399
6 *4315:B 0
7 *4377:B 0
8 *4469:A1 0
9 *4969:A 0
10 *4256:A0 0.000217718
11 *4970:X 0.000163012
12 *984:99 0.00136077
13 *984:93 0.00143545
14 *984:78 0.00164534
15 *984:72 0.000563087
16 *984:70 0.000232675
17 *984:59 0.00177678
18 *984:46 0.00254625
19 *984:27 0.00323293
20 *984:8 0.0026206
21 *4186:A1 *4189:A1 0.000160635
22 *4186:A1 *1001:44 4.31222e-06
23 *4340:A1 *4339:D 8.65961e-05
24 *4340:A1 *4375:B 4.87317e-05
25 *4340:A1 *1005:106 2.45351e-05
26 *984:27 *992:25 0.000165343
27 *984:27 *992:51 3.51884e-05
28 *984:27 *992:62 2.39856e-05
29 *984:27 *992:79 0
30 *984:46 *4632:A_N 8.44281e-05
31 *984:46 *992:79 0
32 *984:46 *996:53 0.00048729
33 *984:59 *4521:A 0
34 *984:59 *1000:89 0
35 *984:59 *1003:73 0.000123971
36 *984:70 *1003:73 5.53249e-06
37 *984:70 *1003:93 0.000398898
38 *984:72 *1005:106 2.05056e-05
39 *984:78 *1005:106 9.52646e-05
40 *984:99 *4189:A1 0.000318793
41 *4162:A1 *4256:A0 7.06865e-05
42 *4169:A *984:27 0.000130209
43 *4169:B *984:27 2.75145e-05
44 *4186:B1 *4186:A1 2.14559e-05
45 *4186:B2 *4186:A1 0.000347441
46 *4187:C1 *4186:A1 1.37328e-05
47 *4189:B2 *4186:A1 9.52646e-05
48 *4189:B2 *984:99 0.000120752
49 *4193:B1 *4186:A1 0.000229897
50 *4196:B1 *4303:A1 6.28498e-05
51 *4196:B1 *984:99 0.000116165
52 *4256:A1 *4256:A0 0.000233918
53 *4257:B *4256:A0 4.9253e-06
54 *4302:D *984:99 8.23457e-05
55 *4303:B2 *984:93 0.0001249
56 *4314:A1 *984:78 0.000344168
57 *4316:A *984:93 0
58 *4325:C *984:93 0.00039046
59 *4355:A2 *984:93 6.77501e-05
60 *4377:A *984:59 5.53249e-06
61 *4377:A *984:70 2.77306e-05
62 *4471:B *984:59 0.000117832
63 *4481:A1 *984:59 2.24423e-05
64 *4598:B *984:46 2.96553e-05
65 *4844:D *984:27 0.000146835
66 *4845:D *984:27 1.43717e-05
67 *4929:A *4186:A1 2.75145e-05
68 *4968:A *984:46 0.000523201
69 *4970:A *984:8 5.83121e-06
70 *4970:A *984:27 0.000110764
71 *181:44 *984:59 0
72 *199:10 *4303:A1 0
73 *199:10 *984:99 0
74 *249:29 *4186:A1 0.000130065
75 *278:12 *984:93 2.46089e-05
76 *278:23 *984:93 4.80182e-05
77 *279:10 *984:93 0.000218245
78 *301:8 *4340:A1 0.000159741
79 *317:8 *984:93 7.67415e-06
80 *339:14 *984:59 2.46007e-05
81 *427:12 *984:59 4.92096e-05
82 *428:10 *984:59 0.000193806
83 *430:12 *984:59 0
84 *430:20 *984:59 0.000116629
85 *437:12 *984:59 0
86 *438:10 *984:59 3.47837e-05
87 *439:10 *984:59 0
88 *440:10 *984:59 0.000317011
89 *441:10 *984:59 0
90 *463:16 *984:59 5.20968e-05
91 *478:12 *984:59 0.000153474
92 *479:18 *984:59 0.000252707
93 *775:14 *4186:A1 0.000379905
94 *788:8 *984:27 2.8585e-06
95 *792:25 *984:46 0.000462835
96 *792:33 *984:46 0
97 *792:33 *984:59 0
98 *979:42 *984:59 0.000121696
99 *981:31 *984:27 9.50342e-06
100 *981:31 *984:46 0.000125005
101 *981:37 *984:27 5.4003e-05
102 *982:49 *984:70 0.000375606
103 *982:49 *984:78 1.22762e-05
104 *982:58 *984:78 3.47668e-05
105 *982:79 *984:78 0.000300095
106 *982:79 *984:93 2.96553e-05
107 *983:29 *984:27 0.000316415
*RES
1 *4970:X *984:8 3.445 
2 *984:8 *4256:A0 10.07 
3 *984:8 *984:27 28.94 
4 *984:27 *4969:A 3.6 
5 *984:27 *984:46 26.52 
6 *984:46 *4469:A1 1.6 
7 *984:46 *984:59 33.485 
8 *984:59 *4377:B 3.6 
9 *984:59 *984:70 10.265 
10 *984:70 *984:72 0.45 
11 *984:72 *984:78 13.28 
12 *984:78 *4315:B 3.6 
13 *984:78 *984:93 20.485 
14 *984:93 *984:99 6.245 
15 *984:99 *4186:A1 24.005 
16 *984:99 *4302:A 1.6 
17 *984:93 *4303:A1 4.47 
18 *984:72 *4340:A1 5.17 
19 *984:70 *4339:B 1.6 
*END

*D_NET *985 0.011321
*CONN
*I *4519:A1 I *D sky130_fd_sc_hd__a31o_1
*I *4475:B1 I *D sky130_fd_sc_hd__a2bb2o_1
*I *4423:A1 I *D sky130_fd_sc_hd__a22o_1
*I *4476:C_N I *D sky130_fd_sc_hd__or4bb_4
*I *4521:A I *D sky130_fd_sc_hd__nand2_1
*I *4520:A I *D sky130_fd_sc_hd__and2_1
*I *4518:B1 I *D sky130_fd_sc_hd__a2bb2o_1
*I *4517:C_N I *D sky130_fd_sc_hd__or3b_1
*I *4554:A1 I *D sky130_fd_sc_hd__a21oi_2
*I *4254:A0 I *D sky130_fd_sc_hd__mux2_1
*I *4971:X O *D sky130_fd_sc_hd__buf_6
*CAP
1 *4519:A1 0
2 *4475:B1 0
3 *4423:A1 0.000636138
4 *4476:C_N 0
5 *4521:A 3.64887e-05
6 *4520:A 0
7 *4518:B1 2.9853e-05
8 *4517:C_N 0
9 *4554:A1 0.00017226
10 *4254:A0 0.000195918
11 *4971:X 0
12 *985:90 0.000673613
13 *985:67 0.000129304
14 *985:65 0.000395914
15 *985:61 0.000832276
16 *985:51 0.000805729
17 *985:38 0.000395361
18 *985:27 0.000467767
19 *985:21 0.00146149
20 *985:4 0.00148636
21 *4254:A0 *4971:A 0.000235339
22 *4423:A1 *4422:B 0
23 *4423:A1 *4423:B1 3.26889e-05
24 *4423:A1 *997:42 0
25 *4554:A1 *995:40 0.000335163
26 *985:21 *4971:A 0.000221528
27 *985:27 *995:40 0.000285082
28 *985:38 *995:40 2.92496e-05
29 *985:51 *993:53 8.26783e-05
30 *985:51 *995:48 0
31 *985:51 *995:110 2.8185e-05
32 *985:61 *4473:B1 0
33 *985:61 *4476:D_N 5.17287e-05
34 *985:65 *4422:B 0
35 *985:90 *4422:B 0
36 *4254:A1 *4254:A0 4.99619e-05
37 *4254:S *4254:A0 2.0514e-05
38 *4254:S *985:21 0.000103509
39 *4424:B *4423:A1 4.45687e-05
40 *4468:A *985:65 7.63204e-05
41 *4476:B *985:61 0.000337934
42 *4518:A2_N *985:38 7.26551e-05
43 *4519:B1 *985:21 3.00381e-05
44 *4519:B1 *985:27 1.12578e-05
45 *4521:B *985:67 0.0001249
46 *4522:B1 *4554:A1 0
47 *4554:B1 *4554:A1 0
48 *4968:A *4423:A1 0.000252786
49 *4968:A *985:65 0.000135658
50 *4968:A *985:90 3.26084e-05
51 *224:42 *985:21 0
52 *382:10 *4423:A1 7.06865e-05
53 *431:37 *985:51 0.000199833
54 *431:37 *985:61 0.000201508
55 *432:8 *985:38 3.95347e-05
56 *432:8 *985:51 0.000189291
57 *432:42 *985:51 0.000159305
58 *433:8 *985:38 0
59 *433:8 *985:51 0
60 *478:12 *4521:A 2.75229e-05
61 *478:12 *985:67 5.05437e-05
62 *479:18 *4521:A 4.9253e-06
63 *781:39 *4423:A1 6.50091e-05
64 *864:12 *985:65 0
65 *984:59 *4521:A 0
*RES
1 *4971:X *985:4 1.6 
2 *985:4 *4254:A0 5.155 
3 *985:4 *985:21 23.095 
4 *985:21 *985:27 5.225 
5 *985:27 *4554:A1 7.53 
6 *985:27 *985:38 2.655 
7 *985:38 *4517:C_N 3.6 
8 *985:38 *985:51 9.14 
9 *985:51 *985:61 13.275 
10 *985:61 *985:65 7.46 
11 *985:65 *985:67 2.175 
12 *985:67 *4518:B1 2.05 
13 *985:67 *4520:A 1.6 
14 *985:65 *4521:A 2.41 
15 *985:61 *985:90 0.87 
16 *985:90 *4476:C_N 3.6 
17 *985:90 *4423:A1 14.49 
18 *985:51 *4475:B1 1.6 
19 *985:21 *4519:A1 1.6 
*END

*D_NET *986 0.0247066
*CONN
*I *4294:A I *D sky130_fd_sc_hd__nand2_1
*I *4317:A I *D sky130_fd_sc_hd__nand2_1
*I *4381:A I *D sky130_fd_sc_hd__nand2_1
*I *4345:A I *D sky130_fd_sc_hd__nand2_1
*I *4279:A I *D sky130_fd_sc_hd__nand2_1
*I *4183:B2 I *D sky130_fd_sc_hd__a22o_1
*I *4422:B I *D sky130_fd_sc_hd__nand4_1
*I *4971:A I *D sky130_fd_sc_hd__buf_6
*I *4972:X O *D sky130_fd_sc_hd__buf_4
*CAP
1 *4294:A 0
2 *4317:A 8.12624e-05
3 *4381:A 0.000452715
4 *4345:A 2.08101e-05
5 *4279:A 2.08101e-05
6 *4183:B2 1.42809e-05
7 *4422:B 0.00267681
8 *4971:A 0.00016718
9 *4972:X 3.39263e-05
10 *986:84 0.000597649
11 *986:78 0.00113086
12 *986:68 0.00123421
13 *986:57 0.00074667
14 *986:48 0.00172524
15 *986:21 0.00402936
16 *986:8 0.000259827
17 *4317:A *4317:B 5.4256e-05
18 *4317:A *999:65 0
19 *4317:A *1001:71 0
20 *4381:A *4381:B 4.82863e-05
21 *4381:A *1000:97 0.00100216
22 *4381:A *1001:77 0
23 *4422:B *4422:D 0.000122325
24 *4422:B *4987:A 0.000723517
25 *4422:B *997:27 0.000336831
26 *4422:B *997:42 1.88904e-05
27 *4422:B *1004:27 2.04416e-05
28 *986:48 *4183:A1 2.68526e-05
29 *986:57 *4183:A1 0.000264217
30 *986:57 *4280:A 8.35068e-05
31 *986:57 *4280:B 8.34281e-06
32 *986:57 *4280:C 3.83194e-05
33 *986:57 *4280:D 0.000123225
34 *986:57 *987:64 0.000230429
35 *986:57 *1005:93 5.83121e-06
36 *986:68 *4294:B 5.4155e-06
37 *986:68 *987:114 0.000109386
38 *986:68 *1005:93 0.000400419
39 *986:68 *1007:109 8.65961e-05
40 *986:78 *4317:B 0.000890976
41 *986:84 *4317:B 7.31129e-05
42 *986:84 *999:65 0
43 *986:84 *1000:97 0.000238919
44 *986:84 *1001:71 0
45 *986:84 *1001:77 0
46 *4155:C *986:48 0
47 *4157:B *986:48 0
48 *4178:A2 *986:48 5.92849e-05
49 *4181:A1 *986:48 0.000489644
50 *4183:A2 *986:57 1.91597e-05
51 *4250:A0 *4422:B 4.57056e-05
52 *4250:A1 *986:48 0
53 *4250:S *4422:B 0.000195064
54 *4251:B *986:48 6.47516e-05
55 *4252:S *4422:B 0.000114024
56 *4254:A0 *4971:A 0.000235339
57 *4254:S *4971:A 0.000458536
58 *4318:B *4317:A 0
59 *4348:C *4381:A 8.40269e-05
60 *4349:B1 *4381:A 1.91597e-05
61 *4388:A1 *4381:A 7.21296e-06
62 *4423:A1 *4422:B 0
63 *4522:A2 *4422:B 4.82919e-05
64 *170:27 *4422:B 0.000154665
65 *170:27 *4971:A 0
66 *170:27 *986:21 0
67 *170:27 *986:48 0
68 *180:44 *4183:B2 1.85674e-05
69 *180:44 *986:48 4.77757e-05
70 *180:44 *986:57 0.000223918
71 *180:67 *986:48 0
72 *182:53 *986:48 0.000535811
73 *224:34 *4422:B 0.00049539
74 *245:10 *986:57 3.09179e-05
75 *259:10 *986:78 7.55391e-05
76 *307:6 *4381:A 2.16833e-05
77 *307:6 *986:84 3.00381e-05
78 *307:21 *4381:A 2.05056e-05
79 *308:21 *4381:A 0.000114492
80 *311:12 *4345:A 0
81 *347:12 *4381:A 0
82 *349:12 *4381:A 0
83 *351:20 *4381:A 7.23602e-05
84 *773:12 *986:48 0.000163019
85 *773:14 *4971:A 0.000187071
86 *773:14 *986:21 0.000110683
87 *773:14 *986:48 0.000943598
88 *773:47 *986:48 0.000186099
89 *841:37 *986:48 0.000303941
90 *864:12 *4422:B 0.000351268
91 *972:32 *986:48 1.22505e-05
92 *972:51 *986:48 0.000304534
93 *973:24 *986:78 0.000136884
94 *974:24 *986:48 0
95 *974:26 *986:48 0
96 *985:21 *4971:A 0.000221528
97 *985:65 *4422:B 0
98 *985:90 *4422:B 0
*RES
1 *4972:X *986:8 4.05 
2 *986:8 *4971:A 9.99 
3 *986:8 *986:21 1.38 
4 *986:21 *4422:B 49.375 
5 *986:21 *986:48 35.705 
6 *986:48 *4183:B2 1.96 
7 *986:48 *986:57 9.765 
8 *986:57 *4279:A 1.96 
9 *986:57 *986:68 7.365 
10 *986:68 *986:78 19.125 
11 *986:78 *986:84 5.3 
12 *986:84 *4345:A 1.96 
13 *986:84 *4381:A 17.675 
14 *986:78 *4317:A 5.235 
15 *986:68 *4294:A 1.6 
*END

*D_NET *987 0.00971221
*CONN
*I *4318:A I *D sky130_fd_sc_hd__and4_1
*I *4319:B2 I *D sky130_fd_sc_hd__a22oi_2
*I *4296:B2 I *D sky130_fd_sc_hd__a22oi_2
*I *4281:B2 I *D sky130_fd_sc_hd__a22oi_2
*I *4271:A I *D sky130_fd_sc_hd__and4_1
*I *4280:A I *D sky130_fd_sc_hd__and4_1
*I *4295:A I *D sky130_fd_sc_hd__and4_1
*I *4272:A I *D sky130_fd_sc_hd__nand4_1
*I *4270:B2 I *D sky130_fd_sc_hd__a22o_1
*I *4180:B2 I *D sky130_fd_sc_hd__a22o_1
*I *4973:X O *D sky130_fd_sc_hd__buf_2
*CAP
1 *4318:A 1.86517e-05
2 *4319:B2 0
3 *4296:B2 0
4 *4281:B2 0
5 *4271:A 0.000172247
6 *4280:A 4.65559e-05
7 *4295:A 0
8 *4272:A 0
9 *4270:B2 0
10 *4180:B2 0.000366409
11 *4973:X 0
12 *987:114 0.000781209
13 *987:93 0.0007918
14 *987:64 0.000434229
15 *987:54 0.000634396
16 *987:52 0.00058668
17 *987:41 0.000432382
18 *987:10 0.000378322
19 *987:8 0.00016072
20 *987:4 0.000442723
21 *4180:B2 *4180:A1 0.000690886
22 *4180:B2 *4267:C 9.16333e-06
23 *4180:B2 *4272:B 8.53113e-06
24 *4180:B2 *4272:C 2.75538e-05
25 *4180:B2 *4975:A 0.000123225
26 *4180:B2 *989:23 0.000409819
27 *4180:B2 *1005:17 1.0183e-05
28 *4180:B2 *1005:30 0.000179731
29 *4180:B2 *1010:80 0
30 *4271:A *4271:B 5.83121e-06
31 *4271:A *1004:57 7.06347e-05
32 *4318:A *999:67 4.47209e-05
33 *4318:A *1005:106 8.40269e-05
34 *987:8 *4272:C 2.75229e-05
35 *987:8 *4272:D 4.21666e-05
36 *987:8 *4973:A 8.8266e-05
37 *987:8 *1005:40 8.65905e-05
38 *987:10 *4272:D 4.82919e-05
39 *987:10 *1005:40 1.34594e-05
40 *987:41 *4272:C 0
41 *987:41 *4973:A 8.65905e-05
42 *987:52 *4295:C 2.87867e-05
43 *987:52 *1004:90 0
44 *987:54 *1005:52 0.000148977
45 *987:54 *1005:93 0.000123225
46 *987:64 *1005:52 8.8266e-05
47 *987:64 *1005:56 0.000164679
48 *987:114 *4318:C 0
49 *987:114 *999:67 8.49205e-05
50 *987:114 *999:73 0.000235573
51 *987:114 *1004:90 4.43871e-06
52 *987:114 *1005:93 1.74678e-05
53 *987:114 *1005:106 0.00035303
54 *4178:A1 *4180:B2 7.07433e-05
55 *4269:B *4180:B2 1.94892e-05
56 *4986:A *4271:A 0.000151346
57 *180:48 *4180:B2 5.12969e-06
58 *180:86 *987:41 0
59 *246:10 *987:64 5.20968e-05
60 *259:10 *987:114 1.52862e-05
61 *260:12 *987:114 9.5433e-05
62 *797:24 *4180:B2 0.00031882
63 *844:22 *987:64 0
64 *972:32 *4271:A 7.66511e-06
65 *973:24 *987:41 0
66 *973:24 *987:52 0
67 *986:57 *4280:A 8.35068e-05
68 *986:57 *987:64 0.000230429
69 *986:68 *987:114 0.000109386
*RES
1 *4973:X *987:4 1.6 
2 *987:4 *987:8 3.135 
3 *987:8 *987:10 0.45 
4 *987:10 *4180:B2 18.5 
5 *987:10 *4270:B2 1.6 
6 *987:8 *4272:A 1.6 
7 *987:4 *987:41 6.98 
8 *987:41 *4295:A 3.6 
9 *987:41 *987:52 4.4 
10 *987:52 *987:54 7.005 
11 *987:54 *987:64 8.86 
12 *987:64 *4280:A 2.395 
13 *987:64 *4271:A 8.645 
14 *987:54 *4281:B2 1.6 
15 *987:52 *987:93 0.45 
16 *987:93 *4296:B2 1.6 
17 *987:93 *987:114 16.93 
18 *987:114 *4319:B2 1.6 
19 *987:114 *4318:A 2.395 
*END

*D_NET *988 0.011754
*CONN
*I *4473:A1 I *D sky130_fd_sc_hd__o21ai_2
*I *4383:B I *D sky130_fd_sc_hd__and4_1
*I *4346:A I *D sky130_fd_sc_hd__and4_1
*I *4347:B2 I *D sky130_fd_sc_hd__a22oi_2
*I *4973:A I *D sky130_fd_sc_hd__buf_2
*I *4384:B2 I *D sky130_fd_sc_hd__a22oi_2
*I *4382:A I *D sky130_fd_sc_hd__nand2_1
*I *4472:A I *D sky130_fd_sc_hd__and3_4
*I *4474:A1 I *D sky130_fd_sc_hd__o21a_1
*I *4252:A0 I *D sky130_fd_sc_hd__mux2_1
*I *4974:X O *D sky130_fd_sc_hd__buf_6
*CAP
1 *4473:A1 2.16215e-05
2 *4383:B 3.21472e-05
3 *4346:A 1.11923e-05
4 *4347:B2 0
5 *4973:A 0.00048065
6 *4384:B2 0.000171007
7 *4382:A 0
8 *4472:A 0
9 *4474:A1 0.000166959
10 *4252:A0 0.000226362
11 *4974:X 4.64748e-05
12 *988:102 0.000365322
13 *988:83 0.000938411
14 *988:79 0.000221177
15 *988:66 0.000437606
16 *988:55 0.000525083
17 *988:27 0.000201736
18 *988:23 0.000378659
19 *988:21 0.000469775
20 *988:6 0.00072099
21 *4252:A0 *4987:A 2.76781e-05
22 *4346:A *4346:B 4.82919e-05
23 *4383:B *4383:C 2.30292e-05
24 *4384:B2 *4383:A 9.80943e-06
25 *4384:B2 *4383:C 4.66108e-05
26 *4384:B2 *4384:B1 4.40595e-05
27 *4473:A1 *4473:A2 4.66108e-05
28 *4474:A1 *4472:C 4.82919e-05
29 *4474:A1 *4474:B1 2.96426e-05
30 *4973:A *4272:D 9.53428e-06
31 *988:6 *990:14 3.1835e-05
32 *988:21 *4473:A2 3.57349e-05
33 *988:21 *990:14 0.000168366
34 *988:21 *990:18 0.000160635
35 *988:27 *4472:C 0.00011852
36 *988:27 *993:53 0.00011852
37 *988:55 *4472:C 2.07184e-05
38 *988:55 *993:53 0.000134516
39 *988:55 *995:48 5.12017e-06
40 *988:55 *995:68 0.000302283
41 *988:66 *4195:A1 2.92496e-05
42 *988:66 *995:68 4.21314e-05
43 *988:66 *995:81 0.000672622
44 *988:79 *4383:C 0.000108886
45 *988:83 *4383:D 2.46089e-05
46 *988:83 *997:87 8.98743e-05
47 *988:102 *4346:B 0.000105454
48 *988:102 *4347:A1 0
49 *988:102 *989:77 0.000155444
50 *988:102 *997:87 2.75538e-05
51 *4195:A2 *4973:A 4.66108e-05
52 *4196:B1 *4973:A 3.64998e-06
53 *4196:B1 *988:102 0.000292059
54 *4199:A2 *988:55 0.000179008
55 *4199:A2 *988:83 0.000293726
56 *4199:A2 *988:102 2.07184e-05
57 *4250:A0 *4252:A0 0.000157872
58 *4252:A1 *4252:A0 4.82919e-05
59 *4474:A2 *4474:A1 4.99619e-05
60 *4477:A1 *988:55 9.30717e-05
61 *4920:A *988:55 0.000200304
62 *4920:A *988:66 3.09164e-05
63 *4974:A *988:21 0.000393024
64 *180:86 *4973:A 0.000131069
65 *309:10 *4346:A 1.47347e-05
66 *309:10 *988:102 5.83121e-06
67 *345:8 *4384:B2 1.46744e-05
68 *386:12 *988:55 4.66108e-05
69 *386:25 *988:55 0.000111595
70 *387:10 *988:55 0.000152652
71 *772:48 *988:66 0.000705528
72 *772:48 *988:102 9.60974e-05
73 *774:8 *988:21 2.75145e-05
74 *781:39 *988:55 6.58339e-05
75 *859:16 *4384:B2 8.57024e-05
76 *859:29 *4384:B2 4.82863e-05
77 *973:35 *988:102 0.000163019
78 *987:8 *4973:A 8.8266e-05
79 *987:41 *4973:A 8.65905e-05
*RES
1 *4974:X *988:6 2.395 
2 *988:6 *4252:A0 9.815 
3 *988:6 *988:21 9.42 
4 *988:21 *988:23 2 
5 *988:23 *988:27 3.38 
6 *988:27 *4474:A1 4.495 
7 *988:27 *4472:A 1.6 
8 *988:23 *988:55 13.87 
9 *988:55 *4382:A 3.6 
10 *988:55 *988:66 10.52 
11 *988:66 *4384:B2 4.48 
12 *988:66 *988:79 1.5 
13 *988:79 *988:83 5.42 
14 *988:83 *4973:A 11.655 
15 *988:83 *988:102 10.79 
16 *988:102 *4347:B2 1.6 
17 *988:102 *4346:A 2.05 
18 *988:79 *4383:B 2.05 
19 *988:21 *4473:A1 2.05 
*END

*D_NET *989 0.0103169
*CONN
*I *4383:A I *D sky130_fd_sc_hd__and4_1
*I *4272:B I *D sky130_fd_sc_hd__nand4_1
*I *4270:A1 I *D sky130_fd_sc_hd__a22o_1
*I *4346:B I *D sky130_fd_sc_hd__and4_1
*I *4347:A1 I *D sky130_fd_sc_hd__a22oi_2
*I *4295:B I *D sky130_fd_sc_hd__and4_1
*I *4271:B I *D sky130_fd_sc_hd__and4_1
*I *4280:B I *D sky130_fd_sc_hd__and4_1
*I *4281:A1 I *D sky130_fd_sc_hd__a22oi_2
*I *4267:B I *D sky130_fd_sc_hd__and3_1
*I *4975:X O *D sky130_fd_sc_hd__buf_2
*CAP
1 *4383:A 0.000669359
2 *4272:B 0.000162928
3 *4270:A1 0
4 *4346:B 5.76644e-05
5 *4347:A1 2.08101e-05
6 *4295:B 0
7 *4271:B 8.14863e-05
8 *4280:B 6.84385e-05
9 *4281:A1 0
10 *4267:B 0.000110536
11 *4975:X 0
12 *989:77 0.000567062
13 *989:70 0.000776246
14 *989:48 0.000233476
15 *989:39 0.000413624
16 *989:33 0.000749296
17 *989:27 0.000161686
18 *989:23 0.000361541
19 *989:19 0.00114729
20 *989:4 0.000419972
21 *4267:B *4180:A1 0.000160635
22 *4271:B *4271:C 7.18562e-05
23 *4271:B *4271:D 1.88904e-05
24 *4271:B *1001:44 8.35068e-05
25 *4272:B *4272:D 4.99619e-05
26 *4272:B *1007:74 2.07184e-05
27 *4272:B *1007:98 3.96088e-05
28 *4280:B *4280:C 4.66108e-05
29 *4280:B *4280:D 5.83121e-06
30 *4346:B *4346:C 0.000311294
31 *4383:A *4384:B1 8.40213e-05
32 *989:19 *1004:43 3.68682e-05
33 *989:19 *1010:80 5.02217e-05
34 *989:23 *1007:74 0.000160658
35 *989:23 *1010:80 0
36 *989:27 *4272:D 4.66108e-05
37 *989:27 *1005:40 3.71009e-05
38 *989:33 *1005:48 0.000134798
39 *989:33 *1007:74 2.92496e-05
40 *989:33 *1007:98 0.000352768
41 *989:39 *1004:49 0.000141599
42 *989:39 *1004:84 0.000293628
43 *989:39 *1005:56 4.18603e-06
44 *989:48 *4271:C 1.73877e-05
45 *989:48 *1005:56 8.17924e-05
46 *989:70 *1004:84 0.00033637
47 *989:77 *4346:C 0.000161529
48 *989:77 *1004:84 4.60584e-05
49 *4180:B2 *4272:B 8.53113e-06
50 *4180:B2 *989:23 0.000409819
51 *4271:A *4271:B 5.83121e-06
52 *4273:B *989:33 4.9968e-05
53 *4273:C *989:23 0
54 *4346:A *4346:B 4.82919e-05
55 *4384:B2 *4383:A 9.80943e-06
56 *4986:A *4271:B 0.00010596
57 *4986:A *989:48 0.00022209
58 *238:10 *989:27 2.42043e-05
59 *259:10 *989:77 4.99619e-05
60 *309:10 *4346:B 2.66586e-05
61 *345:8 *4383:A 0.000230429
62 *784:19 *989:48 9.23924e-06
63 *844:22 *989:39 0
64 *859:16 *4383:A 2.16833e-05
65 *986:57 *4280:B 8.34281e-06
66 *988:102 *4346:B 0.000105454
67 *988:102 *4347:A1 0
68 *988:102 *989:77 0.000155444
*RES
1 *4975:X *989:4 1.6 
2 *989:4 *4267:B 3.085 
3 *989:4 *989:19 8.68 
4 *989:19 *989:23 6.695 
5 *989:23 *989:27 2.795 
6 *989:27 *989:33 8.44 
7 *989:33 *989:39 8.225 
8 *989:39 *4281:A1 3.6 
9 *989:39 *989:48 2.91 
10 *989:48 *4280:B 4.395 
11 *989:48 *4271:B 5.775 
12 *989:33 *989:70 5.28 
13 *989:70 *4295:B 1.6 
14 *989:70 *989:77 8.04 
15 *989:77 *4347:A1 1.96 
16 *989:77 *4346:B 4.465 
17 *989:27 *4270:A1 1.6 
18 *989:23 *4272:B 6.165 
19 *989:19 *4383:A 11.365 
*END

*D_NET *990 0.00851756
*CONN
*I *4975:A I *D sky130_fd_sc_hd__buf_2
*I *4427:B I *D sky130_fd_sc_hd__and3_1
*I *4426:A1 I *D sky130_fd_sc_hd__a21oi_1
*I *4473:A2 I *D sky130_fd_sc_hd__o21ai_2
*I *4472:C I *D sky130_fd_sc_hd__and3_4
*I *4976:X O *D sky130_fd_sc_hd__buf_8
*CAP
1 *4975:A 0.000489375
2 *4427:B 0.000210904
3 *4426:A1 3.55982e-06
4 *4473:A2 5.71037e-05
5 *4472:C 0.000147495
6 *4976:X 0.000246265
7 *990:44 0.000246025
8 *990:18 0.000287633
9 *990:14 0.00110986
10 *990:10 0.00173091
11 *4427:B *4199:A1 5.4003e-05
12 *4427:B *993:57 0.00010804
13 *4472:C *4474:B1 5.05437e-05
14 *4472:C *993:36 3.00381e-05
15 *4472:C *993:38 2.75229e-05
16 *4472:C *993:53 2.23485e-05
17 *4472:C *995:48 0.000100536
18 *4473:A2 *995:110 6.38806e-05
19 *4975:A *1004:43 3.32209e-05
20 *4975:A *1007:23 0.000139933
21 *4975:A *1007:42 0.000137571
22 *4975:A *1010:80 1.44259e-05
23 *990:18 *995:48 2.0514e-05
24 *990:44 *995:48 4.43871e-06
25 *4158:A1 *4975:A 0.000296088
26 *4158:A1 *990:10 7.30547e-05
27 *4159:B *4975:A 4.91189e-05
28 *4177:B2 *4975:A 0.00013521
29 *4178:A1 *4975:A 0.000314445
30 *4180:B2 *4975:A 0.000123225
31 *4269:A *4975:A 0
32 *4473:A1 *4473:A2 4.66108e-05
33 *4474:A1 *4472:C 4.82919e-05
34 *4474:A2 *4426:A1 1.03592e-05
35 *4474:A2 *4427:B 1.71207e-05
36 *4474:A2 *990:44 6.03272e-05
37 *4920:A *4427:B 5.82757e-05
38 *4920:A *4473:A2 4.66108e-05
39 *4920:A *990:18 4.82863e-05
40 *4920:A *990:44 1.50624e-05
41 *4974:A *990:14 0.000234777
42 *4976:A *990:10 0.000267331
43 *4976:A *990:14 4.41506e-05
44 *4991:A *4975:A 7.44375e-05
45 *797:24 *4975:A 0.000123225
46 *841:77 *4975:A 0.00048487
47 *841:77 *990:10 7.47215e-05
48 *988:6 *990:14 3.1835e-05
49 *988:21 *4473:A2 3.57349e-05
50 *988:21 *990:14 0.000168366
51 *988:21 *990:18 0.000160635
52 *988:27 *4472:C 0.00011852
53 *988:55 *4472:C 2.07184e-05
*RES
1 *4976:X *990:10 8.37 
2 *990:10 *990:14 14.18 
3 *990:14 *990:18 2.1 
4 *990:18 *4472:C 9.59 
5 *990:18 *4473:A2 3.085 
6 *990:14 *990:44 2.7425 
7 *990:44 *4426:A1 3.8325 
8 *990:44 *4427:B 7.4925 
9 *990:10 *4975:A 18.36 
*END

*D_NET *991 0.00112234
*CONN
*I *4150:C I *D sky130_fd_sc_hd__or4_1
*I *5065:X O *D sky130_fd_sc_hd__clkbuf_1
*CAP
1 *4150:C 0.000302144
2 *5065:X 0.000302144
3 *4150:A *4150:C 1.89685e-05
4 *4150:B *4150:C 0.000499083
*RES
1 *5065:X *4150:C 13.71 
*END

*D_NET *992 0.00901299
*CONN
*I *4597:B1 I *D sky130_fd_sc_hd__o21a_1
*I *4557:C I *D sky130_fd_sc_hd__and3_1
*I *4662:A2_N I *D sky130_fd_sc_hd__o2bb2a_1
*I *4689:S I *D sky130_fd_sc_hd__mux2_1
*I *4663:B I *D sky130_fd_sc_hd__and4b_1
*I *4624:A2 I *D sky130_fd_sc_hd__a22oi_1
*I *4558:C I *D sky130_fd_sc_hd__nand3_1
*I *4556:A2 I *D sky130_fd_sc_hd__a22o_1
*I *4559:C I *D sky130_fd_sc_hd__nand4_1
*I *4170:A0 I *D sky130_fd_sc_hd__mux2_1
*I *4977:X O *D sky130_fd_sc_hd__buf_2
*CAP
1 *4597:B1 0
2 *4557:C 0.000127768
3 *4662:A2_N 0.000264828
4 *4689:S 0
5 *4663:B 3.47459e-05
6 *4624:A2 0
7 *4558:C 0
8 *4556:A2 0.000116007
9 *4559:C 0
10 *4170:A0 0.000171162
11 *4977:X 0
12 *992:98 0.000314237
13 *992:89 0.000455963
14 *992:85 0.000726224
15 *992:79 0.000402986
16 *992:62 0.00034307
17 *992:51 0.000289071
18 *992:29 0.000278781
19 *992:25 0.0006108
20 *992:4 0.000496849
21 *4556:A2 *994:30 0.000159269
22 *4556:A2 *994:43 2.14129e-05
23 *4556:A2 *996:19 4.45515e-05
24 *4662:A2_N *4663:A_N 3.63576e-05
25 *4663:B *4663:A_N 8.64599e-05
26 *992:25 *4979:A 0
27 *992:29 *994:17 0.000531776
28 *992:29 *994:30 2.23922e-05
29 *992:89 *4663:A_N 0
30 *992:98 *4663:A_N 0.000225122
31 *4168:S *4170:A0 5.73739e-05
32 *4168:S *992:25 2.26018e-05
33 *4169:B *992:25 0.000111163
34 *4170:A1 *4170:A0 1.4399e-05
35 *4557:A *992:79 4.82919e-05
36 *4557:A *992:85 4.30549e-05
37 *4598:B *992:79 9.3062e-06
38 *4624:B1 *992:62 1.66023e-05
39 *4630:A3 *4557:C 0
40 *4844:D *992:25 0.000114532
41 *4977:A *992:25 4.99619e-05
42 *4977:A *992:29 4.20983e-05
43 *4978:A *992:29 3.31282e-05
44 *170:59 *992:25 0
45 *515:6 *992:62 0.000235162
46 *515:6 *992:79 1.25159e-06
47 *553:8 *992:79 5.21714e-05
48 *553:26 *992:85 0.000469632
49 *580:20 *4557:C 0
50 *617:10 *4662:A2_N 0.000122331
51 *617:10 *992:89 0
52 *617:10 *992:98 0.000164874
53 *642:18 *4662:A2_N 0.000101609
54 *788:8 *992:25 0.000210034
55 *975:38 *4662:A2_N 2.0187e-05
56 *978:20 *4556:A2 0.00015502
57 *978:73 *4557:C 9.16333e-06
58 *981:31 *992:29 0.00011686
59 *981:37 *992:79 0
60 *981:68 *992:29 0.000248247
61 *981:85 *4556:A2 0.000152134
62 *981:85 *992:29 7.23602e-05
63 *981:98 *4556:A2 3.25831e-05
64 *983:10 *992:62 1.91597e-05
65 *983:29 *992:51 0.000239813
66 *983:29 *992:62 4.35348e-05
67 *984:27 *992:25 0.000165343
68 *984:27 *992:51 3.51884e-05
69 *984:27 *992:62 2.39856e-05
70 *984:27 *992:79 0
71 *984:46 *992:79 0
*RES
1 *4977:X *992:4 1.6 
2 *992:4 *4170:A0 3.775 
3 *992:4 *992:25 11.83 
4 *992:25 *992:29 8.48 
5 *992:29 *4559:C 3.6 
6 *992:29 *4556:A2 7.245 
7 *992:25 *992:51 2.865 
8 *992:51 *4558:C 1.6 
9 *992:51 *992:62 3.91125 
10 *992:62 *4624:A2 1.6 
11 *992:62 *992:79 6.91375 
12 *992:79 *992:85 7.295 
13 *992:85 *992:89 7.97 
14 *992:89 *4663:B 2.395 
15 *992:89 *992:98 2.175 
16 *992:98 *4689:S 1.6 
17 *992:98 *4662:A2_N 5.785 
18 *992:85 *4557:C 5.4 
19 *992:79 *4597:B1 1.6 
*END

*D_NET *993 0.005842
*CONN
*I *4473:B1 I *D sky130_fd_sc_hd__o21ai_2
*I *4472:B I *D sky130_fd_sc_hd__and3_4
*I *4427:C I *D sky130_fd_sc_hd__and3_1
*I *4199:A1 I *D sky130_fd_sc_hd__a221o_1
*I *4426:A2 I *D sky130_fd_sc_hd__a21oi_1
*I *4474:B1 I *D sky130_fd_sc_hd__o21a_1
*I *4518:B2 I *D sky130_fd_sc_hd__a2bb2o_1
*I *4554:A2 I *D sky130_fd_sc_hd__a21oi_2
*I *4978:X O *D sky130_fd_sc_hd__buf_6
*CAP
1 *4473:B1 6.24693e-05
2 *4472:B 0
3 *4427:C 1.45339e-05
4 *4199:A1 5.60837e-05
5 *4426:A2 2.16181e-05
6 *4474:B1 0.000108652
7 *4518:B2 0.000179201
8 *4554:A2 0.000197791
9 *4978:X 0
10 *993:57 0.00020337
11 *993:53 0.000307705
12 *993:38 0.000297689
13 *993:36 0.000153535
14 *993:34 0.000698552
15 *993:19 0.000790198
16 *993:6 0.000304707
17 *4199:A1 *995:68 7.63883e-05
18 *4554:A2 *999:29 0
19 *993:19 *999:29 0
20 *993:34 *999:29 0
21 *993:53 *995:48 0
22 *4192:B2 *4199:A1 1.34361e-05
23 *4427:A *993:57 8.40213e-05
24 *4427:B *4199:A1 5.4003e-05
25 *4427:B *993:57 0.00010804
26 *4472:C *4474:B1 5.05437e-05
27 *4472:C *993:36 3.00381e-05
28 *4472:C *993:38 2.75229e-05
29 *4472:C *993:53 2.23485e-05
30 *4474:A1 *4474:B1 2.96426e-05
31 *4474:A2 *4199:A1 7.5416e-05
32 *4518:A2_N *4518:B2 0.000199833
33 *4522:A1 *993:19 3.86607e-05
34 *4522:A2 *993:19 0
35 *4522:A2 *993:34 0
36 *4920:A *4199:A1 5.98004e-06
37 *4978:A *4554:A2 0
38 *4978:A *993:19 0
39 *5106:A *993:34 4.40899e-05
40 *5107:A *4199:A1 0.000116853
41 *386:12 *4199:A1 3.50033e-05
42 *431:8 *4473:B1 5.4003e-05
43 *431:8 *993:34 0
44 *431:12 *993:34 0
45 *431:37 *4473:B1 0.000133763
46 *432:8 *4473:B1 0.000231571
47 *432:8 *993:53 0
48 *432:42 *4473:B1 0
49 *511:16 *4554:A2 0.000162575
50 *866:65 *4426:A2 3.64998e-06
51 *975:124 *4426:A2 4.82919e-05
52 *975:124 *993:57 7.40446e-05
53 *979:36 *4554:A2 0.00039046
54 *985:51 *993:53 8.26783e-05
55 *985:61 *4473:B1 0
56 *988:27 *993:53 0.00011852
57 *988:55 *993:53 0.000134516
*RES
1 *4978:X *993:6 3.6 
2 *993:6 *4554:A2 9.045 
3 *993:6 *993:19 1.89 
4 *993:19 *4518:B2 6.465 
5 *993:19 *993:34 9.395 
6 *993:34 *993:36 1.83 
7 *993:36 *993:38 0.45 
8 *993:38 *4474:B1 3.445 
9 *993:38 *993:53 7.93 
10 *993:53 *993:57 2.79 
11 *993:57 *4426:A2 2.05 
12 *993:57 *4199:A1 8 
13 *993:53 *4427:C 1.765 
14 *993:36 *4472:B 1.6 
15 *993:34 *4473:B1 8.255 
*END

*D_NET *994 0.0141768
*CONN
*I *4630:A2 I *D sky130_fd_sc_hd__a31o_1
*I *4632:B I *D sky130_fd_sc_hd__and4b_1
*I *4662:B1 I *D sky130_fd_sc_hd__o2bb2a_1
*I *4663:A_N I *D sky130_fd_sc_hd__and4b_1
*I *4631:A2_N I *D sky130_fd_sc_hd__o2bb2a_1
*I *4514:A2 I *D sky130_fd_sc_hd__a22o_1
*I *4513:C I *D sky130_fd_sc_hd__and4_1
*I *4556:B1 I *D sky130_fd_sc_hd__a22o_1
*I *4559:D I *D sky130_fd_sc_hd__nand4_1
*I *4168:A0 I *D sky130_fd_sc_hd__mux2_1
*I *4979:X O *D sky130_fd_sc_hd__clkbuf_2
*CAP
1 *4630:A2 0
2 *4632:B 7.17084e-05
3 *4662:B1 0
4 *4663:A_N 0.00046397
5 *4631:A2_N 0
6 *4514:A2 0
7 *4513:C 0
8 *4556:B1 0
9 *4559:D 4.9966e-05
10 *4168:A0 0.000153418
11 *4979:X 0
12 *994:94 0.000661615
13 *994:80 0.000403857
14 *994:69 0.000587351
15 *994:63 0.00101747
16 *994:52 0.000685213
17 *994:43 0.000488906
18 *994:30 0.00042939
19 *994:17 0.000383082
20 *994:4 0.000425465
21 *4168:A0 *4979:A 2.30292e-05
22 *4559:D *4599:B 4.41506e-05
23 *4559:D *1000:37 8.23457e-05
24 *994:17 *4979:A 2.30292e-05
25 *994:43 *4632:A_N 0.000203402
26 *994:43 *996:49 0.000192125
27 *994:43 *996:73 0.000271308
28 *994:43 *997:23 0.000232262
29 *994:43 *997:27 0
30 *994:43 *998:25 0.000954762
31 *994:52 *4514:B1 3.49098e-05
32 *994:52 *996:73 3.57349e-05
33 *994:52 *996:81 2.7441e-05
34 *994:52 *996:100 1.12578e-05
35 *994:63 *996:100 2.75145e-05
36 *994:63 *1000:37 0
37 *4514:A1 *994:63 5.53249e-06
38 *4514:B2 *994:52 6.77501e-05
39 *4556:A1 *994:30 8.45475e-05
40 *4556:A2 *994:30 0.000159269
41 *4556:A2 *994:43 2.14129e-05
42 *4561:B2 *994:30 0
43 *4561:B2 *994:43 0
44 *4597:A2 *994:17 0
45 *4632:C *4632:B 2.49909e-05
46 *4632:D *4632:B 1.19928e-05
47 *4633:B *994:80 0.000150631
48 *4660:A1 *994:69 0.000116158
49 *4660:B1 *994:63 1.22676e-05
50 *4660:B1 *994:69 4.40899e-05
51 *4662:A2_N *4663:A_N 3.63576e-05
52 *4662:B2 *994:94 9.30787e-05
53 *4663:B *4663:A_N 8.64599e-05
54 *4977:A *4168:A0 0.000201503
55 *4977:A *994:17 3.90266e-05
56 *4978:A *994:43 2.75538e-05
57 *471:12 *994:52 0.000124007
58 *580:20 *994:69 0.00056914
59 *580:20 *994:80 3.57349e-05
60 *587:10 *994:80 4.43871e-06
61 *587:10 *994:94 0.000101317
62 *614:10 *4663:A_N 1.89738e-05
63 *617:10 *4663:A_N 1.78771e-05
64 *617:31 *4663:A_N 8.53011e-05
65 *617:31 *994:94 7.50406e-05
66 *642:18 *4663:A_N 0.000121659
67 *642:18 *994:94 8.41384e-05
68 *796:23 *994:94 8.73389e-06
69 *975:31 *4663:A_N 0.000209217
70 *975:38 *4663:A_N 0.000263866
71 *975:52 *4663:A_N 0.000370315
72 *975:52 *994:94 2.01274e-05
73 *975:63 *994:80 6.45236e-05
74 *975:63 *994:94 0.000130134
75 *975:74 *994:80 0.000227536
76 *976:51 *994:94 7.27194e-05
77 *976:74 *994:94 0.000118459
78 *977:31 *994:63 0
79 *978:28 *994:43 0
80 *978:49 *994:63 0
81 *978:60 *994:63 0.00055577
82 *978:60 *994:69 8.53113e-06
83 *978:96 *994:63 0
84 *981:98 *994:43 7.07879e-05
85 *983:29 *994:17 0.000554161
86 *983:29 *994:30 7.30547e-05
87 *983:60 *994:63 0
88 *983:64 *994:43 3.57349e-05
89 *983:64 *994:52 4.82919e-05
90 *983:70 *994:43 0.000160635
91 *992:29 *994:17 0.000531776
92 *992:29 *994:30 2.23922e-05
93 *992:89 *4663:A_N 0
94 *992:98 *4663:A_N 0.000225122
*RES
1 *4979:X *994:4 1.6 
2 *994:4 *4168:A0 3.775 
3 *994:4 *994:17 10.295 
4 *994:17 *4559:D 4.755 
5 *994:17 *994:30 2.145 
6 *994:30 *4556:B1 3.6 
7 *994:30 *994:43 15.455 
8 *994:43 *4513:C 1.6 
9 *994:43 *994:52 3.225 
10 *994:52 *4514:A2 1.6 
11 *994:52 *994:63 13.01 
12 *994:63 *994:69 8.66 
13 *994:69 *4631:A2_N 1.6 
14 *994:69 *994:80 5.87 
15 *994:80 *994:94 11.37 
16 *994:94 *4663:A_N 13.5807 
17 *994:94 *4662:B1 1.6 
18 *994:80 *4632:B 4.395 
19 *994:63 *4630:A2 3.6 
*END

*D_NET *995 0.015506
*CONN
*I *4519:A2 I *D sky130_fd_sc_hd__a31o_1
*I *4476:D_N I *D sky130_fd_sc_hd__or4bb_4
*I *4475:B2 I *D sky130_fd_sc_hd__a2bb2o_1
*I *4195:A1 I *D sky130_fd_sc_hd__a22o_1
*I *4383:C I *D sky130_fd_sc_hd__and4_1
*I *4384:A2 I *D sky130_fd_sc_hd__a22oi_2
*I *4382:B I *D sky130_fd_sc_hd__nand2_1
*I *4599:B I *D sky130_fd_sc_hd__nand2_1
*I *4979:A I *D sky130_fd_sc_hd__clkbuf_2
*I *4980:X O *D sky130_fd_sc_hd__clkbuf_4
*CAP
1 *4519:A2 0
2 *4476:D_N 0.000394346
3 *4475:B2 4.09066e-05
4 *4195:A1 0.00013595
5 *4383:C 6.06231e-05
6 *4384:A2 0
7 *4382:B 0.000125062
8 *4599:B 0.000765448
9 *4979:A 0.000358112
10 *4980:X 1.30736e-05
11 *995:110 0.000833531
12 *995:83 6.06231e-05
13 *995:81 0.000335199
14 *995:68 0.00067823
15 *995:48 0.0011327
16 *995:40 0.000975504
17 *995:21 0.00162939
18 *995:8 0.000640128
19 *4599:B *1000:37 0.000522494
20 *4168:A0 *4979:A 2.30292e-05
21 *4168:A1 *4979:A 8.8266e-05
22 *4168:S *4979:A 2.30292e-05
23 *4192:B2 *995:48 0
24 *4192:B2 *995:68 0.000201772
25 *4192:B2 *995:81 0.000267487
26 *4199:A1 *995:68 7.63883e-05
27 *4383:B *4383:C 2.30292e-05
28 *4384:B2 *4383:C 4.66108e-05
29 *4428:C *4382:B 3.26889e-05
30 *4472:C *995:48 0.000100536
31 *4473:A2 *995:110 6.38806e-05
32 *4474:A2 *995:48 6.95335e-05
33 *4476:A *4476:D_N 0.000320718
34 *4476:B *4476:D_N 1.34503e-05
35 *4477:A1 *995:68 0.000140905
36 *4518:A2_N *995:40 8.53113e-06
37 *4519:A3 *995:40 4.82863e-05
38 *4519:B1 *995:40 9.61948e-05
39 *4522:A2 *995:40 0
40 *4554:A1 *995:40 0.000335163
41 *4554:B1 *995:48 5.53249e-06
42 *4559:B *4599:B 4.66108e-05
43 *4559:D *4599:B 4.41506e-05
44 *4600:B *4599:B 9.13951e-05
45 *4844:CLK *4979:A 0.000159269
46 *4919:A *4382:B 8.23457e-05
47 *4920:A *995:48 7.92083e-05
48 *4920:A *995:68 0.000243539
49 *4920:A *995:110 3.66286e-05
50 *4977:A *4979:A 0.000239813
51 *4978:A *4979:A 0
52 *4978:A *995:21 0
53 *4978:A *995:40 0
54 *4982:A *995:40 0.000173199
55 *5107:A *995:68 3.83194e-05
56 *199:8 *995:68 4.66108e-05
57 *343:21 *4382:B 1.19928e-05
58 *345:8 *4383:C 0.000232105
59 *386:12 *995:68 0.000179465
60 *431:37 *4476:D_N 9.27255e-06
61 *431:37 *995:110 1.17409e-05
62 *432:42 *4476:D_N 5.30673e-05
63 *432:42 *995:110 0.000276441
64 *433:8 *995:48 0.000156106
65 *516:6 *4599:B 0.00012657
66 *516:23 *4599:B 0.000268129
67 *772:48 *4195:A1 0.000318427
68 *792:25 *995:8 1.83847e-05
69 *859:29 *4195:A1 0.000217535
70 *859:29 *995:81 8.53113e-06
71 *981:21 *995:8 4.82919e-05
72 *985:27 *995:40 0.000285082
73 *985:38 *995:40 2.92496e-05
74 *985:51 *995:48 0
75 *985:51 *995:110 2.8185e-05
76 *985:61 *4476:D_N 5.17287e-05
77 *988:55 *995:48 5.12017e-06
78 *988:55 *995:68 0.000302283
79 *988:66 *4195:A1 2.92496e-05
80 *988:66 *995:68 4.21314e-05
81 *988:66 *995:81 0.000672622
82 *988:79 *4383:C 0.000108886
83 *990:18 *995:48 2.0514e-05
84 *990:44 *995:48 4.43871e-06
85 *992:25 *4979:A 0
86 *993:53 *995:48 0
87 *994:17 *4979:A 2.30292e-05
*RES
1 *4980:X *995:8 4.05 
2 *995:8 *4979:A 10.905 
3 *995:8 *995:21 4.185 
4 *995:21 *4599:B 18.9 
5 *995:21 *995:40 15.02 
6 *995:40 *995:48 11.53 
7 *995:48 *995:68 16.62 
8 *995:68 *4382:B 5.355 
9 *995:68 *995:81 7.755 
10 *995:81 *995:83 2 
11 *995:83 *4384:A2 1.6 
12 *995:83 *4383:C 3.775 
13 *995:81 *4195:A1 8.34 
14 *995:48 *995:110 5.28 
15 *995:110 *4475:B2 2.215 
16 *995:110 *4476:D_N 8.395 
17 *995:40 *4519:A2 1.6 
*END

*D_NET *996 0.0112563
*CONN
*I *4513:D I *D sky130_fd_sc_hd__and4_1
*I *4591:B I *D sky130_fd_sc_hd__and4b_1
*I *4592:A2_N I *D sky130_fd_sc_hd__o2bb2a_1
*I *4631:B1 I *D sky130_fd_sc_hd__o2bb2a_1
*I *4514:B1 I *D sky130_fd_sc_hd__a22o_1
*I *4468:C I *D sky130_fd_sc_hd__and4_1
*I *4469:A2 I *D sky130_fd_sc_hd__a22o_1
*I *4560:B I *D sky130_fd_sc_hd__nand4_1
*I *4561:A2 I *D sky130_fd_sc_hd__a22o_1
*I *4166:A0 I *D sky130_fd_sc_hd__mux2_1
*I *4981:X O *D sky130_fd_sc_hd__buf_4
*CAP
1 *4513:D 0
2 *4591:B 0.000145724
3 *4592:A2_N 0.000135634
4 *4631:B1 0.000101791
5 *4514:B1 3.25273e-05
6 *4468:C 0.000120551
7 *4469:A2 0
8 *4560:B 4.53642e-06
9 *4561:A2 1.58461e-05
10 *4166:A0 0
11 *4981:X 0.000184983
12 *996:102 0.000260335
13 *996:100 0.000515992
14 *996:81 0.000447037
15 *996:73 0.000133714
16 *996:53 0.000288151
17 *996:49 0.00055112
18 *996:28 0.000418513
19 *996:19 0.000729957
20 *996:6 0.000802075
21 *4468:C *4469:B1 0.00011095
22 *4468:C *4987:A 0.000120655
23 *4591:B *4591:A_N 1.56428e-05
24 *4631:B1 *4632:A_N 0.000402041
25 *996:6 *4981:A 8.57024e-05
26 *996:49 *4632:A_N 0.000193806
27 *996:49 *997:27 0
28 *996:53 *4469:B1 5.53249e-06
29 *996:53 *998:25 0.000159964
30 *996:73 *4632:A_N 3.66286e-05
31 *996:100 *4548:B1 8.40269e-05
32 *996:100 *4632:A_N 0.000428177
33 *996:102 *4632:A_N 7.06865e-05
34 *4166:S *996:6 9.67657e-05
35 *4166:S *996:19 8.8266e-05
36 *4468:A *4468:C 5.83121e-06
37 *4514:B2 *4514:B1 1.85674e-05
38 *4514:B2 *996:73 0.00015639
39 *4514:B2 *996:81 0.0001249
40 *4556:A2 *996:19 4.45515e-05
41 *4560:A *996:49 4.83324e-05
42 *4560:C *4561:A2 0
43 *4560:C *996:19 1.12578e-05
44 *4560:C *996:28 9.52646e-05
45 *4561:B1 *4561:A2 5.4155e-06
46 *4562:B *996:28 1.82667e-05
47 *4562:B *996:49 7.60965e-05
48 *4591:C *4591:B 5.83121e-06
49 *4592:A1_N *4592:A2_N 5.83121e-06
50 *4592:B2 *4592:A2_N 6.33103e-05
51 *4968:A *4468:C 2.75538e-05
52 *4968:A *996:49 9.96816e-05
53 *4968:A *996:53 5.98004e-06
54 *161:41 *996:100 4.11198e-05
55 *516:23 *996:49 0
56 *517:8 *996:49 9.27255e-06
57 *519:22 *996:49 4.82863e-05
58 *556:18 *4591:B 8.50801e-06
59 *977:31 *4631:B1 0.000406069
60 *977:31 *996:100 0.000527967
61 *977:31 *996:102 6.45236e-05
62 *978:20 *4561:A2 0
63 *978:20 *996:6 4.16445e-05
64 *978:20 *996:19 0.000397142
65 *978:43 *996:81 0.000241483
66 *978:43 *996:100 0.000340498
67 *981:102 *996:49 4.9968e-05
68 *981:122 *996:73 5.93953e-05
69 *983:60 *996:81 5.16348e-05
70 *983:70 *4468:C 0.000108659
71 *983:70 *996:53 0.00017219
72 *984:46 *996:53 0.00048729
73 *994:43 *996:49 0.000192125
74 *994:43 *996:73 0.000271308
75 *994:52 *4514:B1 3.49098e-05
76 *994:52 *996:73 3.57349e-05
77 *994:52 *996:81 2.7441e-05
78 *994:52 *996:100 1.12578e-05
79 *994:63 *996:100 2.75145e-05
*RES
1 *4981:X *996:6 4.81 
2 *996:6 *4166:A0 1.6 
3 *996:6 *996:19 9.555 
4 *996:19 *4561:A2 1.96 
5 *996:19 *996:28 1.83 
6 *996:28 *4560:B 1.96 
7 *996:28 *996:49 11.035 
8 *996:49 *996:53 7.97 
9 *996:53 *4469:A2 3.6 
10 *996:53 *4468:C 7.14 
11 *996:49 *996:73 2.865 
12 *996:73 *996:81 6.79 
13 *996:81 *4514:B1 2.77 
14 *996:81 *996:100 12.83 
15 *996:100 *996:102 0.87 
16 *996:102 *4631:B1 8.295 
17 *996:102 *4592:A2_N 5.085 
18 *996:100 *4591:B 5.085 
19 *996:73 *4513:D 1.6 
*END

*D_NET *997 0.019219
*CONN
*I *4632:A_N I *D sky130_fd_sc_hd__and4b_1
*I *4346:C I *D sky130_fd_sc_hd__and4_1
*I *4347:A2 I *D sky130_fd_sc_hd__a22oi_2
*I *4192:A1 I *D sky130_fd_sc_hd__a22o_1
*I *4383:D I *D sky130_fd_sc_hd__and4_1
*I *4384:B1 I *D sky130_fd_sc_hd__a22oi_2
*I *4423:A2 I *D sky130_fd_sc_hd__a22o_1
*I *4422:C I *D sky130_fd_sc_hd__nand4_1
*I *4981:A I *D sky130_fd_sc_hd__buf_4
*I *4982:X O *D sky130_fd_sc_hd__buf_2
*CAP
1 *4632:A_N 0.000703367
2 *4346:C 0.000366744
3 *4347:A2 0
4 *4192:A1 0.000179876
5 *4383:D 5.10767e-05
6 *4384:B1 0.000574075
7 *4423:A2 0
8 *4422:C 5.14587e-05
9 *4981:A 0.00010151
10 *4982:X 0
11 *997:104 0.000453155
12 *997:87 0.000503662
13 *997:76 0.000288452
14 *997:55 0.00168945
15 *997:42 0.00140708
16 *997:27 0.0011044
17 *997:23 0.00206551
18 *997:4 0.000702409
19 *4632:A_N *4549:A_N 8.23457e-05
20 *4632:A_N *4592:B1 0.000202095
21 *4632:A_N *998:98 0.000352775
22 *4632:A_N *1000:43 8.23457e-05
23 *4632:A_N *1000:124 0.000616046
24 *997:23 *998:25 9.04268e-05
25 *997:27 *999:29 0.000360861
26 *997:42 *999:29 0
27 *997:55 *999:42 0
28 *997:55 *1000:97 0
29 *4166:A1 *4981:A 0
30 *4166:A1 *997:23 0.000199833
31 *4166:S *4981:A 4.66108e-05
32 *4192:B2 *4192:A1 0.000120655
33 *4195:B2 *4384:B1 9.80663e-05
34 *4195:B2 *997:55 0.000277114
35 *4196:B1 *4346:C 2.42236e-05
36 *4196:B1 *997:87 9.05299e-05
37 *4196:B1 *997:104 8.53255e-05
38 *4319:A1 *4346:C 0
39 *4319:A1 *4383:D 0
40 *4319:A1 *997:87 0
41 *4319:A1 *997:104 0
42 *4346:B *4346:C 0.000311294
43 *4376:A *997:55 0
44 *4383:A *4384:B1 8.40213e-05
45 *4384:B2 *4384:B1 4.40595e-05
46 *4422:A *997:42 1.8847e-05
47 *4422:B *997:27 0.000336831
48 *4422:B *997:42 1.88904e-05
49 *4423:A1 *997:42 0
50 *4423:B2 *997:42 6.23375e-05
51 *4425:A *997:55 8.68387e-05
52 *4459:B1 *997:55 0
53 *4631:B1 *4632:A_N 0.000402041
54 *4982:A *997:23 6.05513e-05
55 *161:19 *4632:A_N 0.000105841
56 *161:30 *4632:A_N 0.000175867
57 *170:55 *4981:A 0.000114492
58 *170:59 *4981:A 2.92496e-05
59 *180:86 *4384:B1 0.000118513
60 *309:10 *4346:C 5.062e-06
61 *347:12 *997:55 0.000133649
62 *382:10 *997:42 0
63 *382:10 *997:55 0
64 *384:8 *997:55 0
65 *435:10 *997:27 7.23533e-05
66 *436:14 *4422:C 1.88904e-05
67 *436:14 *997:27 0.000166792
68 *519:22 *4632:A_N 0.000130445
69 *546:10 *4632:A_N 0.000569799
70 *772:48 *4192:A1 7.23533e-05
71 *792:33 *4632:A_N 5.64226e-05
72 *857:12 *997:55 0.000208491
73 *859:29 *4192:A1 4.05358e-05
74 *864:12 *997:27 0
75 *977:31 *4632:A_N 0.000102184
76 *978:20 *4981:A 2.16833e-05
77 *981:98 *4632:A_N 0.000378797
78 *981:98 *997:23 0.000467074
79 *981:102 *997:27 0
80 *981:122 *4632:A_N 0.0001947
81 *984:46 *4632:A_N 8.44281e-05
82 *988:83 *4383:D 2.46089e-05
83 *988:83 *997:87 8.98743e-05
84 *988:102 *997:87 2.75538e-05
85 *989:77 *4346:C 0.000161529
86 *994:43 *4632:A_N 0.000203402
87 *994:43 *997:23 0.000232262
88 *994:43 *997:27 0
89 *996:6 *4981:A 8.57024e-05
90 *996:49 *4632:A_N 0.000193806
91 *996:49 *997:27 0
92 *996:73 *4632:A_N 3.66286e-05
93 *996:100 *4632:A_N 0.000428177
94 *996:102 *4632:A_N 7.06865e-05
*RES
1 *4982:X *997:4 1.6 
2 *997:4 *4981:A 8.03 
3 *997:4 *997:23 11.175 
4 *997:23 *997:27 19.8275 
5 *997:27 *4422:C 4.2825 
6 *997:27 *997:42 3.8325 
7 *997:42 *4423:A2 3.6 
8 *997:42 *997:55 19.58 
9 *997:55 *4384:B1 13.43 
10 *997:55 *997:76 2 
11 *997:76 *4383:D 4.47 
12 *997:76 *997:87 5.205 
13 *997:87 *4192:A1 10.645 
14 *997:87 *997:104 1.89 
15 *997:104 *4347:A2 3.6 
16 *997:104 *4346:C 8.805 
17 *997:23 *4632:A_N 38.19 
*END

*D_NET *998 0.0176701
*CONN
*I *4547:A2 I *D sky130_fd_sc_hd__a31o_1
*I *4512:B I *D sky130_fd_sc_hd__nand2_1
*I *4548:A2_N I *D sky130_fd_sc_hd__o2bb2a_1
*I *4549:B I *D sky130_fd_sc_hd__and4b_1
*I *4591:A_N I *D sky130_fd_sc_hd__and4b_1
*I *4592:B1 I *D sky130_fd_sc_hd__o2bb2a_1
*I *4422:D I *D sky130_fd_sc_hd__nand4_1
*I *4468:D I *D sky130_fd_sc_hd__and4_1
*I *4469:B1 I *D sky130_fd_sc_hd__a22o_1
*I *4164:A0 I *D sky130_fd_sc_hd__mux2_1
*I *4983:X O *D sky130_fd_sc_hd__buf_4
*CAP
1 *4547:A2 0
2 *4512:B 0.000133987
3 *4548:A2_N 0
4 *4549:B 0
5 *4591:A_N 2.11528e-05
6 *4592:B1 0.000133566
7 *4422:D 0.000645087
8 *4468:D 3.69588e-05
9 *4469:B1 0.000192904
10 *4164:A0 0
11 *4983:X 6.06327e-05
12 *998:98 0.000259576
13 *998:92 0.000265083
14 *998:84 0.000211769
15 *998:82 0.000406101
16 *998:76 0.00046537
17 *998:46 0.000713074
18 *998:29 0.000348325
19 *998:25 0.002016
20 *998:6 0.00170744
21 *4468:D *4987:A 4.66108e-05
22 *998:6 *4983:A 8.65905e-05
23 *4164:A1 *998:6 4.82919e-05
24 *4164:A1 *998:25 3.66286e-05
25 *4164:S *998:25 2.30292e-05
26 *4165:B *998:6 4.85494e-05
27 *4166:A1 *998:25 9.34067e-05
28 *4260:S *998:25 0.00053765
29 *4261:B *998:25 0.00012657
30 *4422:A *4422:D 0.000124895
31 *4422:B *4422:D 0.000122325
32 *4468:A *4469:B1 8.49205e-05
33 *4468:C *4469:B1 0.00011095
34 *4506:A1_N *4512:B 0.000195925
35 *4506:A1_N *998:84 0.000106655
36 *4506:A1_N *998:92 0.000203762
37 *4515:A_N *998:76 1.12578e-05
38 *4515:A_N *998:82 0.000167726
39 *4515:B *998:76 0
40 *4515:B *998:82 0.000190633
41 *4547:A3 *998:82 4.82863e-05
42 *4550:B *998:92 0
43 *4591:B *4591:A_N 1.56428e-05
44 *4592:B2 *4592:B1 8.23457e-05
45 *4632:A_N *4592:B1 0.000202095
46 *4632:A_N *998:98 0.000352775
47 *4968:A *4469:B1 0.000140905
48 *4982:A *998:25 0.00016569
49 *161:30 *4592:B1 2.92496e-05
50 *161:41 *4592:B1 0.000172845
51 *161:41 *998:98 0.000361306
52 *170:40 *998:6 3.43327e-05
53 *170:40 *998:25 2.10134e-05
54 *436:14 *4422:D 1.08758e-05
55 *480:18 *4512:B 4.41506e-05
56 *504:20 *4512:B 8.23457e-05
57 *511:16 *998:82 0.000262227
58 *511:16 *998:84 2.66935e-05
59 *511:16 *998:92 1.43521e-05
60 *519:22 *998:92 3.58657e-05
61 *519:22 *998:98 2.49909e-05
62 *546:10 *998:92 8.23457e-05
63 *546:10 *998:98 1.91597e-05
64 *556:18 *4591:A_N 2.49909e-05
65 *792:33 *4422:D 0.000785653
66 *792:33 *998:29 0.000441825
67 *792:33 *998:46 0.000116853
68 *895:20 *998:6 0.000353831
69 *895:20 *998:25 0.000313852
70 *977:46 *4512:B 0
71 *977:46 *998:84 0
72 *977:46 *998:92 0
73 *979:36 *998:25 8.40269e-05
74 *979:36 *998:76 0.000414543
75 *983:70 *998:25 0.00015829
76 *983:70 *998:29 0.000441825
77 *983:70 *998:46 0.000109995
78 *983:89 *4422:D 0.000991278
79 *983:89 *998:46 9.50342e-06
80 *994:43 *998:25 0.000954762
81 *996:53 *4469:B1 5.53249e-06
82 *996:53 *998:25 0.000159964
83 *997:23 *998:25 9.04268e-05
*RES
1 *4983:X *998:6 4.81 
2 *998:6 *4164:A0 1.6 
3 *998:6 *998:25 31.06 
4 *998:25 *998:29 7.205 
5 *998:29 *4469:B1 11.065 
6 *998:29 *998:46 1.38 
7 *998:46 *4468:D 4.05 
8 *998:46 *4422:D 20.115 
9 *998:25 *998:76 4.605 
10 *998:76 *998:82 7.985 
11 *998:82 *998:84 1.38 
12 *998:84 *998:92 5.555 
13 *998:92 *998:98 6.635 
14 *998:98 *4592:B1 7.14 
15 *998:98 *4591:A_N 4.05 
16 *998:92 *4549:B 1.6 
17 *998:84 *4548:A2_N 3.6 
18 *998:82 *4512:B 6.795 
19 *998:76 *4547:A2 1.6 
*END

*D_NET *999 0.0170171
*CONN
*I *4346:D I *D sky130_fd_sc_hd__and4_1
*I *4318:C I *D sky130_fd_sc_hd__and4_1
*I *4347:B1 I *D sky130_fd_sc_hd__a22oi_2
*I *4189:A1 I *D sky130_fd_sc_hd__a22o_1
*I *4319:A2 I *D sky130_fd_sc_hd__a22oi_2
*I *4381:B I *D sky130_fd_sc_hd__nand2_1
*I *4423:B1 I *D sky130_fd_sc_hd__a22o_1
*I *4983:A I *D sky130_fd_sc_hd__buf_4
*I *4984:X O *D sky130_fd_sc_hd__buf_2
*CAP
1 *4346:D 0
2 *4318:C 3.55506e-05
3 *4347:B1 0.000140833
4 *4189:A1 0.00115902
5 *4319:A2 0
6 *4381:B 0.000224518
7 *4423:B1 7.26356e-05
8 *4983:A 0.000352367
9 *4984:X 0
10 *999:73 0.00129509
11 *999:67 0.000423
12 *999:65 0.000392018
13 *999:59 0.000750675
14 *999:42 0.00123199
15 *999:29 0.00259884
16 *999:4 0.00241141
17 *4189:A1 *4319:B1 0
18 *4189:A1 *1001:46 0
19 *999:59 *1001:77 0
20 *999:65 *1001:77 0
21 *999:67 *1005:106 4.16262e-05
22 *4164:A1 *4983:A 2.97004e-06
23 *4165:B *4983:A 5.30673e-05
24 *4186:A1 *4189:A1 0.000160635
25 *4189:B1 *4189:A1 2.11084e-05
26 *4189:B2 *4189:A1 0.000304571
27 *4190:B1 *4189:A1 1.16578e-05
28 *4196:B1 *4189:A1 0.000360323
29 *4196:B1 *999:73 2.45182e-05
30 *4261:A *999:29 9.66021e-05
31 *4317:A *999:65 0
32 *4318:A *999:67 4.47209e-05
33 *4318:B *999:65 0.000158297
34 *4319:A1 *4189:A1 4.18603e-06
35 *4319:A1 *4347:B1 0.000114921
36 *4319:A1 *999:73 1.94892e-05
37 *4381:A *4381:B 4.82863e-05
38 *4386:A *999:42 0.000204463
39 *4386:A *999:59 2.07184e-05
40 *4386:B *999:42 0.00011852
41 *4386:C *999:42 8.09021e-06
42 *4387:B1 *999:59 0.000139238
43 *4422:A *999:29 3.07421e-05
44 *4423:A1 *4423:B1 3.26889e-05
45 *4423:B2 *4423:B1 4.82863e-05
46 *4423:B2 *999:29 7.34364e-05
47 *4423:B2 *999:42 1.71013e-05
48 *4431:B1 *999:42 0
49 *4522:A1 *999:29 2.67022e-05
50 *4554:A2 *999:29 0
51 *4842:D *4983:A 0
52 *4984:A *4983:A 2.75145e-05
53 *4990:A *999:29 1.79536e-05
54 *199:10 *4189:A1 0
55 *199:10 *4347:B1 0.000165222
56 *199:10 *999:29 0
57 *199:10 *999:42 0
58 *199:10 *999:59 0
59 *199:10 *999:65 0
60 *224:42 *4983:A 0
61 *266:10 *4189:A1 8.40269e-05
62 *308:6 *999:59 5.05437e-05
63 *309:10 *999:59 3.23663e-05
64 *342:6 *4381:B 0.000426206
65 *344:22 *4381:B 2.49909e-05
66 *347:12 *999:59 0
67 *348:12 *999:59 0
68 *349:12 *999:59 0
69 *432:42 *999:29 0
70 *434:10 *999:29 0.000120186
71 *435:10 *999:29 3.86529e-05
72 *436:14 *999:29 0.00031916
73 *781:39 *4423:B1 4.22057e-05
74 *857:12 *999:42 0
75 *973:24 *4189:A1 2.26018e-05
76 *978:10 *999:29 8.67698e-06
77 *979:6 *999:29 0.000193801
78 *979:23 *999:29 0.000163204
79 *979:36 *999:29 0.000918133
80 *984:99 *4189:A1 0.000318793
81 *986:84 *999:65 0
82 *987:114 *4318:C 0
83 *987:114 *999:67 8.49205e-05
84 *987:114 *999:73 0.000235573
85 *993:19 *999:29 0
86 *993:34 *999:29 0
87 *997:27 *999:29 0.000360861
88 *997:42 *999:29 0
89 *997:55 *999:42 0
90 *998:6 *4983:A 8.65905e-05
*RES
1 *4984:X *999:4 1.6 
2 *999:4 *4983:A 11.315 
3 *999:4 *999:29 36.83 
4 *999:29 *4423:B1 5.1 
5 *999:29 *999:42 8.775 
6 *999:42 *4381:B 8.55 
7 *999:42 *999:59 11.495 
8 *999:59 *999:65 7.675 
9 *999:65 *999:67 2.52 
10 *999:67 *999:73 4.79 
11 *999:73 *4319:A2 3.6 
12 *999:73 *4189:A1 26.61 
13 *999:67 *4347:B1 9.275 
14 *999:65 *4318:C 2.215 
15 *999:59 *4346:D 1.6 
*END

*D_NET *1000 0.0248148
*CONN
*I *4549:A_N I *D sky130_fd_sc_hd__and4b_1
*I *4548:B1 I *D sky130_fd_sc_hd__o2bb2a_1
*I *4376:B I *D sky130_fd_sc_hd__nand2_1
*I *4296:A2 I *D sky130_fd_sc_hd__a22oi_2
*I *4295:C I *D sky130_fd_sc_hd__and4_1
*I *4505:A2 I *D sky130_fd_sc_hd__a31o_1
*I *4507:B I *D sky130_fd_sc_hd__and4b_1
*I *4506:A2_N I *D sky130_fd_sc_hd__o2bb2a_1
*I *4467:B I *D sky130_fd_sc_hd__nand2_1
*I *4162:A0 I *D sky130_fd_sc_hd__mux2_1
*I *4985:X O *D sky130_fd_sc_hd__buf_2
*CAP
1 *4549:A_N 2.14824e-05
2 *4548:B1 9.03612e-05
3 *4376:B 0
4 *4296:A2 3.38389e-05
5 *4295:C 0.000245444
6 *4505:A2 0
7 *4507:B 0.000163261
8 *4506:A2_N 0
9 *4467:B 0.000126303
10 *4162:A0 0.000293511
11 *4985:X 0
12 *1000:124 0.000200756
13 *1000:97 0.00211196
14 *1000:89 0.00244116
15 *1000:76 0.000633599
16 *1000:62 0.000410618
17 *1000:47 0.000834417
18 *1000:43 0.000971946
19 *1000:37 0.0028255
20 *1000:4 0.00254402
21 *4295:C *4317:B 5.59552e-05
22 *4295:C *1004:90 7.23533e-05
23 *4507:B *4506:B1 4.52889e-05
24 *1000:62 *4506:B1 2.67184e-05
25 *1000:97 *4317:B 8.79923e-05
26 *4162:A1 *4162:A0 4.98756e-05
27 *4167:A *1000:37 8.65905e-05
28 *4167:B *1000:37 0.000159361
29 *4259:B *4162:A0 2.97004e-06
30 *4296:A1 *4295:C 4.51031e-05
31 *4296:A1 *4296:A2 4.00541e-06
32 *4296:A1 *1000:97 4.70919e-05
33 *4314:A1 *1000:97 0
34 *4318:B *1000:97 0.000468802
35 *4349:B1 *1000:97 1.19928e-05
36 *4376:A *1000:97 0.000130065
37 *4381:A *1000:97 0.00100216
38 *4467:A *4467:B 0.000275822
39 *4470:B *1000:89 4.38051e-05
40 *4505:A1 *1000:47 0.000307043
41 *4506:A1_N *4507:B 7.75984e-06
42 *4506:A1_N *1000:62 7.35813e-05
43 *4507:C *4507:B 4.82919e-05
44 *4508:A *4507:B 1.9415e-05
45 *4559:A *1000:37 0.000153816
46 *4559:D *1000:37 8.23457e-05
47 *4599:B *1000:37 0.000522494
48 *4600:B *1000:37 4.66742e-05
49 *4632:A_N *4549:A_N 8.23457e-05
50 *4632:A_N *1000:43 8.23457e-05
51 *4632:A_N *1000:124 0.000616046
52 *4841:CLK *4162:A0 0.000199498
53 *4967:A *1000:37 0.000140145
54 *4968:A *1000:97 0.00020613
55 *310:12 *1000:97 2.97004e-06
56 *347:12 *1000:97 0
57 *385:12 *1000:97 0
58 *391:12 *1000:97 0
59 *418:14 *1000:89 0.000387891
60 *428:10 *1000:43 0.000266605
61 *428:10 *1000:76 5.16418e-05
62 *428:10 *1000:89 9.50342e-06
63 *437:12 *1000:89 0.000254644
64 *463:16 *4467:B 1.91597e-05
65 *463:16 *1000:89 3.89528e-05
66 *471:12 *1000:43 0
67 *519:22 *4549:A_N 7.23635e-05
68 *519:22 *1000:43 8.40213e-05
69 *519:22 *1000:124 0.000606851
70 *556:18 *1000:37 8.53113e-06
71 *774:68 *4162:A0 0.000141606
72 *774:89 *4162:A0 3.66286e-05
73 *792:33 *1000:43 0.000543971
74 *792:33 *1000:76 2.68721e-05
75 *792:33 *1000:89 0.000753496
76 *884:16 *1000:37 0.000506266
77 *977:31 *4548:B1 0.000206538
78 *978:49 *4548:B1 0.00013521
79 *978:60 *1000:37 0
80 *978:96 *4548:B1 5.16418e-05
81 *979:42 *1000:43 0
82 *979:61 *4467:B 0.000128197
83 *979:61 *1000:47 0.000377909
84 *979:61 *1000:62 8.65961e-05
85 *981:12 *1000:37 4.66108e-05
86 *982:23 *1000:97 0
87 *983:60 *1000:37 0.000225189
88 *983:60 *1000:43 0.000241171
89 *984:59 *1000:89 0
90 *986:84 *1000:97 0.000238919
91 *987:52 *4295:C 2.87867e-05
92 *994:63 *1000:37 0
93 *996:100 *4548:B1 8.40269e-05
94 *997:55 *1000:97 0
*RES
1 *4985:X *1000:4 1.6 
2 *1000:4 *4162:A0 11.39 
3 *1000:4 *1000:37 39.205 
4 *1000:37 *1000:43 14.63 
5 *1000:43 *1000:47 8.315 
6 *1000:47 *4467:B 9.305 
7 *1000:47 *1000:62 3.21 
8 *1000:62 *4506:A2_N 1.6 
9 *1000:62 *4507:B 3.775 
10 *1000:43 *1000:76 0.615 
11 *1000:76 *4505:A2 3.6 
12 *1000:76 *1000:89 17.9 
13 *1000:89 *1000:97 34.51 
14 *1000:97 *4295:C 8.99 
15 *1000:97 *4296:A2 2.215 
16 *1000:89 *4376:B 1.6 
17 *1000:37 *1000:124 5.625 
18 *1000:124 *4548:B1 8.54 
19 *1000:124 *4549:A_N 2.395 
*END

*D_NET *1001 0.012057
*CONN
*I *4187:A1 I *D sky130_fd_sc_hd__a211o_1
*I *4318:D I *D sky130_fd_sc_hd__and4_1
*I *4345:B I *D sky130_fd_sc_hd__nand2_1
*I *4377:C I *D sky130_fd_sc_hd__and4_1
*I *4378:A2 I *D sky130_fd_sc_hd__a22o_1
*I *4319:B1 I *D sky130_fd_sc_hd__a22oi_2
*I *4986:X O *D sky130_fd_sc_hd__clkbuf_2
*CAP
1 *4187:A1 0
2 *4318:D 0
3 *4345:B 0
4 *4377:C 0.000163967
5 *4378:A2 3.39326e-05
6 *4319:B1 2.80926e-05
7 *4986:X 0.000114739
8 *1001:77 0.00102274
9 *1001:71 0.00110448
10 *1001:59 0.00049128
11 *1001:46 0.000322294
12 *1001:44 0.00222707
13 *1001:10 0.00225925
14 *4377:C *4378:B1 2.59835e-05
15 *4378:A2 *4378:B1 5.4155e-06
16 *1001:44 *4271:C 6.52265e-05
17 *1001:44 *1007:136 0.000330392
18 *1001:44 *1010:22 2.54692e-05
19 *1001:59 *1005:106 0.000309612
20 *1001:71 *4317:B 0.000210433
21 *1001:71 *1005:106 0.000150959
22 *1001:77 *4378:B1 1.47347e-05
23 *4186:A1 *1001:44 4.31222e-06
24 *4186:A2 *1001:44 5.08664e-05
25 *4186:B1 *1001:44 0.000122797
26 *4187:A2 *1001:10 0.000126569
27 *4187:A2 *1001:44 9.09788e-06
28 *4189:A1 *4319:B1 0
29 *4189:A1 *1001:46 0
30 *4189:B1 *1001:44 0
31 *4271:B *1001:44 8.35068e-05
32 *4282:B *1001:44 3.83041e-05
33 *4282:C *1001:44 0.00012657
34 *4283:B1 *1001:44 1.47256e-05
35 *4287:A *1001:44 2.61115e-05
36 *4314:A1 *1001:77 8.23457e-05
37 *4317:A *1001:71 0
38 *4318:B *1001:71 1.89685e-05
39 *4319:A1 *4319:B1 4.18603e-06
40 *4349:A2 *1001:71 2.03321e-05
41 *4381:A *1001:77 0
42 *4389:A *1001:77 2.30292e-05
43 *4389:B *1001:77 0.000310394
44 *4986:A *1001:44 0.000773593
45 *5068:A *1001:10 0.000121031
46 *180:125 *1001:44 0.000158464
47 *182:80 *1001:10 7.1377e-05
48 *182:80 *1001:44 5.18317e-06
49 *199:10 *4319:B1 2.78732e-05
50 *199:10 *1001:46 9.05299e-05
51 *244:12 *1001:44 0
52 *244:18 *1001:44 9.83708e-05
53 *245:27 *1001:44 8.65961e-05
54 *246:21 *1001:44 4.2239e-05
55 *247:10 *1001:44 0.00012657
56 *263:16 *1001:44 6.07575e-06
57 *281:10 *1001:71 4.43871e-06
58 *308:21 *1001:71 0
59 *309:14 *1001:71 4.18603e-06
60 *309:14 *1001:77 6.06004e-05
61 *311:12 *1001:71 0
62 *339:14 *4377:C 0.000158072
63 *349:12 *1001:77 0.00010004
64 *350:14 *1001:77 5.80043e-05
65 *844:22 *1001:44 4.70064e-05
66 *972:32 *1001:44 4.85381e-05
67 *974:14 *1001:44 0
68 *986:84 *1001:71 0
69 *986:84 *1001:77 0
70 *999:59 *1001:77 0
71 *999:65 *1001:77 0
*RES
1 *4986:X *1001:10 6.375 
2 *1001:10 *1001:44 48.255 
3 *1001:44 *1001:46 1.89 
4 *1001:46 *4319:B1 4.215 
5 *1001:46 *1001:59 4.865 
6 *1001:59 *1001:71 11.88 
7 *1001:71 *1001:77 13.775 
8 *1001:77 *4378:A2 2.215 
9 *1001:77 *4377:C 3.775 
10 *1001:71 *4345:B 3.6 
11 *1001:59 *4318:D 1.6 
12 *1001:10 *4187:A1 3.6 
*END

*D_NET *1002 0.0297693
*CONN
*I *4778:C1 I *D sky130_fd_sc_hd__a211oi_1
*I *4791:C1 I *D sky130_fd_sc_hd__a211oi_1
*I *4804:C1 I *D sky130_fd_sc_hd__a211oi_1
*I *4820:C1 I *D sky130_fd_sc_hd__a211oi_1
*I *4831:C1 I *D sky130_fd_sc_hd__a211oi_2
*I *4836:C1 I *D sky130_fd_sc_hd__a211oi_1
*I *4147:A I *D sky130_fd_sc_hd__inv_2
*I *4152:A I *D sky130_fd_sc_hd__nor3_1
*I *5066:X O *D sky130_fd_sc_hd__clkbuf_4
*CAP
1 *4778:C1 0
2 *4791:C1 0
3 *4804:C1 0.000153688
4 *4820:C1 2.08101e-05
5 *4831:C1 0.000850545
6 *4836:C1 0
7 *4147:A 0.00118968
8 *4152:A 1.57589e-05
9 *5066:X 0.000687114
10 *1002:78 0.00118929
11 *1002:54 0.00413487
12 *1002:46 0.00394692
13 *1002:30 0.00153659
14 *1002:28 0.00244898
15 *1002:22 0.00198318
16 *1002:12 0.00121205
17 *1002:30 *4820:A1 4.85494e-05
18 *1002:46 *4820:A1 0.000188031
19 *1002:46 *4834:B1 0
20 *1002:54 *1009:100 0.000107047
21 *1002:78 *1009:100 0.000285729
22 *4196:A1 *1002:46 0.000238137
23 *4231:A *1002:12 1.34361e-05
24 *4231:B *1002:12 0.000162332
25 *4232:B2 *1002:12 0
26 *4244:C1 *4831:C1 0.000298442
27 *4244:C1 *1002:46 0.000423626
28 *4411:A2 *1002:46 0
29 *4778:A1 *1002:12 6.97118e-05
30 *4778:A2 *1002:12 1.71013e-05
31 *4778:B1 *1002:12 3.83041e-05
32 *4778:B1 *1002:22 0.000239813
33 *4783:B1 *1002:28 5.83121e-06
34 *4787:B *1002:28 0.000543589
35 *4789:A *1002:28 7.21296e-06
36 *4789:B *1002:28 0
37 *4790:A *1002:22 0.000212031
38 *4791:A1 *1002:22 5.98004e-06
39 *4791:A1 *1002:28 0.000122465
40 *4791:B1 *1002:22 0.000167724
41 *4792:B *1002:28 4.82919e-05
42 *4805:B *1002:28 6.15258e-05
43 *4805:C *1002:28 0.000349592
44 *4805:D *1002:28 8.23627e-05
45 *4820:A2 *1002:30 0.000457339
46 *4833:B1 *1002:78 0
47 *4836:A1 *4831:C1 1.22676e-05
48 *4836:A1 *1002:78 2.03321e-05
49 *4836:B1 *1002:78 7.23602e-05
50 *4837:D *4147:A 5.72004e-05
51 *4892:D *1002:46 0.00034046
52 *4892:D *1002:54 0
53 *4911:D *1002:22 0.000120186
54 *4917:CLK *1002:78 9.87538e-05
55 *4925:A *1002:28 1.15688e-05
56 *4936:A *1002:28 7.17811e-05
57 *4940:A *4804:C1 0
58 *5111:A *1002:28 2.30292e-05
59 *183:28 *1002:30 0.000149462
60 *183:28 *1002:54 0.00117553
61 *671:47 *1002:28 8.34281e-06
62 *772:94 *1002:28 4.75576e-05
63 *813:38 *1002:28 4.91927e-05
64 *832:61 *4804:C1 0
65 *832:89 *4804:C1 0
66 *836:29 *1002:54 0.00136089
67 *837:85 *1002:22 0
68 *837:85 *1002:28 1.52184e-05
69 *837:89 *1002:28 8.49205e-05
70 *844:64 *1002:54 0.00144073
71 *968:44 *4831:C1 3.09233e-05
72 *970:27 *1002:28 0.000613895
73 *970:27 *1002:30 0.000401043
74 *972:144 *4831:C1 0
*RES
1 *5066:X *1002:12 17.57 
2 *1002:12 *1002:22 13.4 
3 *1002:22 *1002:28 31.505 
4 *1002:28 *1002:30 14.94 
5 *1002:30 *1002:46 18.57 
6 *1002:46 *1002:54 11.06 
7 *1002:54 *4152:A 3.8325 
8 *1002:54 *4147:A 23.7225 
9 *1002:46 *1002:78 8.31 
10 *1002:78 *4836:C1 3.6 
11 *1002:78 *4831:C1 19.9 
12 *1002:30 *4820:C1 1.96 
13 *1002:28 *4804:C1 8 
14 *1002:22 *4791:C1 3.6 
15 *1002:12 *4778:C1 1.6 
*END

*D_NET *1003 0.0100603
*CONN
*I *4460:A2_N I *D sky130_fd_sc_hd__o2bb2a_1
*I *4340:A2 I *D sky130_fd_sc_hd__a22oi_1
*I *4339:C I *D sky130_fd_sc_hd__and4_1
*I *4377:D I *D sky130_fd_sc_hd__and4_1
*I *4378:B1 I *D sky130_fd_sc_hd__a22o_1
*I *4414:C I *D sky130_fd_sc_hd__and4_1
*I *4416:A2 I *D sky130_fd_sc_hd__a22o_1
*I *4461:B I *D sky130_fd_sc_hd__and4b_1
*I *4507:A_N I *D sky130_fd_sc_hd__and4b_1
*I *4506:B1 I *D sky130_fd_sc_hd__o2bb2a_1
*I *4987:X O *D sky130_fd_sc_hd__clkbuf_2
*CAP
1 *4460:A2_N 0
2 *4340:A2 0.00034274
3 *4339:C 3.38127e-05
4 *4377:D 0
5 *4378:B1 0.000121586
6 *4414:C 3.69588e-05
7 *4416:A2 0
8 *4461:B 0.000165711
9 *4507:A_N 0
10 *4506:B1 0.000129383
11 *4987:X 0.00017563
12 *1003:93 0.000737104
13 *1003:75 0.000121586
14 *1003:73 0.00103448
15 *1003:54 0.000832431
16 *1003:45 0.000509166
17 *1003:30 0.000884972
18 *1003:12 0.000129383
19 *1003:10 0.000507268
20 *4340:A2 *4375:B 5.80482e-06
21 *4340:A2 *1006:67 2.99518e-06
22 *4340:A2 *1006:73 6.15576e-06
23 *4378:B1 *1006:67 0
24 *4414:C *4414:D 4.66108e-05
25 *1003:45 *4461:A_N 2.7441e-05
26 *1003:45 *1006:14 0.000131156
27 *1003:45 *1006:30 9.1566e-05
28 *1003:54 *1006:45 5.73362e-05
29 *1003:73 *1006:59 0.000339886
30 *1003:73 *1006:67 0
31 *1003:93 *1006:67 0
32 *4195:B2 *1003:73 0.000150345
33 *4314:A1 *4378:B1 2.49909e-05
34 *4340:B2 *4340:A2 4.61701e-06
35 *4340:B2 *1003:93 2.0851e-06
36 *4341:B *4340:A2 1.79536e-05
37 *4377:C *4378:B1 2.59835e-05
38 *4378:A2 *4378:B1 5.4155e-06
39 *4379:A_N *1003:73 5.30673e-05
40 *4415:A *1003:45 0
41 *4415:A *1003:54 0
42 *4418:B1 *1003:30 1.71207e-05
43 *4418:B1 *1003:45 0
44 *4461:C *4461:B 0.00023468
45 *4462:A *1003:30 8.53113e-06
46 *4506:A1_N *4506:B1 0.000126149
47 *4506:A1_N *1003:10 0
48 *4507:B *4506:B1 4.52889e-05
49 *4508:A *4506:B1 4.82863e-05
50 *161:52 *1003:10 0
51 *161:52 *1003:30 0
52 *161:65 *1003:30 0
53 *301:8 *4340:A2 6.8725e-06
54 *339:14 *4378:B1 0.000113255
55 *350:14 *4378:B1 0.000347029
56 *393:14 *1003:73 0.000192125
57 *781:39 *1003:45 0.000114492
58 *781:39 *1003:54 0.000199953
59 *977:46 *1003:10 5.73518e-05
60 *977:52 *1003:10 5.39961e-05
61 *977:52 *1003:30 0.000534151
62 *977:54 *4461:B 5.94567e-05
63 *977:68 *4461:B 3.54684e-05
64 *977:68 *1003:30 0
65 *977:68 *1003:45 0.000182484
66 *977:83 *1003:73 1.61461e-05
67 *979:61 *1003:30 0
68 *979:76 *1003:54 0.000292059
69 *979:76 *1003:73 4.9968e-05
70 *979:89 *1003:73 0
71 *982:49 *4340:A2 0
72 *984:59 *1003:73 0.000123971
73 *984:70 *1003:73 5.53249e-06
74 *984:70 *1003:93 0.000398898
75 *1000:62 *4506:B1 2.67184e-05
76 *1001:77 *4378:B1 1.47347e-05
*RES
1 *4987:X *1003:10 6.63 
2 *1003:10 *1003:12 2 
3 *1003:12 *4506:B1 4.465 
4 *1003:12 *4507:A_N 1.6 
5 *1003:10 *1003:30 9.185 
6 *1003:30 *4461:B 4.825 
7 *1003:30 *1003:45 9.635 
8 *1003:45 *4416:A2 3.6 
9 *1003:45 *1003:54 3.675 
10 *1003:54 *4414:C 4.05 
11 *1003:54 *1003:73 16.72 
12 *1003:73 *1003:75 2 
13 *1003:75 *4378:B1 5.53 
14 *1003:75 *4377:D 1.6 
15 *1003:73 *1003:93 8.265 
16 *1003:93 *4339:C 4.05 
17 *1003:93 *4340:A2 5.63462 
18 *1003:30 *4460:A2_N 1.6 
*END

*D_NET *1004 0.0223109
*CONN
*I *4987:A I *D sky130_fd_sc_hd__clkbuf_2
*I *4295:D I *D sky130_fd_sc_hd__and4_1
*I *4317:B I *D sky130_fd_sc_hd__nand2_1
*I *4296:B1 I *D sky130_fd_sc_hd__a22oi_2
*I *4281:A2 I *D sky130_fd_sc_hd__a22oi_2
*I *4280:C I *D sky130_fd_sc_hd__and4_1
*I *4183:A1 I *D sky130_fd_sc_hd__a22o_1
*I *4160:A0 I *D sky130_fd_sc_hd__mux2_1
*I *4988:X O *D sky130_fd_sc_hd__buf_2
*CAP
1 *4987:A 0.00227089
2 *4295:D 0
3 *4317:B 0.000507166
4 *4296:B1 0
5 *4281:A2 0
6 *4280:C 3.86628e-05
7 *4183:A1 0.000310314
8 *4160:A0 8.49485e-05
9 *4988:X 5.1157e-05
10 *1004:90 0.000587448
11 *1004:84 0.000605522
12 *1004:57 0.000540072
13 *1004:49 0.000270619
14 *1004:43 0.00165084
15 *1004:27 0.00373211
16 *1004:10 0.000551241
17 *4317:B *1005:106 4.82863e-05
18 *1004:43 *1007:23 5.72004e-05
19 *1004:43 *1007:42 0.000169645
20 *1004:43 *1007:55 9.14049e-05
21 *1004:43 *1007:74 0.000436013
22 *1004:43 *1010:80 0
23 *4160:S *4160:A0 7.00889e-06
24 *4160:S *1004:27 3.96653e-05
25 *4161:A *1004:10 0
26 *4177:B2 *1004:43 0.000136884
27 *4183:A2 *4183:A1 1.03423e-05
28 *4250:A0 *4987:A 0.000543676
29 *4250:A0 *1004:27 0.00027839
30 *4250:A1 *1004:27 4.89295e-05
31 *4250:S *4987:A 3.66286e-05
32 *4250:S *1004:27 0.000120923
33 *4251:B *1004:27 0.000123955
34 *4252:A0 *4987:A 2.76781e-05
35 *4252:A1 *4987:A 6.59822e-05
36 *4252:S *4987:A 9.97659e-05
37 *4271:A *1004:57 7.06347e-05
38 *4273:A *1004:43 0
39 *4280:B *4280:C 4.66108e-05
40 *4295:C *4317:B 5.59552e-05
41 *4295:C *1004:90 7.23533e-05
42 *4296:A1 *4317:B 0.000382276
43 *4317:A *4317:B 5.4256e-05
44 *4318:B *4317:B 0.000665581
45 *4422:B *4987:A 0.000723517
46 *4422:B *1004:27 2.04416e-05
47 *4468:A *4987:A 5.6361e-05
48 *4468:C *4987:A 0.000120655
49 *4468:D *4987:A 4.66108e-05
50 *4943:A *1004:10 9.54469e-05
51 *4975:A *1004:43 3.32209e-05
52 *4986:A *1004:57 6.19761e-05
53 *4991:A *1004:43 7.63125e-05
54 *170:27 *1004:27 0.000264425
55 *180:44 *4183:A1 1.47256e-05
56 *182:14 *1004:43 0.000644671
57 *182:39 *1004:43 1.18408e-05
58 *224:10 *1004:43 0.000665545
59 *224:34 *4987:A 0.000506266
60 *234:25 *1004:43 0.000360597
61 *239:12 *1004:43 7.63125e-05
62 *259:10 *1004:90 0.000116158
63 *427:12 *4987:A 8.40269e-05
64 *774:64 *1004:43 0.000204456
65 *784:19 *1004:27 4.86642e-05
66 *784:19 *1004:43 0.000404378
67 *784:19 *1004:49 0.000191528
68 *784:19 *1004:57 3.43291e-05
69 *808:34 *1004:43 0
70 *841:77 *1004:43 9.62187e-05
71 *844:22 *1004:43 0
72 *844:22 *1004:49 0
73 *844:22 *1004:84 0
74 *864:12 *4987:A 1.03323e-05
75 *973:24 *1004:90 0
76 *986:48 *4183:A1 2.68526e-05
77 *986:57 *4183:A1 0.000264217
78 *986:57 *4280:C 3.83194e-05
79 *986:78 *4317:B 0.000890976
80 *986:84 *4317:B 7.31129e-05
81 *987:52 *1004:90 0
82 *987:114 *1004:90 4.43871e-06
83 *989:19 *1004:43 3.68682e-05
84 *989:39 *1004:49 0.000141599
85 *989:39 *1004:84 0.000293628
86 *989:70 *1004:84 0.00033637
87 *989:77 *1004:84 4.60584e-05
88 *1000:97 *4317:B 8.79923e-05
89 *1001:71 *4317:B 0.000210433
*RES
1 *4988:X *1004:10 6.725 
2 *1004:10 *4160:A0 2.74 
3 *1004:10 *1004:27 12.76 
4 *1004:27 *1004:43 36.3375 
5 *1004:43 *1004:49 4.7225 
6 *1004:49 *1004:57 7.45 
7 *1004:57 *4183:A1 6.88 
8 *1004:57 *4280:C 2.395 
9 *1004:49 *4281:A2 1.6 
10 *1004:43 *1004:84 13.0475 
11 *1004:84 *1004:90 5.89 
12 *1004:90 *4296:B1 1.6 
13 *1004:90 *4317:B 23.15 
14 *1004:84 *4295:D 1.6 
15 *1004:27 *4987:A 41.62 
*END

*D_NET *1005 0.0171906
*CONN
*I *4272:C I *D sky130_fd_sc_hd__nand4_1
*I *4270:A2 I *D sky130_fd_sc_hd__a22o_1
*I *4339:D I *D sky130_fd_sc_hd__and4_1
*I *4375:B I *D sky130_fd_sc_hd__nand2_1
*I *4294:B I *D sky130_fd_sc_hd__nand2_1
*I *4281:B1 I *D sky130_fd_sc_hd__a22oi_2
*I *4271:C I *D sky130_fd_sc_hd__and4_1
*I *4280:D I *D sky130_fd_sc_hd__and4_1
*I *4180:A1 I *D sky130_fd_sc_hd__a22o_1
*I *4158:A0 I *D sky130_fd_sc_hd__mux2_1
*I *4989:X O *D sky130_fd_sc_hd__buf_2
*CAP
1 *4272:C 5.27153e-05
2 *4270:A2 0
3 *4339:D 4.55054e-05
4 *4375:B 0.00109625
5 *4294:B 1.88809e-05
6 *4281:B1 0
7 *4271:C 0.00014776
8 *4280:D 4.16056e-05
9 *4180:A1 0.000448762
10 *4158:A0 0.000105808
11 *4989:X 5.48394e-05
12 *1005:106 0.00244385
13 *1005:93 0.0019866
14 *1005:56 0.000267249
15 *1005:52 0.00023881
16 *1005:48 0.00110201
17 *1005:40 0.000524255
18 *1005:30 0.000545416
19 *1005:17 0.00120939
20 *1005:6 0.000677374
21 *4271:C *4271:D 5.45718e-05
22 *4272:C *4272:D 4.82919e-05
23 *1005:17 *4266:A1 0.00018305
24 *1005:40 *4272:D 6.07575e-06
25 *1005:48 *1007:98 0
26 *1005:93 *1007:98 0.000151177
27 *1005:93 *1007:109 8.49205e-05
28 *4178:A1 *4180:A1 1.77568e-05
29 *4180:B2 *4180:A1 0.000690886
30 *4180:B2 *4272:C 2.75538e-05
31 *4180:B2 *1005:17 1.0183e-05
32 *4180:B2 *1005:30 0.000179731
33 *4267:B *4180:A1 0.000160635
34 *4269:B *1005:17 0
35 *4271:B *4271:C 7.18562e-05
36 *4273:A *1005:48 0
37 *4273:B *1005:48 1.07797e-05
38 *4273:C *1005:48 2.92496e-05
39 *4274:A2 *1005:40 0
40 *4274:A2 *1005:48 4.66108e-05
41 *4275:B *1005:40 0
42 *4280:B *4280:D 5.83121e-06
43 *4317:B *1005:106 4.82863e-05
44 *4318:A *1005:106 8.40269e-05
45 *4340:A1 *4339:D 8.65961e-05
46 *4340:A1 *4375:B 4.87317e-05
47 *4340:A1 *1005:106 2.45351e-05
48 *4340:A2 *4375:B 5.80482e-06
49 *4341:B *4375:B 1.4389e-05
50 *4343:B *4375:B 0.000134314
51 *4372:A2 *4375:B 2.05056e-05
52 *4886:CLK *1005:17 0
53 *4886:D *1005:17 0
54 *4989:A *1005:17 0
55 *180:48 *4180:A1 2.90115e-05
56 *180:78 *4158:A0 0.000163204
57 *180:78 *1005:6 7.66083e-05
58 *238:10 *1005:40 1.46828e-05
59 *238:10 *1005:48 3.57349e-05
60 *244:12 *1005:93 9.24521e-05
61 *245:10 *4271:C 4.57897e-05
62 *245:10 *4280:D 2.75145e-05
63 *246:10 *4271:C 1.73877e-05
64 *246:10 *1005:56 1.44259e-05
65 *301:8 *4375:B 9.63032e-06
66 *305:10 *4375:B 0.000300252
67 *351:20 *4375:B 0
68 *351:35 *4375:B 0
69 *797:24 *4180:A1 6.6564e-05
70 *797:24 *1005:17 0.000339886
71 *808:34 *1005:48 0
72 *844:22 *1005:48 0.000187424
73 *844:22 *1005:93 0
74 *866:25 *1005:17 0
75 *984:72 *1005:106 2.05056e-05
76 *984:78 *1005:106 9.52646e-05
77 *986:57 *4280:D 0.000123225
78 *986:57 *1005:93 5.83121e-06
79 *986:68 *4294:B 5.4155e-06
80 *986:68 *1005:93 0.000400419
81 *987:8 *4272:C 2.75229e-05
82 *987:8 *1005:40 8.65905e-05
83 *987:10 *1005:40 1.34594e-05
84 *987:41 *4272:C 0
85 *987:54 *1005:52 0.000148977
86 *987:54 *1005:93 0.000123225
87 *987:64 *1005:52 8.8266e-05
88 *987:64 *1005:56 0.000164679
89 *987:114 *1005:93 1.74678e-05
90 *987:114 *1005:106 0.00035303
91 *989:27 *1005:40 3.71009e-05
92 *989:33 *1005:48 0.000134798
93 *989:39 *1005:56 4.18603e-06
94 *989:48 *4271:C 1.73877e-05
95 *989:48 *1005:56 8.17924e-05
96 *999:67 *1005:106 4.16262e-05
97 *1001:44 *4271:C 6.52265e-05
98 *1001:59 *1005:106 0.000309612
99 *1001:71 *1005:106 0.000150959
*RES
1 *4989:X *1005:6 2.395 
2 *1005:6 *4158:A0 3.085 
3 *1005:6 *1005:17 12.05 
4 *1005:17 *4180:A1 12.6 
5 *1005:17 *1005:30 5.205 
6 *1005:30 *1005:40 5.6 
7 *1005:40 *1005:48 10.51 
8 *1005:48 *1005:52 2.88 
9 *1005:52 *1005:56 4.4 
10 *1005:56 *4280:D 4.74 
11 *1005:56 *4271:C 6.72 
12 *1005:52 *4281:B1 1.6 
13 *1005:48 *1005:93 16.36 
14 *1005:93 *4294:B 1.96 
15 *1005:93 *1005:106 22.47 
16 *1005:106 *4375:B 21.5 
17 *1005:106 *4339:D 3.01 
18 *1005:40 *4270:A2 1.6 
19 *1005:30 *4272:C 4.92 
*END

*D_NET *1006 0.00964446
*CONN
*I *4414:D I *D sky130_fd_sc_hd__and4_1
*I *4413:A2 I *D sky130_fd_sc_hd__a31o_1
*I *4340:B1 I *D sky130_fd_sc_hd__a22oi_1
*I *4315:C I *D sky130_fd_sc_hd__and4_1
*I *4314:A2 I *D sky130_fd_sc_hd__a22oi_1
*I *4416:B1 I *D sky130_fd_sc_hd__a22o_1
*I *4460:B1 I *D sky130_fd_sc_hd__o2bb2a_1
*I *4461:A_N I *D sky130_fd_sc_hd__and4b_1
*I *4990:X O *D sky130_fd_sc_hd__clkbuf_2
*CAP
1 *4414:D 4.80258e-05
2 *4413:A2 0
3 *4340:B1 3.47106e-05
4 *4315:C 0
5 *4314:A2 3.26032e-05
6 *4416:B1 0
7 *4460:B1 0
8 *4461:A_N 0.000106422
9 *4990:X 0.000243022
10 *1006:73 0.000792802
11 *1006:67 0.00127389
12 *1006:59 0.000806964
13 *1006:45 0.000526176
14 *1006:30 0.000244197
15 *1006:14 0.000238215
16 *1006:8 0.00046884
17 *4314:A2 *4314:B1 2.16917e-05
18 *4314:A2 *1008:55 3.00381e-05
19 *1006:67 *1008:31 0
20 *1006:73 *1008:55 0.000266105
21 *4314:A1 *4314:A2 0.000109906
22 *4340:A2 *1006:67 2.99518e-06
23 *4340:A2 *1006:73 6.15576e-06
24 *4340:B2 *1006:67 8.7152e-06
25 *4340:B2 *1006:73 0.000102296
26 *4341:B *1006:67 1.22505e-05
27 *4342:A *1006:67 0.000266243
28 *4344:A *1006:73 0
29 *4344:B *1006:73 0
30 *4378:B1 *1006:67 0
31 *4379:A_N *1006:67 2.92496e-05
32 *4379:B *1006:59 8.65905e-05
33 *4379:B *1006:67 0
34 *4380:A *1006:59 0
35 *4380:B *1006:59 0.000120655
36 *4413:A1 *1006:67 2.97561e-05
37 *4414:B *4414:D 4.66108e-05
38 *4414:C *4414:D 4.66108e-05
39 *4418:B1 *4461:A_N 0.000272973
40 *4461:C *4461:A_N 0.000111455
41 *161:65 *4461:A_N 4.99619e-05
42 *161:65 *1006:14 2.0514e-05
43 *181:50 *4414:D 2.16833e-05
44 *181:50 *1006:45 1.34594e-05
45 *304:14 *1006:67 6.27904e-06
46 *313:10 *1006:73 0
47 *313:27 *1006:73 0
48 *316:10 *1006:73 0
49 *338:6 *1006:67 4.66108e-05
50 *339:14 *1006:59 2.70346e-05
51 *339:14 *1006:67 2.59926e-05
52 *350:14 *1006:59 6.07328e-05
53 *350:14 *1006:67 0.000124007
54 *373:12 *1006:59 5.99393e-05
55 *781:39 *1006:30 9.30787e-05
56 *781:39 *1006:45 0.000233231
57 *977:54 *4461:A_N 4.85529e-05
58 *977:68 *4461:A_N 0.000150381
59 *977:68 *1006:14 0
60 *977:83 *1006:45 0.00022309
61 *977:92 *1006:59 0.000381323
62 *977:117 *1006:59 0.000176647
63 *979:61 *1006:14 0.000231762
64 *979:61 *1006:30 0.000254052
65 *979:61 *1006:45 2.07184e-05
66 *979:89 *4414:D 3.74161e-05
67 *979:89 *1006:59 0
68 *979:106 *1006:59 9.85603e-05
69 *982:79 *1006:73 2.05056e-05
70 *982:83 *4314:A2 0.000113144
71 *982:83 *1006:73 7.22354e-05
72 *1003:45 *4461:A_N 2.7441e-05
73 *1003:45 *1006:14 0.000131156
74 *1003:45 *1006:30 9.1566e-05
75 *1003:54 *1006:45 5.73362e-05
76 *1003:73 *1006:59 0.000339886
77 *1003:73 *1006:67 0
78 *1003:93 *1006:67 0
*RES
1 *4990:X *1006:8 6.12 
2 *1006:8 *1006:14 5.795 
3 *1006:14 *4461:A_N 5.515 
4 *1006:14 *4460:B1 1.6 
5 *1006:8 *1006:30 3.165 
6 *1006:30 *4416:B1 3.6 
7 *1006:30 *1006:45 6.74 
8 *1006:45 *1006:59 14.17 
9 *1006:59 *1006:67 12.275 
10 *1006:67 *1006:73 16.295 
11 *1006:73 *4314:A2 3.295 
12 *1006:73 *4315:C 1.6 
13 *1006:67 *4340:B1 4.05 
14 *1006:59 *4413:A2 1.6 
15 *1006:45 *4414:D 2.74 
*END

*D_NET *1007 0.0142638
*CONN
*I *4303:A2 I *D sky130_fd_sc_hd__a22o_1
*I *4302:B I *D sky130_fd_sc_hd__nand4_1
*I *4271:D I *D sky130_fd_sc_hd__and4_1
*I *4279:B I *D sky130_fd_sc_hd__nand2_1
*I *4272:D I *D sky130_fd_sc_hd__nand4_1
*I *4270:B1 I *D sky130_fd_sc_hd__a22o_1
*I *4267:C I *D sky130_fd_sc_hd__and3_1
*I *4177:A1 I *D sky130_fd_sc_hd__a22o_1
*I *4266:A3 I *D sky130_fd_sc_hd__a31o_1
*I *4156:A0 I *D sky130_fd_sc_hd__mux2_1
*I *4991:X O *D sky130_fd_sc_hd__buf_2
*CAP
1 *4303:A2 0.000223286
2 *4302:B 3.69588e-05
3 *4271:D 0.000723367
4 *4279:B 0
5 *4272:D 0.00010862
6 *4270:B1 0
7 *4267:C 6.05122e-06
8 *4177:A1 0.000199966
9 *4266:A3 0.000230567
10 *4156:A0 0.000209247
11 *4991:X 0
12 *1007:136 0.000984209
13 *1007:109 0.00153644
14 *1007:98 0.000475245
15 *1007:76 0.00010862
16 *1007:74 0.000795712
17 *1007:55 0.000448612
18 *1007:42 0.000338067
19 *1007:23 0.000637399
20 *1007:4 0.000510963
21 *1007:74 *1010:80 0
22 *4155:C *4156:A0 0.000366994
23 *4177:B2 *4177:A1 2.0514e-05
24 *4177:B2 *1007:42 4.41506e-05
25 *4178:A1 *4266:A3 0.000386221
26 *4178:A1 *4267:C 1.70906e-05
27 *4178:B1 *4177:A1 3.40331e-05
28 *4178:C1 *4177:A1 0
29 *4180:B2 *4267:C 9.16333e-06
30 *4189:B2 *4302:B 4.66108e-05
31 *4193:B1 *4303:A2 0
32 *4193:B1 *1007:136 0
33 *4266:A2 *4266:A3 8.65961e-05
34 *4268:B *4177:A1 8.23457e-05
35 *4269:B *4266:A3 5.30673e-05
36 *4271:B *4271:D 1.88904e-05
37 *4271:C *4271:D 5.45718e-05
38 *4272:B *4272:D 4.99619e-05
39 *4272:B *1007:74 2.07184e-05
40 *4272:B *1007:98 3.96088e-05
41 *4272:C *4272:D 4.82919e-05
42 *4273:A *1007:74 0.000204034
43 *4273:B *1007:74 7.18738e-05
44 *4273:C *1007:74 8.09021e-06
45 *4303:B1 *4303:A2 4.66108e-05
46 *4303:B2 *4303:A2 0.000171287
47 *4973:A *4272:D 9.53428e-06
48 *4975:A *1007:23 0.000139933
49 *4975:A *1007:42 0.000137571
50 *4991:A *1007:23 0.000129365
51 *181:44 *1007:42 8.40213e-05
52 *182:14 *1007:42 4.43871e-06
53 *182:39 *1007:42 8.9283e-05
54 *182:39 *1007:55 8.28738e-05
55 *182:39 *1007:74 0.000219012
56 *234:25 *1007:74 2.05661e-05
57 *238:10 *4272:D 0.000122331
58 *239:12 *1007:74 0.000312964
59 *244:12 *1007:109 5.86739e-05
60 *244:12 *1007:136 2.99953e-05
61 *263:16 *1007:136 0.000391354
62 *264:21 *4303:A2 0.000131517
63 *265:10 *4303:A2 5.16418e-05
64 *265:10 *1007:136 0.000248254
65 *267:12 *4303:A2 9.02174e-05
66 *285:12 *1007:136 0.000120819
67 *772:48 *4303:A2 8.08153e-06
68 *772:48 *1007:136 0.000170881
69 *773:6 *1007:23 4.9253e-06
70 *773:10 *4156:A0 1.77665e-05
71 *773:10 *1007:23 4.05684e-05
72 *986:68 *1007:109 8.65961e-05
73 *987:8 *4272:D 4.21666e-05
74 *987:10 *4272:D 4.82919e-05
75 *989:23 *1007:74 0.000160658
76 *989:27 *4272:D 4.66108e-05
77 *989:33 *1007:74 2.92496e-05
78 *989:33 *1007:98 0.000352768
79 *1001:44 *1007:136 0.000330392
80 *1004:43 *1007:23 5.72004e-05
81 *1004:43 *1007:42 0.000169645
82 *1004:43 *1007:55 9.14049e-05
83 *1004:43 *1007:74 0.000436013
84 *1005:40 *4272:D 6.07575e-06
85 *1005:48 *1007:98 0
86 *1005:93 *1007:98 0.000151177
87 *1005:93 *1007:109 8.49205e-05
*RES
1 *4991:X *1007:4 1.6 
2 *1007:4 *4156:A0 10.235 
3 *1007:4 *1007:23 6.845 
4 *1007:23 *4266:A3 8.535 
5 *1007:23 *1007:42 7.555 
6 *1007:42 *4177:A1 6.135 
7 *1007:42 *1007:55 1.125 
8 *1007:55 *4267:C 3.765 
9 *1007:55 *1007:74 15.685 
10 *1007:74 *1007:76 2 
11 *1007:76 *4270:B1 1.6 
12 *1007:76 *4272:D 4.48 
13 *1007:74 *1007:98 10.565 
14 *1007:98 *4279:B 1.6 
15 *1007:98 *1007:109 4.0475 
16 *1007:109 *4271:D 6.25277 
17 *1007:109 *1007:136 20.1925 
18 *1007:136 *4302:B 4.05 
19 *1007:136 *4303:A2 8.685 
*END

*D_NET *1008 0.00911998
*CONN
*I *4417:A_N I *D sky130_fd_sc_hd__and4b_1
*I *4418:B2 I *D sky130_fd_sc_hd__o2bb2a_1
*I *4315:D I *D sky130_fd_sc_hd__and4_1
*I *4314:B1 I *D sky130_fd_sc_hd__a22oi_1
*I *4372:C1 I *D sky130_fd_sc_hd__o211a_1
*I *4373:A2 I *D sky130_fd_sc_hd__a211oi_1
*I *4342:B I *D sky130_fd_sc_hd__nand2_1
*I *4992:X O *D sky130_fd_sc_hd__clkbuf_2
*CAP
1 *4417:A_N 0
2 *4418:B2 0.000334884
3 *4315:D 0
4 *4314:B1 0.000175868
5 *4372:C1 6.80555e-05
6 *4373:A2 0
7 *4342:B 0
8 *4992:X 0
9 *1008:73 0.00042441
10 *1008:55 0.00160942
11 *1008:33 6.80555e-05
12 *1008:31 0.00189272
13 *1008:14 0.00120134
14 *1008:4 0.0008317
15 *4314:A1 *4314:B1 0.000163199
16 *4314:A2 *4314:B1 2.16917e-05
17 *4314:A2 *1008:55 3.00381e-05
18 *4342:A *1008:14 0
19 *4344:A *1008:55 0
20 *4354:A2 *1008:55 0
21 *4372:A1 *1008:31 0
22 *4372:A2 *4372:C1 0.000124007
23 *4372:B1 *4372:C1 0.000130933
24 *4374:B *4372:C1 8.57024e-05
25 *4374:B *1008:55 0
26 *4379:B *1008:14 0.000155227
27 *4380:B *1008:14 0.000112123
28 *4413:A1 *1008:14 0
29 *4417:D *4418:B2 3.59394e-05
30 *4418:A1_N *4418:B2 1.56554e-05
31 *181:44 *1008:14 0
32 *301:19 *4372:C1 0.0001249
33 *304:14 *1008:31 2.8318e-05
34 *305:10 *4372:C1 2.76781e-05
35 *306:10 *1008:55 0
36 *314:18 *1008:55 0
37 *315:10 *1008:55 7.23533e-05
38 *376:14 *4418:B2 4.66826e-05
39 *377:6 *4418:B2 0.000122325
40 *393:14 *1008:14 0.000294414
41 *441:10 *1008:14 0
42 *977:83 *1008:14 0.00011852
43 *977:92 *1008:14 0.000205311
44 *977:117 *4372:C1 4.82919e-05
45 *977:117 *1008:14 0.000232766
46 *977:117 *1008:31 3.25997e-05
47 *982:83 *4314:B1 1.87448e-05
48 *1006:67 *1008:31 0
49 *1006:73 *1008:55 0.000266105
*RES
1 *4992:X *1008:4 1.6 
2 *1008:4 *1008:14 17.66 
3 *1008:14 *4342:B 3.6 
4 *1008:14 *1008:31 9.97 
5 *1008:31 *1008:33 2 
6 *1008:33 *4373:A2 1.6 
7 *1008:33 *4372:C1 4.585 
8 *1008:31 *1008:55 21.395 
9 *1008:55 *4314:B1 4.135 
10 *1008:55 *4315:D 1.6 
11 *1008:4 *1008:73 1.41 
12 *1008:73 *4418:B2 6.025 
13 *1008:73 *4417:A_N 1.6 
*END

*D_NET *1009 0.0179407
*CONN
*I *4371:A1 I *D sky130_fd_sc_hd__o211a_1
*I *4830:A I *D sky130_fd_sc_hd__nor2_1
*I *4831:A2 I *D sky130_fd_sc_hd__a211oi_2
*I *4835:B I *D sky130_fd_sc_hd__nor2_1
*I *4820:A1 I *D sky130_fd_sc_hd__a211oi_1
*I *4411:A1 I *D sky130_fd_sc_hd__o211a_1
*I *4410:A I *D sky130_fd_sc_hd__nand2_1
*I *4337:S I *D sky130_fd_sc_hd__mux2_1
*I *4313:A1 I *D sky130_fd_sc_hd__o211a_1
*I *4312:A I *D sky130_fd_sc_hd__nand2_1
*I *4993:X O *D sky130_fd_sc_hd__buf_2
*CAP
1 *4371:A1 0
2 *4830:A 9.5872e-06
3 *4831:A2 0
4 *4835:B 3.07736e-05
5 *4820:A1 0.000420423
6 *4411:A1 1.34562e-05
7 *4410:A 0
8 *4337:S 2.08101e-05
9 *4313:A1 0.000125704
10 *4312:A 2.66711e-05
11 *4993:X 0
12 *1009:121 0.0008783
13 *1009:100 0.00121448
14 *1009:80 0.000526711
15 *1009:67 9.28324e-05
16 *1009:65 0.00130907
17 *1009:55 0.00138011
18 *1009:42 0.000776965
19 *1009:16 0.000439987
20 *1009:6 0.000657734
21 *4820:A1 *4834:B1 0.000457974
22 *1009:80 *4834:B1 0.000137828
23 *4191:B1 *1009:16 5.18317e-06
24 *4191:B1 *1009:42 4.63352e-05
25 *4191:C1 *1009:42 5.83121e-06
26 *4196:A1 *1009:55 9.63838e-05
27 *4244:C1 *4820:A1 5.63701e-05
28 *4244:C1 *1009:80 4.71606e-05
29 *4244:C1 *1009:121 0
30 *4313:A2 *4313:A1 0.000191645
31 *4313:B1 *4313:A1 1.52352e-05
32 *4337:A1 *1009:42 8.65961e-05
33 *4369:A *1009:65 0.000313852
34 *4370:B *1009:65 0
35 *4409:A *1009:65 0.000241483
36 *4410:B *1009:65 5.65948e-05
37 *4411:A2 *4411:A1 9.53428e-06
38 *4411:A2 *4820:A1 0.00026033
39 *4411:A2 *1009:80 3.00381e-05
40 *4411:C1 *1009:80 6.64382e-05
41 *4823:A *1009:121 4.7043e-05
42 *4823:B *1009:121 0.0001249
43 *4824:A *1009:121 0
44 *4831:A1 *4830:A 8.8266e-05
45 *4831:A1 *1009:121 4.82919e-05
46 *4831:B1 *4830:A 7.66083e-05
47 *4831:B1 *1009:121 4.82919e-05
48 *4833:A1 *1009:121 0.000387896
49 *4833:A2 *1009:121 0.000164352
50 *4834:A1 *1009:121 2.96466e-05
51 *4836:A1 *1009:121 0.000104108
52 *4836:B1 *4835:B 1.56428e-05
53 *4836:B1 *1009:121 2.76356e-05
54 *4891:D *1009:55 7.21296e-06
55 *4917:CLK *1009:100 0.000517558
56 *4939:A *1009:16 2.10791e-05
57 *4939:A *1009:42 0.000119866
58 *183:28 *4820:A1 0.000104218
59 *183:28 *1009:65 0.000148924
60 *759:10 *1009:121 4.7043e-05
61 *775:59 *4312:A 0
62 *775:59 *1009:16 0
63 *775:70 *1009:16 0
64 *775:70 *1009:42 0
65 *775:89 *1009:42 3.70486e-05
66 *776:21 *1009:55 0.00054457
67 *820:16 *1009:121 0
68 *836:29 *1009:42 0.000116089
69 *836:29 *1009:55 0.000212546
70 *839:81 *4312:A 5.16348e-05
71 *839:81 *1009:16 0.000262958
72 *839:93 *4337:S 0
73 *839:93 *1009:42 0.000983999
74 *839:93 *1009:55 0.0004713
75 *844:52 *1009:42 0.000735203
76 *844:52 *1009:55 0.00169349
77 *844:64 *1009:55 5.53249e-06
78 *844:64 *1009:65 1.54176e-05
79 *844:64 *1009:100 4.55864e-06
80 *1002:30 *4820:A1 4.85494e-05
81 *1002:46 *4820:A1 0.000188031
82 *1002:54 *1009:100 0.000107047
83 *1002:78 *1009:100 0.000285729
*RES
1 *4993:X *1009:6 3.6 
2 *1009:6 *1009:16 5.895 
3 *1009:16 *4312:A 4.215 
4 *1009:16 *4313:A1 6.045 
5 *1009:6 *1009:42 14.27 
6 *1009:42 *4337:S 1.96 
7 *1009:42 *1009:55 18.83 
8 *1009:55 *1009:65 19.45 
9 *1009:65 *1009:67 2 
10 *1009:67 *4410:A 1.6 
11 *1009:67 *1009:80 2.91 
12 *1009:80 *4411:A1 1.96 
13 *1009:80 *4820:A1 12.055 
14 *1009:65 *1009:100 10.715 
15 *1009:100 *4835:B 2.05 
16 *1009:100 *1009:121 21.655 
17 *1009:121 *4831:A2 1.6 
18 *1009:121 *4830:A 2.395 
19 *1009:55 *4371:A1 3.6 
*END

*D_NET *1010 0.0242399
*CONN
*I *4834:B1 I *D sky130_fd_sc_hd__o31a_1
*I *4370:A I *D sky130_fd_sc_hd__nand2_1
*I *4993:A I *D sky130_fd_sc_hd__buf_2
*I *4266:A1 I *D sky130_fd_sc_hd__a31o_1
*I *4268:A I *D sky130_fd_sc_hd__nand2_1
*I *4277:A I *D sky130_fd_sc_hd__nand2_1
*I *4278:A1 I *D sky130_fd_sc_hd__o211a_1
*I *4292:A I *D sky130_fd_sc_hd__nand2_1
*I *4293:A1 I *D sky130_fd_sc_hd__o211a_1
*I *4994:X O *D sky130_fd_sc_hd__buf_2
*CAP
1 *4834:B1 0.0017268
2 *4370:A 3.30774e-05
3 *4993:A 3.63992e-05
4 *4266:A1 0.000363845
5 *4268:A 2.23868e-05
6 *4277:A 1.11992e-05
7 *4278:A1 0
8 *4292:A 2.08101e-05
9 *4293:A1 0.000224504
10 *4994:X 0
11 *1010:131 0.00390812
12 *1010:114 0.00237476
13 *1010:80 0.00144925
14 *1010:61 0.00119141
15 *1010:52 0.000687851
16 *1010:24 0.000316874
17 *1010:22 0.00181536
18 *1010:4 0.00136326
19 *4161:A *1010:52 0
20 *4176:B *1010:22 0
21 *4178:A1 *1010:80 2.68721e-05
22 *4180:B2 *1010:80 0
23 *4184:A1 *1010:52 0
24 *4185:C1 *4293:A1 5.4003e-05
25 *4187:A2 *1010:22 9.16315e-05
26 *4189:B1 *1010:22 0
27 *4190:C1 *1010:131 0.000709012
28 *4196:B1 *1010:131 4.66108e-05
29 *4196:C1 *1010:131 0.000267241
30 *4197:B1 *1010:131 6.60261e-06
31 *4244:C1 *4834:B1 0.000214472
32 *4266:A2 *4266:A1 7.00889e-06
33 *4269:A *1010:80 1.03833e-05
34 *4269:B *4266:A1 0
35 *4269:B *1010:80 0
36 *4269:C *1010:80 7.23533e-05
37 *4273:A *1010:80 7.17811e-05
38 *4273:C *1010:80 0
39 *4274:A1 *1010:80 9.60582e-07
40 *4275:B *1010:80 2.75145e-05
41 *4276:A *1010:80 4.00693e-05
42 *4276:B *1010:80 2.55875e-05
43 *4277:B *4277:A 0
44 *4277:B *1010:80 0.000141532
45 *4278:A2 *1010:52 0.000140912
46 *4278:C1 *4277:A 9.53428e-06
47 *4278:C1 *1010:61 2.75145e-05
48 *4278:C1 *1010:80 1.91597e-05
49 *4288:A *1010:22 0
50 *4290:B1 *1010:80 6.52933e-05
51 *4291:A *1010:22 0.000141606
52 *4292:B *1010:22 0.000271303
53 *4292:B *1010:24 4.82863e-05
54 *4293:B1 *4293:A1 5.83121e-06
55 *4293:C1 *1010:52 4.7043e-05
56 *4310:A1 *1010:22 0
57 *4371:A2 *4834:B1 0.000178759
58 *4371:A2 *1010:131 6.47326e-05
59 *4371:C1 *4370:A 1.10085e-05
60 *4371:C1 *1010:131 8.57024e-05
61 *4411:A2 *4834:B1 0.000113797
62 *4411:C1 *4834:B1 8.57024e-05
63 *4820:A1 *4834:B1 0.000457974
64 *4833:A2 *4834:B1 5.02217e-05
65 *4833:B1 *4834:B1 0
66 *4848:CLK *1010:52 0
67 *4886:CLK *4266:A1 0.000160641
68 *4886:D *4266:A1 7.83293e-05
69 *4887:CLK *1010:52 0
70 *4887:D *1010:52 3.68682e-05
71 *4888:CLK *4293:A1 0.000118081
72 *4891:D *1010:131 1.83463e-05
73 *4975:A *1010:80 1.44259e-05
74 *169:26 *1010:22 0.000294673
75 *179:10 *1010:22 0
76 *180:12 *1010:22 0
77 *180:22 *1010:22 0.000223881
78 *181:44 *4266:A1 9.9976e-05
79 *181:44 *4268:A 2.11084e-05
80 *182:53 *1010:52 0.000544554
81 *182:68 *1010:52 0.000489586
82 *183:18 *1010:22 9.84114e-05
83 *183:18 *1010:114 0.000141632
84 *183:18 *1010:131 0.00068833
85 *183:28 *4834:B1 0.000121226
86 *241:8 *1010:80 1.17409e-05
87 *255:10 *1010:80 0.000161467
88 *764:12 *4834:B1 2.34423e-05
89 *775:59 *1010:22 0
90 *819:23 *1010:52 0
91 *825:25 *4834:B1 0.00015703
92 *839:40 *1010:52 0
93 *839:49 *4293:A1 0.000143266
94 *841:18 *1010:61 0.000123225
95 *841:18 *1010:80 0.000305031
96 *843:16 *1010:22 0
97 *843:16 *1010:114 3.45117e-05
98 *843:42 *1010:22 0.000382024
99 *843:50 *4293:A1 8.59365e-05
100 *955:10 *1010:22 5.72004e-05
101 *972:51 *1010:52 0
102 *972:116 *1010:131 2.4477e-05
103 *974:14 *1010:22 0
104 *989:19 *1010:80 5.02217e-05
105 *989:23 *1010:80 0
106 *1001:44 *1010:22 2.54692e-05
107 *1002:46 *4834:B1 0
108 *1004:43 *1010:80 0
109 *1005:17 *4266:A1 0.00018305
110 *1007:74 *1010:80 0
111 *1009:80 *4834:B1 0.000137828
*RES
1 *4994:X *1010:4 1.6 
2 *1010:4 *1010:22 28.255 
3 *1010:22 *1010:24 1.14 
4 *1010:24 *4293:A1 9.86 
5 *1010:24 *4292:A 1.96 
6 *1010:22 *1010:52 17.875 
7 *1010:52 *4278:A1 1.6 
8 *1010:52 *1010:61 2.19 
9 *1010:61 *4277:A 1.96 
10 *1010:61 *1010:80 21.46 
11 *1010:80 *4268:A 2.05 
12 *1010:80 *4266:A1 12.815 
13 *1010:4 *1010:114 6.7 
14 *1010:114 *4993:A 2.215 
15 *1010:114 *1010:131 30.015 
16 *1010:131 *4370:A 2.215 
17 *1010:131 *4834:B1 32.3 
*END

*D_NET *1011 0.00909308
*CONN
*I *4725:A1 I *D sky130_fd_sc_hd__o221a_1
*I *4724:B1 I *D sky130_fd_sc_hd__o31ai_1
*I *4712:B1 I *D sky130_fd_sc_hd__o21ai_1
*I *4713:A1 I *D sky130_fd_sc_hd__o211a_1
*I *4684:A I *D sky130_fd_sc_hd__nand2_1
*I *4685:A1 I *D sky130_fd_sc_hd__o211a_1
*I *4656:A1 I *D sky130_fd_sc_hd__o211a_1
*I *4655:A I *D sky130_fd_sc_hd__nand2_1
*I *4621:A1 I *D sky130_fd_sc_hd__o211a_1
*I *4620:B1 I *D sky130_fd_sc_hd__o21ai_1
*I *4995:X O *D sky130_fd_sc_hd__buf_2
*CAP
1 *4725:A1 0.000230457
2 *4724:B1 0
3 *4712:B1 0
4 *4713:A1 0.000166381
5 *4684:A 7.95331e-05
6 *4685:A1 0
7 *4656:A1 2.64216e-05
8 *4655:A 0.000147046
9 *4621:A1 0
10 *4620:B1 0.000157073
11 *4995:X 0.000104695
12 *1011:116 0.000381878
13 *1011:54 0.000673171
14 *1011:44 0.000629148
15 *1011:42 0.00060757
16 *1011:40 0.000702839
17 *1011:38 0.00023968
18 *1011:36 0.00133942
19 *1011:21 0.00115652
20 *1011:8 0.000332104
21 *4621:C1 *1011:21 0
22 *4656:B1 *4655:A 1.94805e-05
23 *4656:B1 *1011:54 0
24 *4685:C1 *1011:44 0
25 *4685:C1 *1011:54 0
26 *4710:B1 *1011:36 0.000238137
27 *4710:B1 *1011:38 0
28 *4710:B1 *1011:40 0
29 *4711:A *1011:36 4.66108e-05
30 *4713:A2 *4713:A1 3.95724e-05
31 *4713:C1 *1011:40 4.19967e-05
32 *4713:C1 *1011:42 2.97004e-06
33 *4723:A1 *4725:A1 4.82919e-05
34 *4723:B1 *4725:A1 0.00015494
35 *4724:A3 *4725:A1 0
36 *4725:B1 *4725:A1 0.000136877
37 *4725:B2 *1011:116 9.50342e-06
38 *4728:A *1011:36 0.000227055
39 *4897:CLK *4620:B1 5.16348e-05
40 *4897:CLK *1011:21 0.000116165
41 *4897:CLK *1011:36 0.000162325
42 *4898:CLK *4656:A1 0
43 *4898:CLK *1011:54 0
44 *4901:CLK *4725:A1 0
45 *4995:A *4620:B1 0
46 *4995:A *1011:36 0
47 *181:60 *4725:A1 0
48 *573:10 *4620:B1 0
49 *574:25 *4620:B1 0.00016569
50 *574:25 *1011:8 0.000163199
51 *663:21 *1011:38 0
52 *663:21 *1011:116 0
53 *671:14 *4620:B1 0
54 *778:25 *4725:A1 8.09021e-06
55 *778:27 *4725:A1 1.0183e-05
56 *778:27 *1011:38 0
57 *778:27 *1011:40 0
58 *778:27 *1011:116 0
59 *778:29 *1011:40 0
60 *778:29 *1011:42 0
61 *778:31 *1011:42 0
62 *778:31 *1011:44 0
63 *778:31 *1011:54 0
64 *778:33 *1011:54 0
65 *778:161 *4725:A1 8.73359e-05
66 *800:14 *4655:A 1.61831e-05
67 *800:14 *4656:A1 1.90686e-05
68 *800:14 *1011:54 6.43251e-05
69 *800:27 *4655:A 0.000160641
70 *800:27 *4656:A1 3.26889e-05
71 *802:26 *1011:40 0
72 *849:43 *4713:A1 9.61838e-05
*RES
1 *4995:X *1011:8 5.085 
2 *1011:8 *4620:B1 6.99 
3 *1011:8 *1011:21 1.38 
4 *1011:21 *4621:A1 3.6 
5 *1011:21 *1011:36 21.175 
6 *1011:36 *1011:38 1.635 
7 *1011:38 *1011:40 2.145 
8 *1011:40 *1011:42 6.48 
9 *1011:42 *1011:44 1.89 
10 *1011:44 *1011:54 9.665 
11 *1011:54 *4655:A 8.045 
12 *1011:54 *4656:A1 2.215 
13 *1011:44 *4685:A1 3.6 
14 *1011:42 *4684:A 4.74 
15 *1011:40 *4713:A1 6.945 
16 *1011:38 *4712:B1 3.6 
17 *1011:36 *1011:116 4.4 
18 *1011:116 *4724:B1 1.6 
19 *1011:116 *4725:A1 10.73 
*END

*D_NET *1012 0.00764984
*CONN
*I *4732:B1_N I *D sky130_fd_sc_hd__a21bo_1
*I *4733:A1 I *D sky130_fd_sc_hd__o211a_1
*I *4588:A1 I *D sky130_fd_sc_hd__o211a_1
*I *4587:A I *D sky130_fd_sc_hd__nand2_1
*I *4545:A1 I *D sky130_fd_sc_hd__o211a_1
*I *4996:X O *D sky130_fd_sc_hd__dlymetal6s2s_1
*CAP
1 *4732:B1_N 4.16416e-05
2 *4733:A1 9.98731e-05
3 *4588:A1 0.00016383
4 *4587:A 0
5 *4545:A1 6.00758e-05
6 *4996:X 0
7 *1012:51 0.00130164
8 *1012:23 0.000561961
9 *1012:15 0.00166698
10 *1012:4 0.000168797
11 *4203:A *1012:51 0.000227697
12 *4203:B *1012:51 3.45213e-05
13 *4204:B2 *4732:B1_N 4.82863e-05
14 *4204:B2 *1012:51 0.00141184
15 *4587:B *1012:23 4.99619e-05
16 *4588:B1 *4732:B1_N 4.9968e-05
17 *4588:B1 *4733:A1 0.000137571
18 *4588:C1 *4588:A1 0
19 *4588:C1 *1012:23 1.61831e-05
20 *4732:A1 *4732:B1_N 4.82863e-05
21 *4895:D *1012:15 0
22 *4895:D *1012:51 0.000394213
23 *4902:D *4733:A1 4.66742e-05
24 *4995:A *4588:A1 0
25 *5030:A *1012:15 5.64226e-05
26 *5030:A *1012:23 3.05238e-05
27 *542:10 *4588:A1 0
28 *542:10 *1012:23 0
29 *662:20 *4733:A1 0
30 *772:118 *4588:A1 1.34503e-05
31 *772:118 *1012:23 7.35813e-05
32 *804:22 *4733:A1 8.23457e-05
33 *828:12 *1012:23 7.70938e-05
34 *828:30 *1012:51 4.80182e-05
35 *836:65 *4545:A1 0.000393024
36 *838:118 *1012:51 0.000110607
37 *966:100 *4545:A1 0.000234777
*RES
1 *4996:X *1012:4 1.6 
2 *1012:4 *4545:A1 5.155 
3 *1012:4 *1012:15 3.89 
4 *1012:15 *1012:23 9.725 
5 *1012:23 *4587:A 1.6 
6 *1012:23 *4588:A1 7.94 
7 *1012:15 *1012:51 24.055 
8 *1012:51 *4733:A1 6.03 
9 *1012:51 *4732:B1_N 4.665 
*END
