*SPEF "ieee 1481-1999"
*DESIGN "top"
*DATE "01:12:42 Friday May 22, 2026"
*VENDOR "The OpenROAD Project"
*PROGRAM "OpenROAD"
*VERSION "edf00dff99f6c40d67a30c0e22a8191c5d2ed9d6"
*DESIGN_FLOW "NAME_SCOPE LOCAL" "PIN_CAP NONE"
*DIVIDER /
*DELIMITER :
*BUS_DELIMITER []
*T_UNIT 1 NS
*C_UNIT 1 PF
*R_UNIT 1 OHM
*L_UNIT 1 HENRY

*NAME_MAP
*3 addr[0]
*4 addr[1]
*5 addr[2]
*6 addr[3]
*7 addr[4]
*8 addr[5]
*9 addr[6]
*10 addr[7]
*11 clk
*12 rdata[0]
*13 rdata[10]
*14 rdata[11]
*15 rdata[12]
*16 rdata[13]
*17 rdata[14]
*18 rdata[15]
*19 rdata[16]
*20 rdata[17]
*21 rdata[18]
*22 rdata[19]
*23 rdata[1]
*24 rdata[20]
*25 rdata[21]
*26 rdata[22]
*27 rdata[23]
*28 rdata[24]
*29 rdata[25]
*30 rdata[26]
*31 rdata[27]
*32 rdata[28]
*33 rdata[29]
*34 rdata[2]
*35 rdata[30]
*36 rdata[31]
*37 rdata[3]
*38 rdata[4]
*39 rdata[5]
*40 rdata[6]
*41 rdata[7]
*42 rdata[8]
*43 rdata[9]
*44 net117
*45 rst
*46 valid
*47 wdata[0]
*48 wdata[10]
*49 wdata[11]
*50 wdata[12]
*51 wdata[13]
*52 wdata[14]
*53 wdata[15]
*54 wdata[16]
*55 wdata[17]
*56 wdata[18]
*57 wdata[19]
*58 wdata[1]
*59 wdata[20]
*60 wdata[21]
*61 wdata[22]
*62 wdata[23]
*63 wdata[24]
*64 wdata[25]
*65 wdata[26]
*66 wdata[27]
*67 wdata[28]
*68 wdata[29]
*69 wdata[2]
*70 wdata[30]
*71 wdata[31]
*72 wdata[3]
*73 wdata[4]
*74 wdata[5]
*75 wdata[6]
*76 wdata[7]
*77 wdata[8]
*78 wdata[9]
*79 write
*80 _0000_
*81 _0001_
*82 _0002_
*83 _0003_
*84 _0004_
*85 _0005_
*86 _0006_
*87 _0007_
*88 _0008_
*89 _0009_
*90 _0010_
*91 _0011_
*92 _0012_
*93 _0013_
*94 _0014_
*95 _0015_
*96 _0016_
*97 _0017_
*98 _0018_
*99 _0019_
*100 _0020_
*101 _0021_
*102 _0022_
*103 _0023_
*104 _0024_
*105 _0025_
*106 _0026_
*107 _0027_
*108 _0028_
*109 _0029_
*110 _0030_
*111 _0031_
*112 _0032_
*113 _0033_
*114 _0034_
*115 _0035_
*116 _0036_
*117 _0037_
*118 _0038_
*119 _0039_
*120 _0040_
*121 _0041_
*122 _0042_
*123 _0043_
*124 _0044_
*125 _0045_
*126 _0046_
*127 _0047_
*128 _0048_
*129 _0049_
*130 _0050_
*131 _0051_
*132 _0052_
*133 _0053_
*134 _0054_
*135 _0055_
*136 _0056_
*137 _0057_
*138 _0058_
*139 _0059_
*140 _0060_
*141 _0061_
*142 _0062_
*143 _0063_
*144 _0064_
*145 _0065_
*146 _0066_
*147 _0067_
*148 _0068_
*149 _0069_
*150 _0070_
*151 _0071_
*152 _0072_
*153 _0073_
*154 _0074_
*155 _0075_
*156 _0076_
*157 _0077_
*158 _0078_
*159 _0079_
*160 _0080_
*161 _0081_
*162 _0082_
*163 _0083_
*164 _0084_
*165 _0085_
*166 _0086_
*167 _0087_
*168 _0088_
*169 _0089_
*170 _0090_
*171 _0091_
*172 _0092_
*173 _0093_
*174 _0094_
*175 _0095_
*176 _0096_
*177 _0097_
*178 _0098_
*179 _0099_
*180 _0100_
*181 _0101_
*182 _0102_
*183 _0103_
*184 _0104_
*185 _0105_
*186 _0106_
*187 _0107_
*188 _0108_
*189 _0109_
*190 _0110_
*191 _0111_
*192 _0112_
*193 _0113_
*194 _0114_
*195 _0115_
*196 _0116_
*197 _0117_
*198 _0118_
*199 _0119_
*200 _0120_
*201 _0121_
*202 _0122_
*203 _0123_
*204 _0124_
*205 _0125_
*206 _0126_
*207 _0127_
*208 _0128_
*209 _0129_
*210 _0130_
*211 _0131_
*212 _0132_
*213 _0133_
*214 _0134_
*215 _0135_
*216 _0136_
*217 _0137_
*218 _0138_
*219 _0139_
*220 _0140_
*221 _0141_
*222 _0142_
*223 _0143_
*224 _0144_
*225 _0145_
*226 _0146_
*227 _0147_
*228 _0148_
*229 _0149_
*230 _0150_
*231 _0151_
*232 _0152_
*233 _0153_
*234 _0154_
*235 _0155_
*236 _0156_
*237 _0157_
*238 _0158_
*239 _0159_
*240 _0160_
*241 _0161_
*242 _0162_
*243 _0163_
*244 _0164_
*245 _0165_
*246 _0166_
*247 _0167_
*248 _0168_
*249 _0169_
*250 _0170_
*251 _0171_
*252 _0172_
*253 _0173_
*254 _0174_
*255 _0175_
*256 _0176_
*257 _0177_
*258 _0178_
*259 _0179_
*260 _0180_
*261 _0181_
*262 _0182_
*263 _0183_
*264 _0184_
*265 _0185_
*266 _0186_
*267 _0187_
*268 _0188_
*269 _0189_
*270 _0190_
*271 _0191_
*272 _0192_
*273 _0193_
*274 _0194_
*275 _0195_
*276 _0196_
*277 _0197_
*278 _0198_
*279 _0199_
*280 _0200_
*281 _0201_
*282 _0202_
*283 _0203_
*284 _0204_
*285 _0205_
*286 _0206_
*287 _0207_
*288 _0208_
*289 _0209_
*290 _0210_
*291 _0211_
*292 _0212_
*293 _0213_
*294 _0214_
*295 _0215_
*296 _0216_
*297 _0217_
*298 _0218_
*299 _0219_
*300 _0220_
*301 _0221_
*302 _0222_
*303 _0223_
*304 _0224_
*305 _0225_
*306 _0226_
*307 _0227_
*308 _0228_
*309 _0229_
*310 _0230_
*311 _0231_
*312 _0232_
*313 _0233_
*314 _0234_
*315 _0235_
*316 _0236_
*317 _0237_
*318 _0238_
*319 _0239_
*320 _0240_
*321 _0241_
*322 _0242_
*323 _0243_
*324 _0244_
*325 _0245_
*326 _0246_
*327 _0247_
*328 _0248_
*329 _0249_
*330 _0250_
*331 _0251_
*332 _0252_
*333 _0253_
*334 _0254_
*335 _0255_
*336 _0256_
*337 _0257_
*338 _0258_
*339 _0259_
*340 _0260_
*341 _0261_
*342 _0262_
*343 _0263_
*344 _0264_
*345 _0265_
*346 _0266_
*347 _0267_
*348 _0268_
*349 _0269_
*350 _0270_
*351 _0271_
*352 _0272_
*353 _0273_
*354 _0274_
*355 _0275_
*356 _0276_
*357 _0277_
*358 _0278_
*359 _0279_
*360 _0280_
*361 _0281_
*362 _0282_
*363 _0283_
*364 _0284_
*365 _0285_
*366 _0286_
*367 _0287_
*368 _0288_
*369 _0289_
*370 _0290_
*371 _0291_
*372 _0292_
*373 _0293_
*374 _0294_
*375 _0295_
*376 _0296_
*377 _0297_
*378 _0298_
*379 _0299_
*380 _0300_
*381 _0301_
*382 _0302_
*383 _0303_
*384 _0304_
*385 _0305_
*386 _0306_
*387 _0307_
*388 _0308_
*389 _0309_
*390 _0310_
*391 _0311_
*392 _0312_
*393 _0313_
*394 _0314_
*395 _0315_
*396 _0316_
*397 _0317_
*398 _0318_
*399 _0319_
*400 _0320_
*401 _0321_
*402 _0322_
*403 _0323_
*404 _0324_
*405 _0325_
*406 _0326_
*407 _0327_
*408 _0328_
*409 _0329_
*410 _0330_
*411 _0331_
*412 _0332_
*413 _0333_
*414 _0334_
*415 _0335_
*416 _0336_
*417 _0337_
*418 _0338_
*419 _0339_
*420 _0340_
*421 _0341_
*422 _0342_
*423 _0343_
*424 _0344_
*425 _0345_
*426 _0346_
*427 _0347_
*428 _0348_
*429 _0349_
*430 _0350_
*431 _0351_
*432 _0352_
*433 _0353_
*434 _0354_
*435 _0355_
*436 _0356_
*437 _0357_
*438 _0358_
*439 _0359_
*440 _0360_
*441 _0361_
*442 _0362_
*443 _0363_
*444 _0364_
*445 _0365_
*446 _0366_
*447 _0367_
*448 _0368_
*449 _0369_
*450 _0370_
*451 _0371_
*452 _0372_
*453 _0373_
*454 _0374_
*455 _0375_
*456 _0376_
*457 _0377_
*458 _0378_
*459 _0379_
*460 _0380_
*461 _0381_
*462 _0382_
*463 _0383_
*464 _0384_
*465 _0385_
*466 _0386_
*467 _0387_
*468 _0388_
*469 _0389_
*470 _0390_
*471 _0391_
*472 _0392_
*473 _0393_
*474 _0394_
*475 _0395_
*476 _0396_
*477 _0397_
*478 _0398_
*479 _0399_
*480 _0400_
*481 _0401_
*482 _0402_
*483 _0403_
*484 _0404_
*485 _0405_
*486 _0406_
*487 _0407_
*488 _0408_
*489 _0409_
*490 _0410_
*491 _0411_
*492 _0412_
*493 _0413_
*494 _0414_
*495 _0415_
*496 _0416_
*497 _0417_
*498 _0418_
*499 _0419_
*500 _0420_
*501 _0421_
*502 _0422_
*503 _0423_
*504 _0424_
*505 _0425_
*506 _0426_
*507 _0427_
*508 _0428_
*509 _0429_
*510 _0430_
*511 _0431_
*512 _0432_
*513 _0433_
*514 _0434_
*515 _0435_
*516 _0436_
*517 _0437_
*518 _0438_
*519 _0439_
*520 _0440_
*521 _0441_
*522 _0442_
*523 _0443_
*524 _0444_
*525 _0445_
*526 _0446_
*527 _0447_
*528 _0448_
*529 _0449_
*530 _0450_
*531 _0451_
*532 _0452_
*533 _0453_
*534 _0454_
*535 _0455_
*536 _0456_
*537 _0457_
*538 _0458_
*539 _0459_
*540 _0460_
*541 _0461_
*542 _0462_
*543 _0463_
*544 _0464_
*545 _0465_
*546 _0466_
*547 _0467_
*548 _0468_
*549 _0469_
*550 _0470_
*551 _0471_
*552 _0472_
*553 _0473_
*554 _0474_
*555 _0475_
*556 _0476_
*557 _0477_
*558 _0478_
*559 _0479_
*560 _0480_
*561 _0481_
*562 _0482_
*563 _0483_
*564 _0484_
*565 _0485_
*566 _0486_
*567 _0487_
*568 _0488_
*569 _0489_
*570 _0490_
*571 _0491_
*572 _0492_
*573 _0493_
*574 _0494_
*575 _0495_
*576 _0496_
*577 _0497_
*578 _0498_
*579 _0499_
*580 _0500_
*581 _0501_
*582 _0502_
*583 _0503_
*584 _0504_
*585 _0505_
*586 _0506_
*587 _0507_
*588 _0508_
*589 _0509_
*590 _0510_
*591 _0511_
*592 _0512_
*593 _0513_
*594 _0514_
*595 _0515_
*596 _0516_
*597 _0517_
*598 _0518_
*599 _0519_
*600 _0520_
*601 _0521_
*602 _0522_
*603 _0523_
*604 _0524_
*605 _0525_
*606 _0526_
*607 _0527_
*608 _0528_
*609 _0529_
*610 _0530_
*611 _0531_
*612 _0532_
*613 _0533_
*614 _0534_
*615 _0535_
*616 _0536_
*617 _0537_
*618 _0538_
*619 _0539_
*620 _0540_
*621 _0541_
*622 _0542_
*623 _0543_
*624 _0544_
*625 _0545_
*626 _0546_
*627 _0547_
*628 _0548_
*629 _0549_
*630 _0550_
*631 _0551_
*632 _0552_
*633 _0553_
*634 _0554_
*635 _0555_
*636 _0556_
*637 _0557_
*638 _0558_
*639 _0559_
*640 _0560_
*641 _0561_
*642 _0562_
*643 _0563_
*644 _0564_
*645 _0565_
*646 _0566_
*647 _0567_
*648 _0568_
*649 _0569_
*650 _0570_
*651 _0571_
*652 _0572_
*653 _0573_
*654 _0574_
*655 _0575_
*656 _0576_
*657 _0577_
*658 _0578_
*659 _0579_
*660 _0580_
*661 _0581_
*662 _0582_
*663 _0583_
*664 _0584_
*665 _0585_
*666 _0586_
*667 _0587_
*668 _0588_
*669 _0589_
*670 _0590_
*671 _0591_
*672 _0592_
*673 _0593_
*674 _0594_
*675 _0595_
*676 _0596_
*677 _0597_
*678 _0598_
*679 _0599_
*680 _0600_
*681 _0601_
*682 _0602_
*683 _0603_
*684 _0604_
*685 _0605_
*686 _0606_
*687 _0607_
*688 _0608_
*689 _0609_
*690 _0610_
*691 _0611_
*692 _0612_
*693 _0613_
*694 _0614_
*695 _0615_
*696 _0616_
*697 _0617_
*698 _0618_
*699 _0619_
*700 _0620_
*701 _0621_
*702 _0622_
*703 _0623_
*704 _0624_
*705 _0625_
*706 _0626_
*707 _0627_
*708 _0628_
*709 _0629_
*710 _0630_
*711 _0631_
*712 _0632_
*713 _0633_
*714 _0634_
*715 _0635_
*716 _0636_
*717 _0637_
*718 _0638_
*719 _0639_
*720 _0640_
*721 _0641_
*722 _0642_
*723 _0643_
*724 _0644_
*725 _0645_
*726 _0646_
*727 _0647_
*728 _0648_
*729 _0649_
*730 _0650_
*731 _0651_
*732 _0652_
*733 _0653_
*734 _0654_
*735 _0655_
*736 _0656_
*737 _0657_
*738 _0658_
*739 _0659_
*740 _0660_
*741 _0661_
*742 _0662_
*743 _0663_
*744 _0664_
*745 _0665_
*746 _0666_
*747 _0667_
*748 _0668_
*749 _0669_
*750 _0670_
*751 _0671_
*752 _0672_
*753 _0673_
*754 _0674_
*755 _0675_
*756 _0676_
*757 _0677_
*758 _0678_
*759 _0679_
*760 _0680_
*761 _0681_
*762 _0682_
*763 _0683_
*764 _0684_
*765 _0685_
*766 _0686_
*767 _0687_
*768 _0688_
*769 _0689_
*770 _0690_
*771 _0691_
*772 clknet_0_clk
*773 clknet_3_0__leaf_clk
*774 clknet_3_1__leaf_clk
*775 clknet_3_2__leaf_clk
*776 clknet_3_3__leaf_clk
*777 clknet_3_4__leaf_clk
*778 clknet_3_5__leaf_clk
*779 clknet_3_6__leaf_clk
*780 clknet_3_7__leaf_clk
*781 core_a\[0\]
*782 core_a\[1\]
*783 core_a\[2\]
*784 core_a\[3\]
*785 core_a\[4\]
*786 core_a\[5\]
*787 core_a\[6\]
*788 core_a\[7\]
*789 core_b\[0\]
*790 core_b\[1\]
*791 core_b\[2\]
*792 core_b\[3\]
*793 core_b\[4\]
*794 core_b\[5\]
*795 core_b\[6\]
*796 core_b\[7\]
*797 core_out\[0\]
*798 core_out\[10\]
*799 core_out\[11\]
*800 core_out\[12\]
*801 core_out\[13\]
*802 core_out\[14\]
*803 core_out\[15\]
*804 core_out\[16\]
*805 core_out\[17\]
*806 core_out\[18\]
*807 core_out\[19\]
*808 core_out\[1\]
*809 core_out\[20\]
*810 core_out\[21\]
*811 core_out\[22\]
*812 core_out\[23\]
*813 core_out\[24\]
*814 core_out\[25\]
*815 core_out\[26\]
*816 core_out\[27\]
*817 core_out\[28\]
*818 core_out\[29\]
*819 core_out\[2\]
*820 core_out\[30\]
*821 core_out\[31\]
*822 core_out\[3\]
*823 core_out\[4\]
*824 core_out\[5\]
*825 core_out\[6\]
*826 core_out\[7\]
*827 core_out\[8\]
*828 core_out\[9\]
*829 core_valid
*830 net1
*831 net10
*832 net100
*833 net101
*834 net102
*835 net103
*836 net104
*837 net105
*838 net106
*839 net107
*840 net108
*841 net109
*842 net11
*843 net110
*844 net111
*845 net112
*846 net113
*847 net114
*848 net115
*849 net116
*850 net118
*851 net119
*852 net12
*853 net120
*854 net121
*855 net122
*856 net123
*857 net124
*858 net125
*859 net126
*860 net127
*861 net128
*862 net129
*863 net13
*864 net130
*865 net131
*866 net132
*867 net134
*868 net135
*869 net136
*870 net137
*871 net138
*872 net139
*873 net14
*874 net140
*875 net141
*876 net142
*877 net143
*878 net144
*879 net145
*880 net146
*881 net147
*882 net148
*883 net149
*884 net15
*885 net150
*886 net151
*887 net152
*888 net153
*889 net154
*890 net155
*891 net156
*892 net157
*893 net158
*894 net159
*895 net16
*896 net160
*897 net161
*898 net162
*899 net163
*900 net164
*901 net165
*902 net166
*903 net167
*904 net168
*905 net169
*906 net17
*907 net170
*908 net171
*909 net172
*910 net173
*911 net174
*912 net175
*913 net176
*914 net177
*915 net178
*916 net179
*917 net18
*918 net180
*919 net181
*920 net182
*921 net183
*922 net184
*923 net185
*924 net19
*925 net2
*926 net20
*927 net21
*928 net22
*929 net23
*930 net24
*931 net25
*932 net26
*933 net27
*934 net28
*935 net29
*936 net3
*937 net30
*938 net31
*939 net32
*940 net33
*941 net34
*942 net35
*943 net36
*944 net37
*945 net38
*946 net39
*947 net4
*948 net40
*949 net41
*950 net42
*951 net43
*952 net44
*953 net45
*954 net46
*955 net47
*956 net48
*957 net49
*958 net5
*959 net50
*960 net51
*961 net52
*962 net53
*963 net54
*964 net55
*965 net56
*966 net57
*967 net58
*968 net59
*969 net6
*970 net60
*971 net61
*972 net62
*973 net63
*974 net64
*975 net65
*976 net66
*977 net67
*978 net68
*979 net69
*980 net7
*981 net70
*982 net71
*983 net72
*984 net73
*985 net74
*986 net75
*987 net76
*988 net77
*989 net78
*990 net79
*991 net8
*992 net80
*993 net81
*994 net82
*995 net83
*996 net84
*997 net85
*998 net86
*999 net87
*1000 net88
*1001 net89
*1002 net9
*1003 net90
*1004 net91
*1005 net92
*1006 net93
*1007 net94
*1008 net95
*1009 net96
*1010 net97
*1011 net98
*1012 net99
*1013 ANTENNA_1
*1014 FILLER_0_104
*1015 FILLER_0_113
*1016 FILLER_0_125
*1017 FILLER_0_137
*1018 FILLER_0_141
*1019 FILLER_0_15
*1020 FILLER_0_153
*1021 FILLER_0_165
*1022 FILLER_0_169
*1023 FILLER_0_181
*1024 FILLER_0_193
*1025 FILLER_0_197
*1026 FILLER_0_209
*1027 FILLER_0_221
*1028 FILLER_0_225
*1029 FILLER_0_237
*1030 FILLER_0_249
*1031 FILLER_0_253
*1032 FILLER_0_265
*1033 FILLER_0_27
*1034 FILLER_0_277
*1035 FILLER_0_281
*1036 FILLER_0_29
*1037 FILLER_0_293
*1038 FILLER_0_3
*1039 FILLER_0_305
*1040 FILLER_0_309
*1041 FILLER_0_321
*1042 FILLER_0_333
*1043 FILLER_0_337
*1044 FILLER_0_349
*1045 FILLER_0_361
*1046 FILLER_0_365
*1047 FILLER_0_377
*1048 FILLER_0_389
*1049 FILLER_0_393
*1050 FILLER_0_405
*1051 FILLER_0_41
*1052 FILLER_0_53
*1053 FILLER_0_57
*1054 FILLER_0_69
*1055 FILLER_0_81
*1056 FILLER_0_85
*1057 FILLER_0_90
*1058 FILLER_0_98
*1059 FILLER_10_109
*1060 FILLER_10_121
*1061 FILLER_10_133
*1062 FILLER_10_139
*1063 FILLER_10_141
*1064 FILLER_10_15
*1065 FILLER_10_153
*1066 FILLER_10_164
*1067 FILLER_10_176
*1068 FILLER_10_188
*1069 FILLER_10_197
*1070 FILLER_10_209
*1071 FILLER_10_221
*1072 FILLER_10_233
*1073 FILLER_10_245
*1074 FILLER_10_251
*1075 FILLER_10_253
*1076 FILLER_10_265
*1077 FILLER_10_27
*1078 FILLER_10_277
*1079 FILLER_10_289
*1080 FILLER_10_29
*1081 FILLER_10_3
*1082 FILLER_10_301
*1083 FILLER_10_307
*1084 FILLER_10_309
*1085 FILLER_10_321
*1086 FILLER_10_33
*1087 FILLER_10_333
*1088 FILLER_10_345
*1089 FILLER_10_357
*1090 FILLER_10_363
*1091 FILLER_10_365
*1092 FILLER_10_377
*1093 FILLER_10_389
*1094 FILLER_10_401
*1095 FILLER_10_43
*1096 FILLER_10_55
*1097 FILLER_10_67
*1098 FILLER_10_79
*1099 FILLER_10_83
*1100 FILLER_10_85
*1101 FILLER_10_97
*1102 FILLER_11_106
*1103 FILLER_11_113
*1104 FILLER_11_119
*1105 FILLER_11_126
*1106 FILLER_11_138
*1107 FILLER_11_149
*1108 FILLER_11_163
*1109 FILLER_11_169
*1110 FILLER_11_18
*1111 FILLER_11_185
*1112 FILLER_11_197
*1113 FILLER_11_214
*1114 FILLER_11_222
*1115 FILLER_11_225
*1116 FILLER_11_237
*1117 FILLER_11_24
*1118 FILLER_11_241
*1119 FILLER_11_251
*1120 FILLER_11_263
*1121 FILLER_11_275
*1122 FILLER_11_279
*1123 FILLER_11_281
*1124 FILLER_11_293
*1125 FILLER_11_305
*1126 FILLER_11_317
*1127 FILLER_11_329
*1128 FILLER_11_335
*1129 FILLER_11_337
*1130 FILLER_11_349
*1131 FILLER_11_361
*1132 FILLER_11_373
*1133 FILLER_11_385
*1134 FILLER_11_391
*1135 FILLER_11_393
*1136 FILLER_11_405
*1137 FILLER_11_47
*1138 FILLER_11_55
*1139 FILLER_11_57
*1140 FILLER_11_6
*1141 FILLER_11_69
*1142 FILLER_11_75
*1143 FILLER_11_91
*1144 FILLER_12_111
*1145 FILLER_12_133
*1146 FILLER_12_141
*1147 FILLER_12_149
*1148 FILLER_12_15
*1149 FILLER_12_161
*1150 FILLER_12_173
*1151 FILLER_12_177
*1152 FILLER_12_192
*1153 FILLER_12_197
*1154 FILLER_12_212
*1155 FILLER_12_229
*1156 FILLER_12_240
*1157 FILLER_12_248
*1158 FILLER_12_253
*1159 FILLER_12_27
*1160 FILLER_12_273
*1161 FILLER_12_285
*1162 FILLER_12_29
*1163 FILLER_12_297
*1164 FILLER_12_3
*1165 FILLER_12_305
*1166 FILLER_12_309
*1167 FILLER_12_321
*1168 FILLER_12_333
*1169 FILLER_12_345
*1170 FILLER_12_357
*1171 FILLER_12_363
*1172 FILLER_12_365
*1173 FILLER_12_377
*1174 FILLER_12_389
*1175 FILLER_12_401
*1176 FILLER_12_42
*1177 FILLER_12_54
*1178 FILLER_12_66
*1179 FILLER_12_85
*1180 FILLER_12_89
*1181 FILLER_13_103
*1182 FILLER_13_111
*1183 FILLER_13_113
*1184 FILLER_13_121
*1185 FILLER_13_128
*1186 FILLER_13_140
*1187 FILLER_13_15
*1188 FILLER_13_152
*1189 FILLER_13_162
*1190 FILLER_13_169
*1191 FILLER_13_181
*1192 FILLER_13_193
*1193 FILLER_13_205
*1194 FILLER_13_217
*1195 FILLER_13_223
*1196 FILLER_13_232
*1197 FILLER_13_243
*1198 FILLER_13_255
*1199 FILLER_13_267
*1200 FILLER_13_27
*1201 FILLER_13_279
*1202 FILLER_13_281
*1203 FILLER_13_293
*1204 FILLER_13_3
*1205 FILLER_13_305
*1206 FILLER_13_317
*1207 FILLER_13_329
*1208 FILLER_13_335
*1209 FILLER_13_337
*1210 FILLER_13_349
*1211 FILLER_13_361
*1212 FILLER_13_373
*1213 FILLER_13_385
*1214 FILLER_13_39
*1215 FILLER_13_391
*1216 FILLER_13_393
*1217 FILLER_13_405
*1218 FILLER_13_51
*1219 FILLER_13_55
*1220 FILLER_13_66
*1221 FILLER_13_78
*1222 FILLER_13_90
*1223 FILLER_13_96
*1224 FILLER_14_109
*1225 FILLER_14_121
*1226 FILLER_14_133
*1227 FILLER_14_139
*1228 FILLER_14_141
*1229 FILLER_14_15
*1230 FILLER_14_153
*1231 FILLER_14_164
*1232 FILLER_14_169
*1233 FILLER_14_181
*1234 FILLER_14_193
*1235 FILLER_14_197
*1236 FILLER_14_209
*1237 FILLER_14_221
*1238 FILLER_14_233
*1239 FILLER_14_245
*1240 FILLER_14_251
*1241 FILLER_14_253
*1242 FILLER_14_265
*1243 FILLER_14_27
*1244 FILLER_14_277
*1245 FILLER_14_289
*1246 FILLER_14_29
*1247 FILLER_14_3
*1248 FILLER_14_301
*1249 FILLER_14_307
*1250 FILLER_14_309
*1251 FILLER_14_321
*1252 FILLER_14_333
*1253 FILLER_14_345
*1254 FILLER_14_357
*1255 FILLER_14_363
*1256 FILLER_14_365
*1257 FILLER_14_377
*1258 FILLER_14_389
*1259 FILLER_14_401
*1260 FILLER_14_41
*1261 FILLER_14_47
*1262 FILLER_14_69
*1263 FILLER_14_81
*1264 FILLER_14_85
*1265 FILLER_14_97
*1266 FILLER_15_108
*1267 FILLER_15_113
*1268 FILLER_15_125
*1269 FILLER_15_131
*1270 FILLER_15_142
*1271 FILLER_15_154
*1272 FILLER_15_166
*1273 FILLER_15_18
*1274 FILLER_15_184
*1275 FILLER_15_196
*1276 FILLER_15_215
*1277 FILLER_15_223
*1278 FILLER_15_225
*1279 FILLER_15_237
*1280 FILLER_15_254
*1281 FILLER_15_266
*1282 FILLER_15_278
*1283 FILLER_15_281
*1284 FILLER_15_293
*1285 FILLER_15_305
*1286 FILLER_15_317
*1287 FILLER_15_329
*1288 FILLER_15_335
*1289 FILLER_15_337
*1290 FILLER_15_349
*1291 FILLER_15_361
*1292 FILLER_15_373
*1293 FILLER_15_385
*1294 FILLER_15_391
*1295 FILLER_15_393
*1296 FILLER_15_405
*1297 FILLER_15_49
*1298 FILLER_15_55
*1299 FILLER_15_57
*1300 FILLER_15_6
*1301 FILLER_15_63
*1302 FILLER_15_71
*1303 FILLER_15_95
*1304 FILLER_16_102
*1305 FILLER_16_128
*1306 FILLER_16_141
*1307 FILLER_16_15
*1308 FILLER_16_153
*1309 FILLER_16_163
*1310 FILLER_16_175
*1311 FILLER_16_179
*1312 FILLER_16_183
*1313 FILLER_16_191
*1314 FILLER_16_195
*1315 FILLER_16_197
*1316 FILLER_16_209
*1317 FILLER_16_221
*1318 FILLER_16_232
*1319 FILLER_16_236
*1320 FILLER_16_242
*1321 FILLER_16_246
*1322 FILLER_16_251
*1323 FILLER_16_267
*1324 FILLER_16_27
*1325 FILLER_16_288
*1326 FILLER_16_29
*1327 FILLER_16_3
*1328 FILLER_16_300
*1329 FILLER_16_309
*1330 FILLER_16_321
*1331 FILLER_16_333
*1332 FILLER_16_345
*1333 FILLER_16_357
*1334 FILLER_16_363
*1335 FILLER_16_365
*1336 FILLER_16_377
*1337 FILLER_16_389
*1338 FILLER_16_401
*1339 FILLER_16_41
*1340 FILLER_16_53
*1341 FILLER_16_65
*1342 FILLER_16_77
*1343 FILLER_16_94
*1344 FILLER_17_100
*1345 FILLER_17_113
*1346 FILLER_17_125
*1347 FILLER_17_147
*1348 FILLER_17_163
*1349 FILLER_17_167
*1350 FILLER_17_169
*1351 FILLER_17_18
*1352 FILLER_17_181
*1353 FILLER_17_193
*1354 FILLER_17_201
*1355 FILLER_17_212
*1356 FILLER_17_225
*1357 FILLER_17_231
*1358 FILLER_17_239
*1359 FILLER_17_251
*1360 FILLER_17_263
*1361 FILLER_17_275
*1362 FILLER_17_279
*1363 FILLER_17_281
*1364 FILLER_17_293
*1365 FILLER_17_30
*1366 FILLER_17_305
*1367 FILLER_17_317
*1368 FILLER_17_329
*1369 FILLER_17_335
*1370 FILLER_17_337
*1371 FILLER_17_349
*1372 FILLER_17_361
*1373 FILLER_17_373
*1374 FILLER_17_385
*1375 FILLER_17_391
*1376 FILLER_17_393
*1377 FILLER_17_405
*1378 FILLER_17_42
*1379 FILLER_17_6
*1380 FILLER_17_66
*1381 FILLER_17_72
*1382 FILLER_17_82
*1383 FILLER_17_88
*1384 FILLER_18_110
*1385 FILLER_18_122
*1386 FILLER_18_134
*1387 FILLER_18_15
*1388 FILLER_18_154
*1389 FILLER_18_166
*1390 FILLER_18_178
*1391 FILLER_18_190
*1392 FILLER_18_197
*1393 FILLER_18_203
*1394 FILLER_18_211
*1395 FILLER_18_223
*1396 FILLER_18_235
*1397 FILLER_18_247
*1398 FILLER_18_251
*1399 FILLER_18_253
*1400 FILLER_18_26
*1401 FILLER_18_265
*1402 FILLER_18_277
*1403 FILLER_18_289
*1404 FILLER_18_3
*1405 FILLER_18_301
*1406 FILLER_18_307
*1407 FILLER_18_309
*1408 FILLER_18_321
*1409 FILLER_18_333
*1410 FILLER_18_345
*1411 FILLER_18_357
*1412 FILLER_18_363
*1413 FILLER_18_365
*1414 FILLER_18_377
*1415 FILLER_18_389
*1416 FILLER_18_401
*1417 FILLER_18_45
*1418 FILLER_18_66
*1419 FILLER_18_73
*1420 FILLER_18_77
*1421 FILLER_18_82
*1422 FILLER_18_89
*1423 FILLER_18_98
*1424 FILLER_19_110
*1425 FILLER_19_113
*1426 FILLER_19_125
*1427 FILLER_19_137
*1428 FILLER_19_159
*1429 FILLER_19_167
*1430 FILLER_19_169
*1431 FILLER_19_18
*1432 FILLER_19_182
*1433 FILLER_19_194
*1434 FILLER_19_206
*1435 FILLER_19_218
*1436 FILLER_19_225
*1437 FILLER_19_237
*1438 FILLER_19_245
*1439 FILLER_19_251
*1440 FILLER_19_263
*1441 FILLER_19_275
*1442 FILLER_19_279
*1443 FILLER_19_287
*1444 FILLER_19_299
*1445 FILLER_19_311
*1446 FILLER_19_32
*1447 FILLER_19_323
*1448 FILLER_19_335
*1449 FILLER_19_337
*1450 FILLER_19_349
*1451 FILLER_19_361
*1452 FILLER_19_373
*1453 FILLER_19_385
*1454 FILLER_19_391
*1455 FILLER_19_393
*1456 FILLER_19_405
*1457 FILLER_19_45
*1458 FILLER_19_53
*1459 FILLER_19_57
*1460 FILLER_19_6
*1461 FILLER_19_65
*1462 FILLER_19_83
*1463 FILLER_1_105
*1464 FILLER_1_111
*1465 FILLER_1_113
*1466 FILLER_1_125
*1467 FILLER_1_137
*1468 FILLER_1_149
*1469 FILLER_1_15
*1470 FILLER_1_161
*1471 FILLER_1_167
*1472 FILLER_1_169
*1473 FILLER_1_181
*1474 FILLER_1_193
*1475 FILLER_1_205
*1476 FILLER_1_217
*1477 FILLER_1_223
*1478 FILLER_1_225
*1479 FILLER_1_237
*1480 FILLER_1_249
*1481 FILLER_1_261
*1482 FILLER_1_27
*1483 FILLER_1_273
*1484 FILLER_1_279
*1485 FILLER_1_281
*1486 FILLER_1_293
*1487 FILLER_1_3
*1488 FILLER_1_305
*1489 FILLER_1_317
*1490 FILLER_1_329
*1491 FILLER_1_335
*1492 FILLER_1_337
*1493 FILLER_1_349
*1494 FILLER_1_361
*1495 FILLER_1_373
*1496 FILLER_1_385
*1497 FILLER_1_39
*1498 FILLER_1_391
*1499 FILLER_1_393
*1500 FILLER_1_405
*1501 FILLER_1_51
*1502 FILLER_1_55
*1503 FILLER_1_57
*1504 FILLER_1_69
*1505 FILLER_1_81
*1506 FILLER_1_93
*1507 FILLER_20_132
*1508 FILLER_20_141
*1509 FILLER_20_15
*1510 FILLER_20_153
*1511 FILLER_20_165
*1512 FILLER_20_173
*1513 FILLER_20_189
*1514 FILLER_20_195
*1515 FILLER_20_197
*1516 FILLER_20_204
*1517 FILLER_20_216
*1518 FILLER_20_234
*1519 FILLER_20_242
*1520 FILLER_20_250
*1521 FILLER_20_253
*1522 FILLER_20_267
*1523 FILLER_20_27
*1524 FILLER_20_271
*1525 FILLER_20_279
*1526 FILLER_20_287
*1527 FILLER_20_29
*1528 FILLER_20_299
*1529 FILLER_20_3
*1530 FILLER_20_307
*1531 FILLER_20_309
*1532 FILLER_20_321
*1533 FILLER_20_333
*1534 FILLER_20_345
*1535 FILLER_20_357
*1536 FILLER_20_36
*1537 FILLER_20_363
*1538 FILLER_20_365
*1539 FILLER_20_377
*1540 FILLER_20_389
*1541 FILLER_20_401
*1542 FILLER_20_48
*1543 FILLER_20_60
*1544 FILLER_20_72
*1545 FILLER_21_102
*1546 FILLER_21_111
*1547 FILLER_21_113
*1548 FILLER_21_125
*1549 FILLER_21_136
*1550 FILLER_21_14
*1551 FILLER_21_148
*1552 FILLER_21_156
*1553 FILLER_21_163
*1554 FILLER_21_167
*1555 FILLER_21_169
*1556 FILLER_21_181
*1557 FILLER_21_193
*1558 FILLER_21_197
*1559 FILLER_21_217
*1560 FILLER_21_223
*1561 FILLER_21_232
*1562 FILLER_21_244
*1563 FILLER_21_256
*1564 FILLER_21_26
*1565 FILLER_21_268
*1566 FILLER_21_281
*1567 FILLER_21_293
*1568 FILLER_21_3
*1569 FILLER_21_305
*1570 FILLER_21_317
*1571 FILLER_21_329
*1572 FILLER_21_335
*1573 FILLER_21_337
*1574 FILLER_21_34
*1575 FILLER_21_349
*1576 FILLER_21_361
*1577 FILLER_21_373
*1578 FILLER_21_385
*1579 FILLER_21_391
*1580 FILLER_21_393
*1581 FILLER_21_405
*1582 FILLER_21_45
*1583 FILLER_21_53
*1584 FILLER_21_57
*1585 FILLER_21_67
*1586 FILLER_21_79
*1587 FILLER_21_91
*1588 FILLER_22_100
*1589 FILLER_22_112
*1590 FILLER_22_124
*1591 FILLER_22_139
*1592 FILLER_22_147
*1593 FILLER_22_155
*1594 FILLER_22_176
*1595 FILLER_22_188
*1596 FILLER_22_197
*1597 FILLER_22_213
*1598 FILLER_22_232
*1599 FILLER_22_244
*1600 FILLER_22_253
*1601 FILLER_22_26
*1602 FILLER_22_265
*1603 FILLER_22_277
*1604 FILLER_22_29
*1605 FILLER_22_292
*1606 FILLER_22_304
*1607 FILLER_22_309
*1608 FILLER_22_321
*1609 FILLER_22_333
*1610 FILLER_22_345
*1611 FILLER_22_357
*1612 FILLER_22_363
*1613 FILLER_22_365
*1614 FILLER_22_377
*1615 FILLER_22_389
*1616 FILLER_22_401
*1617 FILLER_22_76
*1618 FILLER_23_103
*1619 FILLER_23_125
*1620 FILLER_23_133
*1621 FILLER_23_15
*1622 FILLER_23_152
*1623 FILLER_23_164
*1624 FILLER_23_169
*1625 FILLER_23_185
*1626 FILLER_23_197
*1627 FILLER_23_209
*1628 FILLER_23_221
*1629 FILLER_23_225
*1630 FILLER_23_237
*1631 FILLER_23_262
*1632 FILLER_23_269
*1633 FILLER_23_27
*1634 FILLER_23_277
*1635 FILLER_23_281
*1636 FILLER_23_291
*1637 FILLER_23_295
*1638 FILLER_23_3
*1639 FILLER_23_318
*1640 FILLER_23_325
*1641 FILLER_23_333
*1642 FILLER_23_337
*1643 FILLER_23_349
*1644 FILLER_23_361
*1645 FILLER_23_373
*1646 FILLER_23_385
*1647 FILLER_23_391
*1648 FILLER_23_393
*1649 FILLER_23_405
*1650 FILLER_23_45
*1651 FILLER_23_53
*1652 FILLER_23_57
*1653 FILLER_23_67
*1654 FILLER_23_71
*1655 FILLER_23_99
*1656 FILLER_24_107
*1657 FILLER_24_11
*1658 FILLER_24_121
*1659 FILLER_24_133
*1660 FILLER_24_139
*1661 FILLER_24_149
*1662 FILLER_24_15
*1663 FILLER_24_161
*1664 FILLER_24_173
*1665 FILLER_24_189
*1666 FILLER_24_195
*1667 FILLER_24_197
*1668 FILLER_24_218
*1669 FILLER_24_230
*1670 FILLER_24_242
*1671 FILLER_24_25
*1672 FILLER_24_250
*1673 FILLER_24_253
*1674 FILLER_24_265
*1675 FILLER_24_269
*1676 FILLER_24_288
*1677 FILLER_24_29
*1678 FILLER_24_309
*1679 FILLER_24_360
*1680 FILLER_24_365
*1681 FILLER_24_377
*1682 FILLER_24_389
*1683 FILLER_24_401
*1684 FILLER_24_41
*1685 FILLER_24_63
*1686 FILLER_24_71
*1687 FILLER_24_83
*1688 FILLER_24_89
*1689 FILLER_24_95
*1690 FILLER_25_100
*1691 FILLER_25_113
*1692 FILLER_25_125
*1693 FILLER_25_133
*1694 FILLER_25_14
*1695 FILLER_25_154
*1696 FILLER_25_158
*1697 FILLER_25_167
*1698 FILLER_25_177
*1699 FILLER_25_192
*1700 FILLER_25_204
*1701 FILLER_25_217
*1702 FILLER_25_223
*1703 FILLER_25_251
*1704 FILLER_25_263
*1705 FILLER_25_275
*1706 FILLER_25_279
*1707 FILLER_25_281
*1708 FILLER_25_302
*1709 FILLER_25_314
*1710 FILLER_25_326
*1711 FILLER_25_334
*1712 FILLER_25_337
*1713 FILLER_25_349
*1714 FILLER_25_361
*1715 FILLER_25_373
*1716 FILLER_25_393
*1717 FILLER_25_401
*1718 FILLER_25_45
*1719 FILLER_25_53
*1720 FILLER_25_57
*1721 FILLER_25_71
*1722 FILLER_25_79
*1723 FILLER_25_90
*1724 FILLER_26_105
*1725 FILLER_26_118
*1726 FILLER_26_130
*1727 FILLER_26_138
*1728 FILLER_26_141
*1729 FILLER_26_153
*1730 FILLER_26_165
*1731 FILLER_26_169
*1732 FILLER_26_175
*1733 FILLER_26_187
*1734 FILLER_26_19
*1735 FILLER_26_195
*1736 FILLER_26_197
*1737 FILLER_26_209
*1738 FILLER_26_221
*1739 FILLER_26_233
*1740 FILLER_26_237
*1741 FILLER_26_245
*1742 FILLER_26_251
*1743 FILLER_26_253
*1744 FILLER_26_265
*1745 FILLER_26_27
*1746 FILLER_26_277
*1747 FILLER_26_289
*1748 FILLER_26_301
*1749 FILLER_26_307
*1750 FILLER_26_315
*1751 FILLER_26_327
*1752 FILLER_26_339
*1753 FILLER_26_351
*1754 FILLER_26_363
*1755 FILLER_26_370
*1756 FILLER_26_380
*1757 FILLER_26_50
*1758 FILLER_26_7
*1759 FILLER_26_73
*1760 FILLER_26_81
*1761 FILLER_26_85
*1762 FILLER_26_93
*1763 FILLER_27_104
*1764 FILLER_27_123
*1765 FILLER_27_135
*1766 FILLER_27_152
*1767 FILLER_27_164
*1768 FILLER_27_169
*1769 FILLER_27_177
*1770 FILLER_27_187
*1771 FILLER_27_199
*1772 FILLER_27_207
*1773 FILLER_27_217
*1774 FILLER_27_223
*1775 FILLER_27_225
*1776 FILLER_27_237
*1777 FILLER_27_249
*1778 FILLER_27_261
*1779 FILLER_27_273
*1780 FILLER_27_279
*1781 FILLER_27_281
*1782 FILLER_27_29
*1783 FILLER_27_293
*1784 FILLER_27_301
*1785 FILLER_27_318
*1786 FILLER_27_327
*1787 FILLER_27_335
*1788 FILLER_27_337
*1789 FILLER_27_364
*1790 FILLER_27_37
*1791 FILLER_27_375
*1792 FILLER_27_388
*1793 FILLER_27_402
*1794 FILLER_27_44
*1795 FILLER_27_48
*1796 FILLER_27_7
*1797 FILLER_27_77
*1798 FILLER_27_85
*1799 FILLER_28_109
*1800 FILLER_28_117
*1801 FILLER_28_126
*1802 FILLER_28_138
*1803 FILLER_28_141
*1804 FILLER_28_153
*1805 FILLER_28_161
*1806 FILLER_28_167
*1807 FILLER_28_179
*1808 FILLER_28_187
*1809 FILLER_28_195
*1810 FILLER_28_197
*1811 FILLER_28_209
*1812 FILLER_28_227
*1813 FILLER_28_236
*1814 FILLER_28_248
*1815 FILLER_28_25
*1816 FILLER_28_253
*1817 FILLER_28_265
*1818 FILLER_28_269
*1819 FILLER_28_282
*1820 FILLER_28_29
*1821 FILLER_28_294
*1822 FILLER_28_3
*1823 FILLER_28_306
*1824 FILLER_28_309
*1825 FILLER_28_317
*1826 FILLER_28_338
*1827 FILLER_28_342
*1828 FILLER_28_354
*1829 FILLER_28_362
*1830 FILLER_28_365
*1831 FILLER_28_377
*1832 FILLER_28_389
*1833 FILLER_28_397
*1834 FILLER_28_41
*1835 FILLER_28_53
*1836 FILLER_28_61
*1837 FILLER_28_69
*1838 FILLER_28_81
*1839 FILLER_28_85
*1840 FILLER_28_97
*1841 FILLER_29_102
*1842 FILLER_29_110
*1843 FILLER_29_113
*1844 FILLER_29_117
*1845 FILLER_29_129
*1846 FILLER_29_141
*1847 FILLER_29_15
*1848 FILLER_29_153
*1849 FILLER_29_180
*1850 FILLER_29_188
*1851 FILLER_29_201
*1852 FILLER_29_205
*1853 FILLER_29_215
*1854 FILLER_29_223
*1855 FILLER_29_225
*1856 FILLER_29_238
*1857 FILLER_29_24
*1858 FILLER_29_255
*1859 FILLER_29_273
*1860 FILLER_29_279
*1861 FILLER_29_281
*1862 FILLER_29_285
*1863 FILLER_29_293
*1864 FILLER_29_3
*1865 FILLER_29_300
*1866 FILLER_29_312
*1867 FILLER_29_323
*1868 FILLER_29_335
*1869 FILLER_29_337
*1870 FILLER_29_349
*1871 FILLER_29_380
*1872 FILLER_29_393
*1873 FILLER_29_46
*1874 FILLER_29_50
*1875 FILLER_29_54
*1876 FILLER_29_57
*1877 FILLER_29_77
*1878 FILLER_29_89
*1879 FILLER_2_109
*1880 FILLER_2_121
*1881 FILLER_2_133
*1882 FILLER_2_139
*1883 FILLER_2_141
*1884 FILLER_2_15
*1885 FILLER_2_153
*1886 FILLER_2_165
*1887 FILLER_2_177
*1888 FILLER_2_189
*1889 FILLER_2_195
*1890 FILLER_2_197
*1891 FILLER_2_209
*1892 FILLER_2_221
*1893 FILLER_2_233
*1894 FILLER_2_245
*1895 FILLER_2_251
*1896 FILLER_2_253
*1897 FILLER_2_265
*1898 FILLER_2_27
*1899 FILLER_2_277
*1900 FILLER_2_289
*1901 FILLER_2_29
*1902 FILLER_2_3
*1903 FILLER_2_301
*1904 FILLER_2_307
*1905 FILLER_2_309
*1906 FILLER_2_321
*1907 FILLER_2_333
*1908 FILLER_2_345
*1909 FILLER_2_357
*1910 FILLER_2_363
*1911 FILLER_2_365
*1912 FILLER_2_377
*1913 FILLER_2_389
*1914 FILLER_2_401
*1915 FILLER_2_41
*1916 FILLER_2_53
*1917 FILLER_2_65
*1918 FILLER_2_77
*1919 FILLER_2_83
*1920 FILLER_2_85
*1921 FILLER_2_97
*1922 FILLER_30_106
*1923 FILLER_30_112
*1924 FILLER_30_118
*1925 FILLER_30_126
*1926 FILLER_30_139
*1927 FILLER_30_149
*1928 FILLER_30_155
*1929 FILLER_30_163
*1930 FILLER_30_174
*1931 FILLER_30_186
*1932 FILLER_30_19
*1933 FILLER_30_194
*1934 FILLER_30_197
*1935 FILLER_30_209
*1936 FILLER_30_221
*1937 FILLER_30_233
*1938 FILLER_30_245
*1939 FILLER_30_251
*1940 FILLER_30_253
*1941 FILLER_30_258
*1942 FILLER_30_27
*1943 FILLER_30_270
*1944 FILLER_30_282
*1945 FILLER_30_29
*1946 FILLER_30_294
*1947 FILLER_30_306
*1948 FILLER_30_309
*1949 FILLER_30_317
*1950 FILLER_30_332
*1951 FILLER_30_344
*1952 FILLER_30_350
*1953 FILLER_30_362
*1954 FILLER_30_365
*1955 FILLER_30_369
*1956 FILLER_30_37
*1957 FILLER_30_378
*1958 FILLER_30_386
*1959 FILLER_30_404
*1960 FILLER_30_55
*1961 FILLER_30_63
*1962 FILLER_30_7
*1963 FILLER_30_75
*1964 FILLER_30_83
*1965 FILLER_30_85
*1966 FILLER_30_93
*1967 FILLER_31_126
*1968 FILLER_31_138
*1969 FILLER_31_150
*1970 FILLER_31_162
*1971 FILLER_31_169
*1972 FILLER_31_181
*1973 FILLER_31_193
*1974 FILLER_31_205
*1975 FILLER_31_214
*1976 FILLER_31_222
*1977 FILLER_31_225
*1978 FILLER_31_238
*1979 FILLER_31_250
*1980 FILLER_31_262
*1981 FILLER_31_274
*1982 FILLER_31_281
*1983 FILLER_31_289
*1984 FILLER_31_298
*1985 FILLER_31_317
*1986 FILLER_31_329
*1987 FILLER_31_335
*1988 FILLER_31_337
*1989 FILLER_31_34
*1990 FILLER_31_345
*1991 FILLER_31_355
*1992 FILLER_31_367
*1993 FILLER_31_378
*1994 FILLER_31_391
*1995 FILLER_31_393
*1996 FILLER_31_404
*1997 FILLER_31_46
*1998 FILLER_31_54
*1999 FILLER_31_57
*2000 FILLER_31_69
*2001 FILLER_31_77
*2002 FILLER_31_97
*2003 FILLER_32_105
*2004 FILLER_32_11
*2005 FILLER_32_112
*2006 FILLER_32_124
*2007 FILLER_32_136
*2008 FILLER_32_141
*2009 FILLER_32_155
*2010 FILLER_32_167
*2011 FILLER_32_185
*2012 FILLER_32_193
*2013 FILLER_32_197
*2014 FILLER_32_205
*2015 FILLER_32_21
*2016 FILLER_32_213
*2017 FILLER_32_223
*2018 FILLER_32_231
*2019 FILLER_32_242
*2020 FILLER_32_250
*2021 FILLER_32_253
*2022 FILLER_32_266
*2023 FILLER_32_27
*2024 FILLER_32_274
*2025 FILLER_32_280
*2026 FILLER_32_29
*2027 FILLER_32_3
*2028 FILLER_32_304
*2029 FILLER_32_317
*2030 FILLER_32_321
*2031 FILLER_32_328
*2032 FILLER_32_345
*2033 FILLER_32_373
*2034 FILLER_32_385
*2035 FILLER_32_389
*2036 FILLER_32_406
*2037 FILLER_32_41
*2038 FILLER_32_53
*2039 FILLER_32_62
*2040 FILLER_32_74
*2041 FILLER_32_82
*2042 FILLER_32_85
*2043 FILLER_32_97
*2044 FILLER_33_104
*2045 FILLER_33_113
*2046 FILLER_33_117
*2047 FILLER_33_128
*2048 FILLER_33_145
*2049 FILLER_33_15
*2050 FILLER_33_153
*2051 FILLER_33_157
*2052 FILLER_33_169
*2053 FILLER_33_181
*2054 FILLER_33_185
*2055 FILLER_33_196
*2056 FILLER_33_208
*2057 FILLER_33_221
*2058 FILLER_33_225
*2059 FILLER_33_237
*2060 FILLER_33_247
*2061 FILLER_33_253
*2062 FILLER_33_267
*2063 FILLER_33_277
*2064 FILLER_33_281
*2065 FILLER_33_293
*2066 FILLER_33_3
*2067 FILLER_33_305
*2068 FILLER_33_317
*2069 FILLER_33_32
*2070 FILLER_33_334
*2071 FILLER_33_337
*2072 FILLER_33_349
*2073 FILLER_33_361
*2074 FILLER_33_378
*2075 FILLER_33_391
*2076 FILLER_33_393
*2077 FILLER_33_405
*2078 FILLER_33_45
*2079 FILLER_33_73
*2080 FILLER_33_92
*2081 FILLER_34_104
*2082 FILLER_34_116
*2083 FILLER_34_128
*2084 FILLER_34_141
*2085 FILLER_34_153
*2086 FILLER_34_165
*2087 FILLER_34_173
*2088 FILLER_34_184
*2089 FILLER_34_197
*2090 FILLER_34_209
*2091 FILLER_34_221
*2092 FILLER_34_233
*2093 FILLER_34_250
*2094 FILLER_34_253
*2095 FILLER_34_265
*2096 FILLER_34_27
*2097 FILLER_34_277
*2098 FILLER_34_289
*2099 FILLER_34_3
*2100 FILLER_34_301
*2101 FILLER_34_307
*2102 FILLER_34_309
*2103 FILLER_34_317
*2104 FILLER_34_322
*2105 FILLER_34_338
*2106 FILLER_34_351
*2107 FILLER_34_363
*2108 FILLER_34_365
*2109 FILLER_34_377
*2110 FILLER_34_385
*2111 FILLER_34_403
*2112 FILLER_34_41
*2113 FILLER_34_53
*2114 FILLER_34_65
*2115 FILLER_34_77
*2116 FILLER_34_83
*2117 FILLER_34_92
*2118 FILLER_35_111
*2119 FILLER_35_113
*2120 FILLER_35_123
*2121 FILLER_35_135
*2122 FILLER_35_147
*2123 FILLER_35_15
*2124 FILLER_35_159
*2125 FILLER_35_167
*2126 FILLER_35_169
*2127 FILLER_35_181
*2128 FILLER_35_193
*2129 FILLER_35_205
*2130 FILLER_35_211
*2131 FILLER_35_225
*2132 FILLER_35_237
*2133 FILLER_35_249
*2134 FILLER_35_261
*2135 FILLER_35_27
*2136 FILLER_35_273
*2137 FILLER_35_279
*2138 FILLER_35_281
*2139 FILLER_35_3
*2140 FILLER_35_344
*2141 FILLER_35_354
*2142 FILLER_35_372
*2143 FILLER_35_378
*2144 FILLER_35_389
*2145 FILLER_35_39
*2146 FILLER_35_393
*2147 FILLER_35_402
*2148 FILLER_35_406
*2149 FILLER_35_51
*2150 FILLER_35_55
*2151 FILLER_35_57
*2152 FILLER_35_69
*2153 FILLER_35_80
*2154 FILLER_35_92
*2155 FILLER_36_108
*2156 FILLER_36_116
*2157 FILLER_36_120
*2158 FILLER_36_131
*2159 FILLER_36_139
*2160 FILLER_36_141
*2161 FILLER_36_149
*2162 FILLER_36_154
*2163 FILLER_36_166
*2164 FILLER_36_174
*2165 FILLER_36_187
*2166 FILLER_36_19
*2167 FILLER_36_195
*2168 FILLER_36_197
*2169 FILLER_36_240
*2170 FILLER_36_253
*2171 FILLER_36_265
*2172 FILLER_36_27
*2173 FILLER_36_280
*2174 FILLER_36_287
*2175 FILLER_36_29
*2176 FILLER_36_299
*2177 FILLER_36_307
*2178 FILLER_36_309
*2179 FILLER_36_321
*2180 FILLER_36_333
*2181 FILLER_36_345
*2182 FILLER_36_357
*2183 FILLER_36_363
*2184 FILLER_36_373
*2185 FILLER_36_385
*2186 FILLER_36_397
*2187 FILLER_36_41
*2188 FILLER_36_54
*2189 FILLER_36_66
*2190 FILLER_36_85
*2191 FILLER_36_96
*2192 FILLER_37_116
*2193 FILLER_37_128
*2194 FILLER_37_136
*2195 FILLER_37_159
*2196 FILLER_37_177
*2197 FILLER_37_18
*2198 FILLER_37_189
*2199 FILLER_37_197
*2200 FILLER_37_207
*2201 FILLER_37_219
*2202 FILLER_37_225
*2203 FILLER_37_250
*2204 FILLER_37_262
*2205 FILLER_37_270
*2206 FILLER_37_278
*2207 FILLER_37_281
*2208 FILLER_37_293
*2209 FILLER_37_3
*2210 FILLER_37_305
*2211 FILLER_37_317
*2212 FILLER_37_329
*2213 FILLER_37_33
*2214 FILLER_37_335
*2215 FILLER_37_357
*2216 FILLER_37_369
*2217 FILLER_37_381
*2218 FILLER_37_389
*2219 FILLER_37_405
*2220 FILLER_37_41
*2221 FILLER_37_50
*2222 FILLER_37_57
*2223 FILLER_37_63
*2224 FILLER_37_75
*2225 FILLER_37_79
*2226 FILLER_37_83
*2227 FILLER_37_9
*2228 FILLER_38_109
*2229 FILLER_38_121
*2230 FILLER_38_133
*2231 FILLER_38_139
*2232 FILLER_38_141
*2233 FILLER_38_153
*2234 FILLER_38_16
*2235 FILLER_38_165
*2236 FILLER_38_177
*2237 FILLER_38_189
*2238 FILLER_38_195
*2239 FILLER_38_197
*2240 FILLER_38_211
*2241 FILLER_38_219
*2242 FILLER_38_231
*2243 FILLER_38_243
*2244 FILLER_38_251
*2245 FILLER_38_253
*2246 FILLER_38_261
*2247 FILLER_38_269
*2248 FILLER_38_281
*2249 FILLER_38_29
*2250 FILLER_38_293
*2251 FILLER_38_3
*2252 FILLER_38_305
*2253 FILLER_38_309
*2254 FILLER_38_332
*2255 FILLER_38_336
*2256 FILLER_38_361
*2257 FILLER_38_365
*2258 FILLER_38_371
*2259 FILLER_38_379
*2260 FILLER_38_41
*2261 FILLER_38_50
*2262 FILLER_38_67
*2263 FILLER_38_7
*2264 FILLER_38_79
*2265 FILLER_38_83
*2266 FILLER_38_85
*2267 FILLER_38_97
*2268 FILLER_39_118
*2269 FILLER_39_136
*2270 FILLER_39_144
*2271 FILLER_39_153
*2272 FILLER_39_165
*2273 FILLER_39_169
*2274 FILLER_39_192
*2275 FILLER_39_204
*2276 FILLER_39_21
*2277 FILLER_39_216
*2278 FILLER_39_225
*2279 FILLER_39_237
*2280 FILLER_39_241
*2281 FILLER_39_247
*2282 FILLER_39_259
*2283 FILLER_39_265
*2284 FILLER_39_273
*2285 FILLER_39_279
*2286 FILLER_39_302
*2287 FILLER_39_33
*2288 FILLER_39_335
*2289 FILLER_39_345
*2290 FILLER_39_357
*2291 FILLER_39_386
*2292 FILLER_39_393
*2293 FILLER_39_405
*2294 FILLER_39_45
*2295 FILLER_39_53
*2296 FILLER_39_57
*2297 FILLER_39_69
*2298 FILLER_39_7
*2299 FILLER_39_75
*2300 FILLER_39_91
*2301 FILLER_39_99
*2302 FILLER_3_105
*2303 FILLER_3_111
*2304 FILLER_3_113
*2305 FILLER_3_125
*2306 FILLER_3_137
*2307 FILLER_3_149
*2308 FILLER_3_15
*2309 FILLER_3_161
*2310 FILLER_3_167
*2311 FILLER_3_169
*2312 FILLER_3_181
*2313 FILLER_3_193
*2314 FILLER_3_205
*2315 FILLER_3_217
*2316 FILLER_3_223
*2317 FILLER_3_225
*2318 FILLER_3_237
*2319 FILLER_3_249
*2320 FILLER_3_261
*2321 FILLER_3_27
*2322 FILLER_3_273
*2323 FILLER_3_279
*2324 FILLER_3_281
*2325 FILLER_3_293
*2326 FILLER_3_3
*2327 FILLER_3_305
*2328 FILLER_3_317
*2329 FILLER_3_329
*2330 FILLER_3_335
*2331 FILLER_3_337
*2332 FILLER_3_349
*2333 FILLER_3_361
*2334 FILLER_3_373
*2335 FILLER_3_385
*2336 FILLER_3_39
*2337 FILLER_3_391
*2338 FILLER_3_393
*2339 FILLER_3_405
*2340 FILLER_3_51
*2341 FILLER_3_55
*2342 FILLER_3_57
*2343 FILLER_3_69
*2344 FILLER_3_81
*2345 FILLER_3_93
*2346 FILLER_40_101
*2347 FILLER_40_113
*2348 FILLER_40_125
*2349 FILLER_40_137
*2350 FILLER_40_141
*2351 FILLER_40_161
*2352 FILLER_40_173
*2353 FILLER_40_185
*2354 FILLER_40_193
*2355 FILLER_40_197
*2356 FILLER_40_205
*2357 FILLER_40_218
*2358 FILLER_40_226
*2359 FILLER_40_234
*2360 FILLER_40_24
*2361 FILLER_40_250
*2362 FILLER_40_253
*2363 FILLER_40_287
*2364 FILLER_40_29
*2365 FILLER_40_299
*2366 FILLER_40_3
*2367 FILLER_40_307
*2368 FILLER_40_309
*2369 FILLER_40_324
*2370 FILLER_40_328
*2371 FILLER_40_340
*2372 FILLER_40_352
*2373 FILLER_40_365
*2374 FILLER_40_373
*2375 FILLER_40_38
*2376 FILLER_40_384
*2377 FILLER_40_404
*2378 FILLER_40_50
*2379 FILLER_40_62
*2380 FILLER_40_74
*2381 FILLER_40_89
*2382 FILLER_41_105
*2383 FILLER_41_11
*2384 FILLER_41_119
*2385 FILLER_41_131
*2386 FILLER_41_143
*2387 FILLER_41_151
*2388 FILLER_41_163
*2389 FILLER_41_167
*2390 FILLER_41_169
*2391 FILLER_41_177
*2392 FILLER_41_189
*2393 FILLER_41_20
*2394 FILLER_41_201
*2395 FILLER_41_213
*2396 FILLER_41_221
*2397 FILLER_41_225
*2398 FILLER_41_237
*2399 FILLER_41_241
*2400 FILLER_41_247
*2401 FILLER_41_259
*2402 FILLER_41_271
*2403 FILLER_41_279
*2404 FILLER_41_28
*2405 FILLER_41_289
*2406 FILLER_41_293
*2407 FILLER_41_3
*2408 FILLER_41_304
*2409 FILLER_41_316
*2410 FILLER_41_330
*2411 FILLER_41_337
*2412 FILLER_41_360
*2413 FILLER_41_372
*2414 FILLER_41_380
*2415 FILLER_41_393
*2416 FILLER_41_46
*2417 FILLER_41_54
*2418 FILLER_41_69
*2419 FILLER_41_81
*2420 FILLER_41_93
*2421 FILLER_42_102
*2422 FILLER_42_114
*2423 FILLER_42_122
*2424 FILLER_42_138
*2425 FILLER_42_141
*2426 FILLER_42_153
*2427 FILLER_42_165
*2428 FILLER_42_173
*2429 FILLER_42_18
*2430 FILLER_42_183
*2431 FILLER_42_195
*2432 FILLER_42_197
*2433 FILLER_42_209
*2434 FILLER_42_221
*2435 FILLER_42_233
*2436 FILLER_42_241
*2437 FILLER_42_249
*2438 FILLER_42_253
*2439 FILLER_42_26
*2440 FILLER_42_265
*2441 FILLER_42_277
*2442 FILLER_42_285
*2443 FILLER_42_29
*2444 FILLER_42_3
*2445 FILLER_42_317
*2446 FILLER_42_390
*2447 FILLER_42_402
*2448 FILLER_42_41
*2449 FILLER_42_53
*2450 FILLER_42_57
*2451 FILLER_42_65
*2452 FILLER_42_69
*2453 FILLER_42_77
*2454 FILLER_42_83
*2455 FILLER_42_9
*2456 FILLER_42_90
*2457 FILLER_43_105
*2458 FILLER_43_113
*2459 FILLER_43_124
*2460 FILLER_43_133
*2461 FILLER_43_145
*2462 FILLER_43_162
*2463 FILLER_43_169
*2464 FILLER_43_185
*2465 FILLER_43_197
*2466 FILLER_43_201
*2467 FILLER_43_21
*2468 FILLER_43_210
*2469 FILLER_43_222
*2470 FILLER_43_225
*2471 FILLER_43_237
*2472 FILLER_43_249
*2473 FILLER_43_261
*2474 FILLER_43_273
*2475 FILLER_43_279
*2476 FILLER_43_289
*2477 FILLER_43_29
*2478 FILLER_43_3
*2479 FILLER_43_301
*2480 FILLER_43_313
*2481 FILLER_43_325
*2482 FILLER_43_337
*2483 FILLER_43_361
*2484 FILLER_43_373
*2485 FILLER_43_385
*2486 FILLER_43_391
*2487 FILLER_43_393
*2488 FILLER_43_405
*2489 FILLER_43_49
*2490 FILLER_43_55
*2491 FILLER_43_57
*2492 FILLER_43_69
*2493 FILLER_43_97
*2494 FILLER_44_119
*2495 FILLER_44_131
*2496 FILLER_44_139
*2497 FILLER_44_141
*2498 FILLER_44_159
*2499 FILLER_44_17
*2500 FILLER_44_171
*2501 FILLER_44_184
*2502 FILLER_44_197
*2503 FILLER_44_217
*2504 FILLER_44_239
*2505 FILLER_44_25
*2506 FILLER_44_250
*2507 FILLER_44_262
*2508 FILLER_44_284
*2509 FILLER_44_29
*2510 FILLER_44_296
*2511 FILLER_44_309
*2512 FILLER_44_321
*2513 FILLER_44_333
*2514 FILLER_44_341
*2515 FILLER_44_352
*2516 FILLER_44_370
*2517 FILLER_44_45
*2518 FILLER_44_57
*2519 FILLER_44_61
*2520 FILLER_44_7
*2521 FILLER_44_73
*2522 FILLER_44_83
*2523 FILLER_44_93
*2524 FILLER_45_111
*2525 FILLER_45_119
*2526 FILLER_45_131
*2527 FILLER_45_143
*2528 FILLER_45_148
*2529 FILLER_45_152
*2530 FILLER_45_164
*2531 FILLER_45_169
*2532 FILLER_45_177
*2533 FILLER_45_18
*2534 FILLER_45_191
*2535 FILLER_45_203
*2536 FILLER_45_215
*2537 FILLER_45_223
*2538 FILLER_45_233
*2539 FILLER_45_245
*2540 FILLER_45_26
*2541 FILLER_45_262
*2542 FILLER_45_274
*2543 FILLER_45_281
*2544 FILLER_45_293
*2545 FILLER_45_305
*2546 FILLER_45_316
*2547 FILLER_45_328
*2548 FILLER_45_337
*2549 FILLER_45_362
*2550 FILLER_45_374
*2551 FILLER_45_386
*2552 FILLER_45_393
*2553 FILLER_45_401
*2554 FILLER_45_44
*2555 FILLER_45_52
*2556 FILLER_45_6
*2557 FILLER_45_70
*2558 FILLER_45_78
*2559 FILLER_45_83
*2560 FILLER_46_112
*2561 FILLER_46_124
*2562 FILLER_46_136
*2563 FILLER_46_141
*2564 FILLER_46_145
*2565 FILLER_46_149
*2566 FILLER_46_16
*2567 FILLER_46_161
*2568 FILLER_46_173
*2569 FILLER_46_186
*2570 FILLER_46_194
*2571 FILLER_46_197
*2572 FILLER_46_209
*2573 FILLER_46_217
*2574 FILLER_46_229
*2575 FILLER_46_241
*2576 FILLER_46_249
*2577 FILLER_46_253
*2578 FILLER_46_259
*2579 FILLER_46_271
*2580 FILLER_46_283
*2581 FILLER_46_29
*2582 FILLER_46_302
*2583 FILLER_46_316
*2584 FILLER_46_329
*2585 FILLER_46_360
*2586 FILLER_46_365
*2587 FILLER_46_370
*2588 FILLER_46_396
*2589 FILLER_46_402
*2590 FILLER_46_48
*2591 FILLER_46_54
*2592 FILLER_46_62
*2593 FILLER_46_7
*2594 FILLER_46_74
*2595 FILLER_46_85
*2596 FILLER_46_97
*2597 FILLER_47_108
*2598 FILLER_47_113
*2599 FILLER_47_125
*2600 FILLER_47_143
*2601 FILLER_47_155
*2602 FILLER_47_167
*2603 FILLER_47_169
*2604 FILLER_47_181
*2605 FILLER_47_193
*2606 FILLER_47_221
*2607 FILLER_47_225
*2608 FILLER_47_237
*2609 FILLER_47_249
*2610 FILLER_47_25
*2611 FILLER_47_261
*2612 FILLER_47_278
*2613 FILLER_47_289
*2614 FILLER_47_301
*2615 FILLER_47_309
*2616 FILLER_47_313
*2617 FILLER_47_325
*2618 FILLER_47_333
*2619 FILLER_47_337
*2620 FILLER_47_349
*2621 FILLER_47_361
*2622 FILLER_47_37
*2623 FILLER_47_373
*2624 FILLER_47_385
*2625 FILLER_47_391
*2626 FILLER_47_405
*2627 FILLER_47_49
*2628 FILLER_47_55
*2629 FILLER_47_57
*2630 FILLER_47_69
*2631 FILLER_47_81
*2632 FILLER_47_89
*2633 FILLER_47_96
*2634 FILLER_48_101
*2635 FILLER_48_113
*2636 FILLER_48_119
*2637 FILLER_48_131
*2638 FILLER_48_138
*2639 FILLER_48_141
*2640 FILLER_48_153
*2641 FILLER_48_18
*2642 FILLER_48_181
*2643 FILLER_48_193
*2644 FILLER_48_197
*2645 FILLER_48_201
*2646 FILLER_48_218
*2647 FILLER_48_240
*2648 FILLER_48_251
*2649 FILLER_48_253
*2650 FILLER_48_26
*2651 FILLER_48_265
*2652 FILLER_48_277
*2653 FILLER_48_289
*2654 FILLER_48_29
*2655 FILLER_48_301
*2656 FILLER_48_307
*2657 FILLER_48_309
*2658 FILLER_48_318
*2659 FILLER_48_330
*2660 FILLER_48_342
*2661 FILLER_48_354
*2662 FILLER_48_360
*2663 FILLER_48_365
*2664 FILLER_48_37
*2665 FILLER_48_371
*2666 FILLER_48_377
*2667 FILLER_48_381
*2668 FILLER_48_49
*2669 FILLER_48_6
*2670 FILLER_48_61
*2671 FILLER_48_73
*2672 FILLER_48_85
*2673 FILLER_49_108
*2674 FILLER_49_120
*2675 FILLER_49_132
*2676 FILLER_49_144
*2677 FILLER_49_152
*2678 FILLER_49_164
*2679 FILLER_49_169
*2680 FILLER_49_18
*2681 FILLER_49_181
*2682 FILLER_49_193
*2683 FILLER_49_201
*2684 FILLER_49_216
*2685 FILLER_49_225
*2686 FILLER_49_236
*2687 FILLER_49_24
*2688 FILLER_49_245
*2689 FILLER_49_258
*2690 FILLER_49_270
*2691 FILLER_49_293
*2692 FILLER_49_304
*2693 FILLER_49_312
*2694 FILLER_49_32
*2695 FILLER_49_337
*2696 FILLER_49_382
*2697 FILLER_49_390
*2698 FILLER_49_393
*2699 FILLER_49_401
*2700 FILLER_49_55
*2701 FILLER_49_6
*2702 FILLER_49_72
*2703 FILLER_49_84
*2704 FILLER_49_96
*2705 FILLER_4_109
*2706 FILLER_4_121
*2707 FILLER_4_133
*2708 FILLER_4_139
*2709 FILLER_4_141
*2710 FILLER_4_15
*2711 FILLER_4_153
*2712 FILLER_4_165
*2713 FILLER_4_177
*2714 FILLER_4_189
*2715 FILLER_4_195
*2716 FILLER_4_197
*2717 FILLER_4_209
*2718 FILLER_4_221
*2719 FILLER_4_233
*2720 FILLER_4_245
*2721 FILLER_4_251
*2722 FILLER_4_253
*2723 FILLER_4_265
*2724 FILLER_4_27
*2725 FILLER_4_277
*2726 FILLER_4_289
*2727 FILLER_4_29
*2728 FILLER_4_3
*2729 FILLER_4_301
*2730 FILLER_4_307
*2731 FILLER_4_309
*2732 FILLER_4_321
*2733 FILLER_4_333
*2734 FILLER_4_345
*2735 FILLER_4_357
*2736 FILLER_4_363
*2737 FILLER_4_365
*2738 FILLER_4_377
*2739 FILLER_4_389
*2740 FILLER_4_401
*2741 FILLER_4_41
*2742 FILLER_4_53
*2743 FILLER_4_65
*2744 FILLER_4_77
*2745 FILLER_4_83
*2746 FILLER_4_85
*2747 FILLER_4_97
*2748 FILLER_50_109
*2749 FILLER_50_126
*2750 FILLER_50_138
*2751 FILLER_50_141
*2752 FILLER_50_149
*2753 FILLER_50_162
*2754 FILLER_50_174
*2755 FILLER_50_182
*2756 FILLER_50_190
*2757 FILLER_50_197
*2758 FILLER_50_209
*2759 FILLER_50_221
*2760 FILLER_50_233
*2761 FILLER_50_24
*2762 FILLER_50_245
*2763 FILLER_50_251
*2764 FILLER_50_253
*2765 FILLER_50_264
*2766 FILLER_50_276
*2767 FILLER_50_29
*2768 FILLER_50_292
*2769 FILLER_50_304
*2770 FILLER_50_309
*2771 FILLER_50_321
*2772 FILLER_50_331
*2773 FILLER_50_351
*2774 FILLER_50_363
*2775 FILLER_50_365
*2776 FILLER_50_371
*2777 FILLER_50_380
*2778 FILLER_50_388
*2779 FILLER_50_49
*2780 FILLER_50_55
*2781 FILLER_50_6
*2782 FILLER_50_69
*2783 FILLER_50_81
*2784 FILLER_50_85
*2785 FILLER_50_89
*2786 FILLER_50_97
*2787 FILLER_51_101
*2788 FILLER_51_109
*2789 FILLER_51_113
*2790 FILLER_51_119
*2791 FILLER_51_14
*2792 FILLER_51_144
*2793 FILLER_51_177
*2794 FILLER_51_198
*2795 FILLER_51_207
*2796 FILLER_51_219
*2797 FILLER_51_223
*2798 FILLER_51_225
*2799 FILLER_51_237
*2800 FILLER_51_260
*2801 FILLER_51_272
*2802 FILLER_51_277
*2803 FILLER_51_281
*2804 FILLER_51_289
*2805 FILLER_51_298
*2806 FILLER_51_306
*2807 FILLER_51_316
*2808 FILLER_51_328
*2809 FILLER_51_33
*2810 FILLER_51_337
*2811 FILLER_51_349
*2812 FILLER_51_361
*2813 FILLER_51_373
*2814 FILLER_51_385
*2815 FILLER_51_391
*2816 FILLER_51_402
*2817 FILLER_51_41
*2818 FILLER_51_51
*2819 FILLER_51_55
*2820 FILLER_51_57
*2821 FILLER_51_6
*2822 FILLER_51_65
*2823 FILLER_51_77
*2824 FILLER_51_89
*2825 FILLER_52_101
*2826 FILLER_52_111
*2827 FILLER_52_123
*2828 FILLER_52_135
*2829 FILLER_52_139
*2830 FILLER_52_141
*2831 FILLER_52_153
*2832 FILLER_52_165
*2833 FILLER_52_177
*2834 FILLER_52_185
*2835 FILLER_52_19
*2836 FILLER_52_205
*2837 FILLER_52_226
*2838 FILLER_52_231
*2839 FILLER_52_246
*2840 FILLER_52_253
*2841 FILLER_52_259
*2842 FILLER_52_263
*2843 FILLER_52_27
*2844 FILLER_52_287
*2845 FILLER_52_29
*2846 FILLER_52_309
*2847 FILLER_52_321
*2848 FILLER_52_328
*2849 FILLER_52_338
*2850 FILLER_52_350
*2851 FILLER_52_362
*2852 FILLER_52_365
*2853 FILLER_52_37
*2854 FILLER_52_373
*2855 FILLER_52_380
*2856 FILLER_52_392
*2857 FILLER_52_398
*2858 FILLER_52_59
*2859 FILLER_52_7
*2860 FILLER_52_85
*2861 FILLER_53_109
*2862 FILLER_53_113
*2863 FILLER_53_12
*2864 FILLER_53_125
*2865 FILLER_53_137
*2866 FILLER_53_149
*2867 FILLER_53_161
*2868 FILLER_53_167
*2869 FILLER_53_169
*2870 FILLER_53_181
*2871 FILLER_53_193
*2872 FILLER_53_205
*2873 FILLER_53_217
*2874 FILLER_53_223
*2875 FILLER_53_228
*2876 FILLER_53_24
*2877 FILLER_53_240
*2878 FILLER_53_246
*2879 FILLER_53_272
*2880 FILLER_53_281
*2881 FILLER_53_3
*2882 FILLER_53_306
*2883 FILLER_53_318
*2884 FILLER_53_337
*2885 FILLER_53_349
*2886 FILLER_53_36
*2887 FILLER_53_374
*2888 FILLER_53_386
*2889 FILLER_53_393
*2890 FILLER_53_57
*2891 FILLER_53_69
*2892 FILLER_53_81
*2893 FILLER_54_109
*2894 FILLER_54_121
*2895 FILLER_54_133
*2896 FILLER_54_139
*2897 FILLER_54_141
*2898 FILLER_54_154
*2899 FILLER_54_162
*2900 FILLER_54_167
*2901 FILLER_54_179
*2902 FILLER_54_18
*2903 FILLER_54_183
*2904 FILLER_54_195
*2905 FILLER_54_202
*2906 FILLER_54_214
*2907 FILLER_54_224
*2908 FILLER_54_236
*2909 FILLER_54_248
*2910 FILLER_54_253
*2911 FILLER_54_26
*2912 FILLER_54_265
*2913 FILLER_54_277
*2914 FILLER_54_289
*2915 FILLER_54_29
*2916 FILLER_54_301
*2917 FILLER_54_307
*2918 FILLER_54_309
*2919 FILLER_54_321
*2920 FILLER_54_333
*2921 FILLER_54_345
*2922 FILLER_54_357
*2923 FILLER_54_363
*2924 FILLER_54_365
*2925 FILLER_54_376
*2926 FILLER_54_405
*2927 FILLER_54_41
*2928 FILLER_54_53
*2929 FILLER_54_6
*2930 FILLER_54_65
*2931 FILLER_54_77
*2932 FILLER_54_83
*2933 FILLER_54_85
*2934 FILLER_54_97
*2935 FILLER_55_105
*2936 FILLER_55_111
*2937 FILLER_55_113
*2938 FILLER_55_125
*2939 FILLER_55_137
*2940 FILLER_55_160
*2941 FILLER_55_18
*2942 FILLER_55_184
*2943 FILLER_55_195
*2944 FILLER_55_200
*2945 FILLER_55_206
*2946 FILLER_55_220
*2947 FILLER_55_225
*2948 FILLER_55_237
*2949 FILLER_55_245
*2950 FILLER_55_249
*2951 FILLER_55_261
*2952 FILLER_55_271
*2953 FILLER_55_279
*2954 FILLER_55_281
*2955 FILLER_55_289
*2956 FILLER_55_299
*2957 FILLER_55_30
*2958 FILLER_55_311
*2959 FILLER_55_328
*2960 FILLER_55_337
*2961 FILLER_55_349
*2962 FILLER_55_361
*2963 FILLER_55_373
*2964 FILLER_55_385
*2965 FILLER_55_391
*2966 FILLER_55_393
*2967 FILLER_55_405
*2968 FILLER_55_42
*2969 FILLER_55_54
*2970 FILLER_55_57
*2971 FILLER_55_6
*2972 FILLER_55_69
*2973 FILLER_55_81
*2974 FILLER_55_93
*2975 FILLER_56_109
*2976 FILLER_56_121
*2977 FILLER_56_133
*2978 FILLER_56_139
*2979 FILLER_56_141
*2980 FILLER_56_153
*2981 FILLER_56_165
*2982 FILLER_56_177
*2983 FILLER_56_18
*2984 FILLER_56_185
*2985 FILLER_56_194
*2986 FILLER_56_197
*2987 FILLER_56_209
*2988 FILLER_56_217
*2989 FILLER_56_227
*2990 FILLER_56_239
*2991 FILLER_56_243
*2992 FILLER_56_253
*2993 FILLER_56_26
*2994 FILLER_56_265
*2995 FILLER_56_277
*2996 FILLER_56_289
*2997 FILLER_56_29
*2998 FILLER_56_301
*2999 FILLER_56_307
*3000 FILLER_56_309
*3001 FILLER_56_313
*3002 FILLER_56_327
*3003 FILLER_56_333
*3004 FILLER_56_361
*3005 FILLER_56_365
*3006 FILLER_56_377
*3007 FILLER_56_389
*3008 FILLER_56_401
*3009 FILLER_56_41
*3010 FILLER_56_53
*3011 FILLER_56_6
*3012 FILLER_56_65
*3013 FILLER_56_77
*3014 FILLER_56_83
*3015 FILLER_56_85
*3016 FILLER_56_97
*3017 FILLER_57_105
*3018 FILLER_57_111
*3019 FILLER_57_113
*3020 FILLER_57_125
*3021 FILLER_57_137
*3022 FILLER_57_149
*3023 FILLER_57_161
*3024 FILLER_57_167
*3025 FILLER_57_169
*3026 FILLER_57_18
*3027 FILLER_57_181
*3028 FILLER_57_193
*3029 FILLER_57_199
*3030 FILLER_57_208
*3031 FILLER_57_220
*3032 FILLER_57_225
*3033 FILLER_57_235
*3034 FILLER_57_241
*3035 FILLER_57_266
*3036 FILLER_57_275
*3037 FILLER_57_279
*3038 FILLER_57_281
*3039 FILLER_57_293
*3040 FILLER_57_30
*3041 FILLER_57_304
*3042 FILLER_57_313
*3043 FILLER_57_325
*3044 FILLER_57_333
*3045 FILLER_57_337
*3046 FILLER_57_349
*3047 FILLER_57_361
*3048 FILLER_57_373
*3049 FILLER_57_385
*3050 FILLER_57_391
*3051 FILLER_57_393
*3052 FILLER_57_405
*3053 FILLER_57_42
*3054 FILLER_57_54
*3055 FILLER_57_57
*3056 FILLER_57_6
*3057 FILLER_57_69
*3058 FILLER_57_81
*3059 FILLER_57_93
*3060 FILLER_58_108
*3061 FILLER_58_120
*3062 FILLER_58_132
*3063 FILLER_58_141
*3064 FILLER_58_15
*3065 FILLER_58_166
*3066 FILLER_58_185
*3067 FILLER_58_193
*3068 FILLER_58_221
*3069 FILLER_58_233
*3070 FILLER_58_245
*3071 FILLER_58_251
*3072 FILLER_58_253
*3073 FILLER_58_27
*3074 FILLER_58_281
*3075 FILLER_58_29
*3076 FILLER_58_3
*3077 FILLER_58_304
*3078 FILLER_58_309
*3079 FILLER_58_321
*3080 FILLER_58_333
*3081 FILLER_58_345
*3082 FILLER_58_357
*3083 FILLER_58_363
*3084 FILLER_58_365
*3085 FILLER_58_377
*3086 FILLER_58_389
*3087 FILLER_58_401
*3088 FILLER_58_41
*3089 FILLER_58_53
*3090 FILLER_58_65
*3091 FILLER_58_77
*3092 FILLER_58_83
*3093 FILLER_58_85
*3094 FILLER_58_97
*3095 FILLER_59_121
*3096 FILLER_59_133
*3097 FILLER_59_145
*3098 FILLER_59_15
*3099 FILLER_59_167
*3100 FILLER_59_169
*3101 FILLER_59_192
*3102 FILLER_59_204
*3103 FILLER_59_208
*3104 FILLER_59_214
*3105 FILLER_59_222
*3106 FILLER_59_234
*3107 FILLER_59_242
*3108 FILLER_59_250
*3109 FILLER_59_263
*3110 FILLER_59_27
*3111 FILLER_59_272
*3112 FILLER_59_281
*3113 FILLER_59_289
*3114 FILLER_59_298
*3115 FILLER_59_3
*3116 FILLER_59_310
*3117 FILLER_59_322
*3118 FILLER_59_334
*3119 FILLER_59_337
*3120 FILLER_59_349
*3121 FILLER_59_361
*3122 FILLER_59_373
*3123 FILLER_59_385
*3124 FILLER_59_39
*3125 FILLER_59_391
*3126 FILLER_59_393
*3127 FILLER_59_405
*3128 FILLER_59_51
*3129 FILLER_59_55
*3130 FILLER_59_57
*3131 FILLER_59_69
*3132 FILLER_59_81
*3133 FILLER_59_93
*3134 FILLER_5_105
*3135 FILLER_5_111
*3136 FILLER_5_113
*3137 FILLER_5_125
*3138 FILLER_5_137
*3139 FILLER_5_149
*3140 FILLER_5_15
*3141 FILLER_5_161
*3142 FILLER_5_167
*3143 FILLER_5_169
*3144 FILLER_5_181
*3145 FILLER_5_193
*3146 FILLER_5_205
*3147 FILLER_5_217
*3148 FILLER_5_223
*3149 FILLER_5_225
*3150 FILLER_5_237
*3151 FILLER_5_249
*3152 FILLER_5_261
*3153 FILLER_5_27
*3154 FILLER_5_273
*3155 FILLER_5_279
*3156 FILLER_5_281
*3157 FILLER_5_293
*3158 FILLER_5_3
*3159 FILLER_5_305
*3160 FILLER_5_317
*3161 FILLER_5_329
*3162 FILLER_5_335
*3163 FILLER_5_337
*3164 FILLER_5_349
*3165 FILLER_5_361
*3166 FILLER_5_373
*3167 FILLER_5_385
*3168 FILLER_5_39
*3169 FILLER_5_391
*3170 FILLER_5_393
*3171 FILLER_5_405
*3172 FILLER_5_51
*3173 FILLER_5_55
*3174 FILLER_5_57
*3175 FILLER_5_69
*3176 FILLER_5_81
*3177 FILLER_5_93
*3178 FILLER_60_101
*3179 FILLER_60_108
*3180 FILLER_60_120
*3181 FILLER_60_132
*3182 FILLER_60_141
*3183 FILLER_60_15
*3184 FILLER_60_153
*3185 FILLER_60_165
*3186 FILLER_60_185
*3187 FILLER_60_193
*3188 FILLER_60_197
*3189 FILLER_60_209
*3190 FILLER_60_217
*3191 FILLER_60_24
*3192 FILLER_60_244
*3193 FILLER_60_253
*3194 FILLER_60_265
*3195 FILLER_60_277
*3196 FILLER_60_289
*3197 FILLER_60_29
*3198 FILLER_60_297
*3199 FILLER_60_3
*3200 FILLER_60_305
*3201 FILLER_60_309
*3202 FILLER_60_321
*3203 FILLER_60_333
*3204 FILLER_60_345
*3205 FILLER_60_357
*3206 FILLER_60_363
*3207 FILLER_60_365
*3208 FILLER_60_377
*3209 FILLER_60_389
*3210 FILLER_60_401
*3211 FILLER_60_41
*3212 FILLER_60_53
*3213 FILLER_60_65
*3214 FILLER_60_77
*3215 FILLER_60_83
*3216 FILLER_60_85
*3217 FILLER_60_97
*3218 FILLER_61_105
*3219 FILLER_61_111
*3220 FILLER_61_113
*3221 FILLER_61_125
*3222 FILLER_61_137
*3223 FILLER_61_149
*3224 FILLER_61_15
*3225 FILLER_61_161
*3226 FILLER_61_167
*3227 FILLER_61_169
*3228 FILLER_61_177
*3229 FILLER_61_188
*3230 FILLER_61_200
*3231 FILLER_61_225
*3232 FILLER_61_237
*3233 FILLER_61_243
*3234 FILLER_61_261
*3235 FILLER_61_265
*3236 FILLER_61_27
*3237 FILLER_61_275
*3238 FILLER_61_279
*3239 FILLER_61_281
*3240 FILLER_61_293
*3241 FILLER_61_3
*3242 FILLER_61_315
*3243 FILLER_61_327
*3244 FILLER_61_335
*3245 FILLER_61_337
*3246 FILLER_61_349
*3247 FILLER_61_361
*3248 FILLER_61_373
*3249 FILLER_61_385
*3250 FILLER_61_39
*3251 FILLER_61_391
*3252 FILLER_61_393
*3253 FILLER_61_405
*3254 FILLER_61_51
*3255 FILLER_61_55
*3256 FILLER_61_57
*3257 FILLER_61_69
*3258 FILLER_61_81
*3259 FILLER_61_93
*3260 FILLER_62_109
*3261 FILLER_62_121
*3262 FILLER_62_133
*3263 FILLER_62_139
*3264 FILLER_62_141
*3265 FILLER_62_15
*3266 FILLER_62_153
*3267 FILLER_62_165
*3268 FILLER_62_173
*3269 FILLER_62_213
*3270 FILLER_62_226
*3271 FILLER_62_234
*3272 FILLER_62_262
*3273 FILLER_62_268
*3274 FILLER_62_27
*3275 FILLER_62_29
*3276 FILLER_62_293
*3277 FILLER_62_3
*3278 FILLER_62_325
*3279 FILLER_62_337
*3280 FILLER_62_349
*3281 FILLER_62_361
*3282 FILLER_62_365
*3283 FILLER_62_377
*3284 FILLER_62_389
*3285 FILLER_62_401
*3286 FILLER_62_41
*3287 FILLER_62_53
*3288 FILLER_62_65
*3289 FILLER_62_77
*3290 FILLER_62_83
*3291 FILLER_62_85
*3292 FILLER_62_97
*3293 FILLER_63_105
*3294 FILLER_63_111
*3295 FILLER_63_113
*3296 FILLER_63_125
*3297 FILLER_63_137
*3298 FILLER_63_149
*3299 FILLER_63_15
*3300 FILLER_63_161
*3301 FILLER_63_167
*3302 FILLER_63_169
*3303 FILLER_63_189
*3304 FILLER_63_201
*3305 FILLER_63_218
*3306 FILLER_63_249
*3307 FILLER_63_253
*3308 FILLER_63_27
*3309 FILLER_63_278
*3310 FILLER_63_281
*3311 FILLER_63_293
*3312 FILLER_63_3
*3313 FILLER_63_305
*3314 FILLER_63_317
*3315 FILLER_63_329
*3316 FILLER_63_335
*3317 FILLER_63_337
*3318 FILLER_63_349
*3319 FILLER_63_361
*3320 FILLER_63_373
*3321 FILLER_63_385
*3322 FILLER_63_39
*3323 FILLER_63_391
*3324 FILLER_63_393
*3325 FILLER_63_405
*3326 FILLER_63_51
*3327 FILLER_63_55
*3328 FILLER_63_57
*3329 FILLER_63_69
*3330 FILLER_63_81
*3331 FILLER_63_93
*3332 FILLER_64_105
*3333 FILLER_64_113
*3334 FILLER_64_125
*3335 FILLER_64_137
*3336 FILLER_64_141
*3337 FILLER_64_15
*3338 FILLER_64_153
*3339 FILLER_64_161
*3340 FILLER_64_167
*3341 FILLER_64_169
*3342 FILLER_64_181
*3343 FILLER_64_189
*3344 FILLER_64_195
*3345 FILLER_64_197
*3346 FILLER_64_209
*3347 FILLER_64_217
*3348 FILLER_64_223
*3349 FILLER_64_225
*3350 FILLER_64_231
*3351 FILLER_64_238
*3352 FILLER_64_250
*3353 FILLER_64_253
*3354 FILLER_64_268
*3355 FILLER_64_27
*3356 FILLER_64_281
*3357 FILLER_64_29
*3358 FILLER_64_293
*3359 FILLER_64_3
*3360 FILLER_64_303
*3361 FILLER_64_307
*3362 FILLER_64_309
*3363 FILLER_64_315
*3364 FILLER_64_327
*3365 FILLER_64_335
*3366 FILLER_64_337
*3367 FILLER_64_349
*3368 FILLER_64_361
*3369 FILLER_64_365
*3370 FILLER_64_377
*3371 FILLER_64_389
*3372 FILLER_64_393
*3373 FILLER_64_405
*3374 FILLER_64_41
*3375 FILLER_64_53
*3376 FILLER_64_57
*3377 FILLER_64_69
*3378 FILLER_64_81
*3379 FILLER_64_85
*3380 FILLER_64_97
*3381 FILLER_6_109
*3382 FILLER_6_121
*3383 FILLER_6_133
*3384 FILLER_6_139
*3385 FILLER_6_141
*3386 FILLER_6_15
*3387 FILLER_6_153
*3388 FILLER_6_165
*3389 FILLER_6_177
*3390 FILLER_6_181
*3391 FILLER_6_189
*3392 FILLER_6_195
*3393 FILLER_6_213
*3394 FILLER_6_219
*3395 FILLER_6_245
*3396 FILLER_6_251
*3397 FILLER_6_253
*3398 FILLER_6_265
*3399 FILLER_6_27
*3400 FILLER_6_277
*3401 FILLER_6_289
*3402 FILLER_6_29
*3403 FILLER_6_3
*3404 FILLER_6_301
*3405 FILLER_6_307
*3406 FILLER_6_309
*3407 FILLER_6_321
*3408 FILLER_6_333
*3409 FILLER_6_345
*3410 FILLER_6_357
*3411 FILLER_6_363
*3412 FILLER_6_365
*3413 FILLER_6_377
*3414 FILLER_6_389
*3415 FILLER_6_401
*3416 FILLER_6_41
*3417 FILLER_6_53
*3418 FILLER_6_65
*3419 FILLER_6_77
*3420 FILLER_6_83
*3421 FILLER_6_85
*3422 FILLER_6_97
*3423 FILLER_7_103
*3424 FILLER_7_111
*3425 FILLER_7_113
*3426 FILLER_7_125
*3427 FILLER_7_137
*3428 FILLER_7_145
*3429 FILLER_7_149
*3430 FILLER_7_15
*3431 FILLER_7_157
*3432 FILLER_7_185
*3433 FILLER_7_193
*3434 FILLER_7_203
*3435 FILLER_7_215
*3436 FILLER_7_223
*3437 FILLER_7_225
*3438 FILLER_7_237
*3439 FILLER_7_247
*3440 FILLER_7_259
*3441 FILLER_7_27
*3442 FILLER_7_271
*3443 FILLER_7_279
*3444 FILLER_7_281
*3445 FILLER_7_293
*3446 FILLER_7_3
*3447 FILLER_7_305
*3448 FILLER_7_317
*3449 FILLER_7_329
*3450 FILLER_7_335
*3451 FILLER_7_337
*3452 FILLER_7_349
*3453 FILLER_7_361
*3454 FILLER_7_373
*3455 FILLER_7_385
*3456 FILLER_7_39
*3457 FILLER_7_391
*3458 FILLER_7_393
*3459 FILLER_7_405
*3460 FILLER_7_51
*3461 FILLER_7_55
*3462 FILLER_7_57
*3463 FILLER_7_69
*3464 FILLER_7_86
*3465 FILLER_8_113
*3466 FILLER_8_125
*3467 FILLER_8_131
*3468 FILLER_8_15
*3469 FILLER_8_158
*3470 FILLER_8_170
*3471 FILLER_8_186
*3472 FILLER_8_194
*3473 FILLER_8_197
*3474 FILLER_8_212
*3475 FILLER_8_216
*3476 FILLER_8_221
*3477 FILLER_8_233
*3478 FILLER_8_245
*3479 FILLER_8_251
*3480 FILLER_8_253
*3481 FILLER_8_265
*3482 FILLER_8_27
*3483 FILLER_8_277
*3484 FILLER_8_289
*3485 FILLER_8_29
*3486 FILLER_8_3
*3487 FILLER_8_301
*3488 FILLER_8_307
*3489 FILLER_8_309
*3490 FILLER_8_321
*3491 FILLER_8_333
*3492 FILLER_8_345
*3493 FILLER_8_357
*3494 FILLER_8_363
*3495 FILLER_8_365
*3496 FILLER_8_377
*3497 FILLER_8_389
*3498 FILLER_8_401
*3499 FILLER_8_41
*3500 FILLER_8_53
*3501 FILLER_8_65
*3502 FILLER_8_85
*3503 FILLER_9_103
*3504 FILLER_9_111
*3505 FILLER_9_113
*3506 FILLER_9_125
*3507 FILLER_9_137
*3508 FILLER_9_149
*3509 FILLER_9_15
*3510 FILLER_9_160
*3511 FILLER_9_169
*3512 FILLER_9_181
*3513 FILLER_9_193
*3514 FILLER_9_203
*3515 FILLER_9_211
*3516 FILLER_9_217
*3517 FILLER_9_223
*3518 FILLER_9_232
*3519 FILLER_9_245
*3520 FILLER_9_257
*3521 FILLER_9_269
*3522 FILLER_9_27
*3523 FILLER_9_277
*3524 FILLER_9_281
*3525 FILLER_9_293
*3526 FILLER_9_3
*3527 FILLER_9_305
*3528 FILLER_9_317
*3529 FILLER_9_329
*3530 FILLER_9_335
*3531 FILLER_9_337
*3532 FILLER_9_349
*3533 FILLER_9_361
*3534 FILLER_9_373
*3535 FILLER_9_385
*3536 FILLER_9_39
*3537 FILLER_9_391
*3538 FILLER_9_393
*3539 FILLER_9_405
*3540 FILLER_9_51
*3541 FILLER_9_55
*3542 FILLER_9_57
*3543 FILLER_9_69
*3544 FILLER_9_86
*3545 FILLER_9_98
*3546 PHY_EDGE_ROW_0_Left_65
*3547 PHY_EDGE_ROW_0_Right_0
*3548 PHY_EDGE_ROW_10_Left_75
*3549 PHY_EDGE_ROW_10_Right_10
*3550 PHY_EDGE_ROW_11_Left_76
*3551 PHY_EDGE_ROW_11_Right_11
*3552 PHY_EDGE_ROW_12_Left_77
*3553 PHY_EDGE_ROW_12_Right_12
*3554 PHY_EDGE_ROW_13_Left_78
*3555 PHY_EDGE_ROW_13_Right_13
*3556 PHY_EDGE_ROW_14_Left_79
*3557 PHY_EDGE_ROW_14_Right_14
*3558 PHY_EDGE_ROW_15_Left_80
*3559 PHY_EDGE_ROW_15_Right_15
*3560 PHY_EDGE_ROW_16_Left_81
*3561 PHY_EDGE_ROW_16_Right_16
*3562 PHY_EDGE_ROW_17_Left_82
*3563 PHY_EDGE_ROW_17_Right_17
*3564 PHY_EDGE_ROW_18_Left_83
*3565 PHY_EDGE_ROW_18_Right_18
*3566 PHY_EDGE_ROW_19_Left_84
*3567 PHY_EDGE_ROW_19_Right_19
*3568 PHY_EDGE_ROW_1_Left_66
*3569 PHY_EDGE_ROW_1_Right_1
*3570 PHY_EDGE_ROW_20_Left_85
*3571 PHY_EDGE_ROW_20_Right_20
*3572 PHY_EDGE_ROW_21_Left_86
*3573 PHY_EDGE_ROW_21_Right_21
*3574 PHY_EDGE_ROW_22_Left_87
*3575 PHY_EDGE_ROW_22_Right_22
*3576 PHY_EDGE_ROW_23_Left_88
*3577 PHY_EDGE_ROW_23_Right_23
*3578 PHY_EDGE_ROW_24_Left_89
*3579 PHY_EDGE_ROW_24_Right_24
*3580 PHY_EDGE_ROW_25_Left_90
*3581 PHY_EDGE_ROW_25_Right_25
*3582 PHY_EDGE_ROW_26_Left_91
*3583 PHY_EDGE_ROW_26_Right_26
*3584 PHY_EDGE_ROW_27_Left_92
*3585 PHY_EDGE_ROW_27_Right_27
*3586 PHY_EDGE_ROW_28_Left_93
*3587 PHY_EDGE_ROW_28_Right_28
*3588 PHY_EDGE_ROW_29_Left_94
*3589 PHY_EDGE_ROW_29_Right_29
*3590 PHY_EDGE_ROW_2_Left_67
*3591 PHY_EDGE_ROW_2_Right_2
*3592 PHY_EDGE_ROW_30_Left_95
*3593 PHY_EDGE_ROW_30_Right_30
*3594 PHY_EDGE_ROW_31_Left_96
*3595 PHY_EDGE_ROW_31_Right_31
*3596 PHY_EDGE_ROW_32_Left_97
*3597 PHY_EDGE_ROW_32_Right_32
*3598 PHY_EDGE_ROW_33_Left_98
*3599 PHY_EDGE_ROW_33_Right_33
*3600 PHY_EDGE_ROW_34_Left_99
*3601 PHY_EDGE_ROW_34_Right_34
*3602 PHY_EDGE_ROW_35_Left_100
*3603 PHY_EDGE_ROW_35_Right_35
*3604 PHY_EDGE_ROW_36_Left_101
*3605 PHY_EDGE_ROW_36_Right_36
*3606 PHY_EDGE_ROW_37_Left_102
*3607 PHY_EDGE_ROW_37_Right_37
*3608 PHY_EDGE_ROW_38_Left_103
*3609 PHY_EDGE_ROW_38_Right_38
*3610 PHY_EDGE_ROW_39_Left_104
*3611 PHY_EDGE_ROW_39_Right_39
*3612 PHY_EDGE_ROW_3_Left_68
*3613 PHY_EDGE_ROW_3_Right_3
*3614 PHY_EDGE_ROW_40_Left_105
*3615 PHY_EDGE_ROW_40_Right_40
*3616 PHY_EDGE_ROW_41_Left_106
*3617 PHY_EDGE_ROW_41_Right_41
*3618 PHY_EDGE_ROW_42_Left_107
*3619 PHY_EDGE_ROW_42_Right_42
*3620 PHY_EDGE_ROW_43_Left_108
*3621 PHY_EDGE_ROW_43_Right_43
*3622 PHY_EDGE_ROW_44_Left_109
*3623 PHY_EDGE_ROW_44_Right_44
*3624 PHY_EDGE_ROW_45_Left_110
*3625 PHY_EDGE_ROW_45_Right_45
*3626 PHY_EDGE_ROW_46_Left_111
*3627 PHY_EDGE_ROW_46_Right_46
*3628 PHY_EDGE_ROW_47_Left_112
*3629 PHY_EDGE_ROW_47_Right_47
*3630 PHY_EDGE_ROW_48_Left_113
*3631 PHY_EDGE_ROW_48_Right_48
*3632 PHY_EDGE_ROW_49_Left_114
*3633 PHY_EDGE_ROW_49_Right_49
*3634 PHY_EDGE_ROW_4_Left_69
*3635 PHY_EDGE_ROW_4_Right_4
*3636 PHY_EDGE_ROW_50_Left_115
*3637 PHY_EDGE_ROW_50_Right_50
*3638 PHY_EDGE_ROW_51_Left_116
*3639 PHY_EDGE_ROW_51_Right_51
*3640 PHY_EDGE_ROW_52_Left_117
*3641 PHY_EDGE_ROW_52_Right_52
*3642 PHY_EDGE_ROW_53_Left_118
*3643 PHY_EDGE_ROW_53_Right_53
*3644 PHY_EDGE_ROW_54_Left_119
*3645 PHY_EDGE_ROW_54_Right_54
*3646 PHY_EDGE_ROW_55_Left_120
*3647 PHY_EDGE_ROW_55_Right_55
*3648 PHY_EDGE_ROW_56_Left_121
*3649 PHY_EDGE_ROW_56_Right_56
*3650 PHY_EDGE_ROW_57_Left_122
*3651 PHY_EDGE_ROW_57_Right_57
*3652 PHY_EDGE_ROW_58_Left_123
*3653 PHY_EDGE_ROW_58_Right_58
*3654 PHY_EDGE_ROW_59_Left_124
*3655 PHY_EDGE_ROW_59_Right_59
*3656 PHY_EDGE_ROW_5_Left_70
*3657 PHY_EDGE_ROW_5_Right_5
*3658 PHY_EDGE_ROW_60_Left_125
*3659 PHY_EDGE_ROW_60_Right_60
*3660 PHY_EDGE_ROW_61_Left_126
*3661 PHY_EDGE_ROW_61_Right_61
*3662 PHY_EDGE_ROW_62_Left_127
*3663 PHY_EDGE_ROW_62_Right_62
*3664 PHY_EDGE_ROW_63_Left_128
*3665 PHY_EDGE_ROW_63_Right_63
*3666 PHY_EDGE_ROW_64_Left_129
*3667 PHY_EDGE_ROW_64_Right_64
*3668 PHY_EDGE_ROW_6_Left_71
*3669 PHY_EDGE_ROW_6_Right_6
*3670 PHY_EDGE_ROW_7_Left_72
*3671 PHY_EDGE_ROW_7_Right_7
*3672 PHY_EDGE_ROW_8_Left_73
*3673 PHY_EDGE_ROW_8_Right_8
*3674 PHY_EDGE_ROW_9_Left_74
*3675 PHY_EDGE_ROW_9_Right_9
*3676 TAP_TAPCELL_ROW_0_130
*3677 TAP_TAPCELL_ROW_0_131
*3678 TAP_TAPCELL_ROW_0_132
*3679 TAP_TAPCELL_ROW_0_133
*3680 TAP_TAPCELL_ROW_0_134
*3681 TAP_TAPCELL_ROW_0_135
*3682 TAP_TAPCELL_ROW_0_136
*3683 TAP_TAPCELL_ROW_0_137
*3684 TAP_TAPCELL_ROW_0_138
*3685 TAP_TAPCELL_ROW_0_139
*3686 TAP_TAPCELL_ROW_0_140
*3687 TAP_TAPCELL_ROW_0_141
*3688 TAP_TAPCELL_ROW_0_142
*3689 TAP_TAPCELL_ROW_0_143
*3690 TAP_TAPCELL_ROW_10_207
*3691 TAP_TAPCELL_ROW_10_208
*3692 TAP_TAPCELL_ROW_10_209
*3693 TAP_TAPCELL_ROW_10_210
*3694 TAP_TAPCELL_ROW_10_211
*3695 TAP_TAPCELL_ROW_10_212
*3696 TAP_TAPCELL_ROW_10_213
*3697 TAP_TAPCELL_ROW_11_214
*3698 TAP_TAPCELL_ROW_11_215
*3699 TAP_TAPCELL_ROW_11_216
*3700 TAP_TAPCELL_ROW_11_217
*3701 TAP_TAPCELL_ROW_11_218
*3702 TAP_TAPCELL_ROW_11_219
*3703 TAP_TAPCELL_ROW_11_220
*3704 TAP_TAPCELL_ROW_12_221
*3705 TAP_TAPCELL_ROW_12_222
*3706 TAP_TAPCELL_ROW_12_223
*3707 TAP_TAPCELL_ROW_12_224
*3708 TAP_TAPCELL_ROW_12_225
*3709 TAP_TAPCELL_ROW_12_226
*3710 TAP_TAPCELL_ROW_12_227
*3711 TAP_TAPCELL_ROW_13_228
*3712 TAP_TAPCELL_ROW_13_229
*3713 TAP_TAPCELL_ROW_13_230
*3714 TAP_TAPCELL_ROW_13_231
*3715 TAP_TAPCELL_ROW_13_232
*3716 TAP_TAPCELL_ROW_13_233
*3717 TAP_TAPCELL_ROW_13_234
*3718 TAP_TAPCELL_ROW_14_235
*3719 TAP_TAPCELL_ROW_14_236
*3720 TAP_TAPCELL_ROW_14_237
*3721 TAP_TAPCELL_ROW_14_238
*3722 TAP_TAPCELL_ROW_14_239
*3723 TAP_TAPCELL_ROW_14_240
*3724 TAP_TAPCELL_ROW_14_241
*3725 TAP_TAPCELL_ROW_15_242
*3726 TAP_TAPCELL_ROW_15_243
*3727 TAP_TAPCELL_ROW_15_244
*3728 TAP_TAPCELL_ROW_15_245
*3729 TAP_TAPCELL_ROW_15_246
*3730 TAP_TAPCELL_ROW_15_247
*3731 TAP_TAPCELL_ROW_15_248
*3732 TAP_TAPCELL_ROW_16_249
*3733 TAP_TAPCELL_ROW_16_250
*3734 TAP_TAPCELL_ROW_16_251
*3735 TAP_TAPCELL_ROW_16_252
*3736 TAP_TAPCELL_ROW_16_253
*3737 TAP_TAPCELL_ROW_16_254
*3738 TAP_TAPCELL_ROW_16_255
*3739 TAP_TAPCELL_ROW_17_256
*3740 TAP_TAPCELL_ROW_17_257
*3741 TAP_TAPCELL_ROW_17_258
*3742 TAP_TAPCELL_ROW_17_259
*3743 TAP_TAPCELL_ROW_17_260
*3744 TAP_TAPCELL_ROW_17_261
*3745 TAP_TAPCELL_ROW_17_262
*3746 TAP_TAPCELL_ROW_18_263
*3747 TAP_TAPCELL_ROW_18_264
*3748 TAP_TAPCELL_ROW_18_265
*3749 TAP_TAPCELL_ROW_18_266
*3750 TAP_TAPCELL_ROW_18_267
*3751 TAP_TAPCELL_ROW_18_268
*3752 TAP_TAPCELL_ROW_18_269
*3753 TAP_TAPCELL_ROW_19_270
*3754 TAP_TAPCELL_ROW_19_271
*3755 TAP_TAPCELL_ROW_19_272
*3756 TAP_TAPCELL_ROW_19_273
*3757 TAP_TAPCELL_ROW_19_274
*3758 TAP_TAPCELL_ROW_19_275
*3759 TAP_TAPCELL_ROW_19_276
*3760 TAP_TAPCELL_ROW_1_144
*3761 TAP_TAPCELL_ROW_1_145
*3762 TAP_TAPCELL_ROW_1_146
*3763 TAP_TAPCELL_ROW_1_147
*3764 TAP_TAPCELL_ROW_1_148
*3765 TAP_TAPCELL_ROW_1_149
*3766 TAP_TAPCELL_ROW_1_150
*3767 TAP_TAPCELL_ROW_20_277
*3768 TAP_TAPCELL_ROW_20_278
*3769 TAP_TAPCELL_ROW_20_279
*3770 TAP_TAPCELL_ROW_20_280
*3771 TAP_TAPCELL_ROW_20_281
*3772 TAP_TAPCELL_ROW_20_282
*3773 TAP_TAPCELL_ROW_20_283
*3774 TAP_TAPCELL_ROW_21_284
*3775 TAP_TAPCELL_ROW_21_285
*3776 TAP_TAPCELL_ROW_21_286
*3777 TAP_TAPCELL_ROW_21_287
*3778 TAP_TAPCELL_ROW_21_288
*3779 TAP_TAPCELL_ROW_21_289
*3780 TAP_TAPCELL_ROW_21_290
*3781 TAP_TAPCELL_ROW_22_291
*3782 TAP_TAPCELL_ROW_22_292
*3783 TAP_TAPCELL_ROW_22_293
*3784 TAP_TAPCELL_ROW_22_294
*3785 TAP_TAPCELL_ROW_22_295
*3786 TAP_TAPCELL_ROW_22_296
*3787 TAP_TAPCELL_ROW_22_297
*3788 TAP_TAPCELL_ROW_23_298
*3789 TAP_TAPCELL_ROW_23_299
*3790 TAP_TAPCELL_ROW_23_300
*3791 TAP_TAPCELL_ROW_23_301
*3792 TAP_TAPCELL_ROW_23_302
*3793 TAP_TAPCELL_ROW_23_303
*3794 TAP_TAPCELL_ROW_23_304
*3795 TAP_TAPCELL_ROW_24_305
*3796 TAP_TAPCELL_ROW_24_306
*3797 TAP_TAPCELL_ROW_24_307
*3798 TAP_TAPCELL_ROW_24_308
*3799 TAP_TAPCELL_ROW_24_309
*3800 TAP_TAPCELL_ROW_24_310
*3801 TAP_TAPCELL_ROW_24_311
*3802 TAP_TAPCELL_ROW_25_312
*3803 TAP_TAPCELL_ROW_25_313
*3804 TAP_TAPCELL_ROW_25_314
*3805 TAP_TAPCELL_ROW_25_315
*3806 TAP_TAPCELL_ROW_25_316
*3807 TAP_TAPCELL_ROW_25_317
*3808 TAP_TAPCELL_ROW_25_318
*3809 TAP_TAPCELL_ROW_26_319
*3810 TAP_TAPCELL_ROW_26_320
*3811 TAP_TAPCELL_ROW_26_321
*3812 TAP_TAPCELL_ROW_26_322
*3813 TAP_TAPCELL_ROW_26_323
*3814 TAP_TAPCELL_ROW_26_324
*3815 TAP_TAPCELL_ROW_26_325
*3816 TAP_TAPCELL_ROW_27_326
*3817 TAP_TAPCELL_ROW_27_327
*3818 TAP_TAPCELL_ROW_27_328
*3819 TAP_TAPCELL_ROW_27_329
*3820 TAP_TAPCELL_ROW_27_330
*3821 TAP_TAPCELL_ROW_27_331
*3822 TAP_TAPCELL_ROW_27_332
*3823 TAP_TAPCELL_ROW_28_333
*3824 TAP_TAPCELL_ROW_28_334
*3825 TAP_TAPCELL_ROW_28_335
*3826 TAP_TAPCELL_ROW_28_336
*3827 TAP_TAPCELL_ROW_28_337
*3828 TAP_TAPCELL_ROW_28_338
*3829 TAP_TAPCELL_ROW_28_339
*3830 TAP_TAPCELL_ROW_29_340
*3831 TAP_TAPCELL_ROW_29_341
*3832 TAP_TAPCELL_ROW_29_342
*3833 TAP_TAPCELL_ROW_29_343
*3834 TAP_TAPCELL_ROW_29_344
*3835 TAP_TAPCELL_ROW_29_345
*3836 TAP_TAPCELL_ROW_29_346
*3837 TAP_TAPCELL_ROW_2_151
*3838 TAP_TAPCELL_ROW_2_152
*3839 TAP_TAPCELL_ROW_2_153
*3840 TAP_TAPCELL_ROW_2_154
*3841 TAP_TAPCELL_ROW_2_155
*3842 TAP_TAPCELL_ROW_2_156
*3843 TAP_TAPCELL_ROW_2_157
*3844 TAP_TAPCELL_ROW_30_347
*3845 TAP_TAPCELL_ROW_30_348
*3846 TAP_TAPCELL_ROW_30_349
*3847 TAP_TAPCELL_ROW_30_350
*3848 TAP_TAPCELL_ROW_30_351
*3849 TAP_TAPCELL_ROW_30_352
*3850 TAP_TAPCELL_ROW_30_353
*3851 TAP_TAPCELL_ROW_31_354
*3852 TAP_TAPCELL_ROW_31_355
*3853 TAP_TAPCELL_ROW_31_356
*3854 TAP_TAPCELL_ROW_31_357
*3855 TAP_TAPCELL_ROW_31_358
*3856 TAP_TAPCELL_ROW_31_359
*3857 TAP_TAPCELL_ROW_31_360
*3858 TAP_TAPCELL_ROW_32_361
*3859 TAP_TAPCELL_ROW_32_362
*3860 TAP_TAPCELL_ROW_32_363
*3861 TAP_TAPCELL_ROW_32_364
*3862 TAP_TAPCELL_ROW_32_365
*3863 TAP_TAPCELL_ROW_32_366
*3864 TAP_TAPCELL_ROW_32_367
*3865 TAP_TAPCELL_ROW_33_368
*3866 TAP_TAPCELL_ROW_33_369
*3867 TAP_TAPCELL_ROW_33_370
*3868 TAP_TAPCELL_ROW_33_371
*3869 TAP_TAPCELL_ROW_33_372
*3870 TAP_TAPCELL_ROW_33_373
*3871 TAP_TAPCELL_ROW_33_374
*3872 TAP_TAPCELL_ROW_34_375
*3873 TAP_TAPCELL_ROW_34_376
*3874 TAP_TAPCELL_ROW_34_377
*3875 TAP_TAPCELL_ROW_34_378
*3876 TAP_TAPCELL_ROW_34_379
*3877 TAP_TAPCELL_ROW_34_380
*3878 TAP_TAPCELL_ROW_34_381
*3879 TAP_TAPCELL_ROW_35_382
*3880 TAP_TAPCELL_ROW_35_383
*3881 TAP_TAPCELL_ROW_35_384
*3882 TAP_TAPCELL_ROW_35_385
*3883 TAP_TAPCELL_ROW_35_386
*3884 TAP_TAPCELL_ROW_35_387
*3885 TAP_TAPCELL_ROW_35_388
*3886 TAP_TAPCELL_ROW_36_389
*3887 TAP_TAPCELL_ROW_36_390
*3888 TAP_TAPCELL_ROW_36_391
*3889 TAP_TAPCELL_ROW_36_392
*3890 TAP_TAPCELL_ROW_36_393
*3891 TAP_TAPCELL_ROW_36_394
*3892 TAP_TAPCELL_ROW_36_395
*3893 TAP_TAPCELL_ROW_37_396
*3894 TAP_TAPCELL_ROW_37_397
*3895 TAP_TAPCELL_ROW_37_398
*3896 TAP_TAPCELL_ROW_37_399
*3897 TAP_TAPCELL_ROW_37_400
*3898 TAP_TAPCELL_ROW_37_401
*3899 TAP_TAPCELL_ROW_37_402
*3900 TAP_TAPCELL_ROW_38_403
*3901 TAP_TAPCELL_ROW_38_404
*3902 TAP_TAPCELL_ROW_38_405
*3903 TAP_TAPCELL_ROW_38_406
*3904 TAP_TAPCELL_ROW_38_407
*3905 TAP_TAPCELL_ROW_38_408
*3906 TAP_TAPCELL_ROW_38_409
*3907 TAP_TAPCELL_ROW_39_410
*3908 TAP_TAPCELL_ROW_39_411
*3909 TAP_TAPCELL_ROW_39_412
*3910 TAP_TAPCELL_ROW_39_413
*3911 TAP_TAPCELL_ROW_39_414
*3912 TAP_TAPCELL_ROW_39_415
*3913 TAP_TAPCELL_ROW_39_416
*3914 TAP_TAPCELL_ROW_3_158
*3915 TAP_TAPCELL_ROW_3_159
*3916 TAP_TAPCELL_ROW_3_160
*3917 TAP_TAPCELL_ROW_3_161
*3918 TAP_TAPCELL_ROW_3_162
*3919 TAP_TAPCELL_ROW_3_163
*3920 TAP_TAPCELL_ROW_3_164
*3921 TAP_TAPCELL_ROW_40_417
*3922 TAP_TAPCELL_ROW_40_418
*3923 TAP_TAPCELL_ROW_40_419
*3924 TAP_TAPCELL_ROW_40_420
*3925 TAP_TAPCELL_ROW_40_421
*3926 TAP_TAPCELL_ROW_40_422
*3927 TAP_TAPCELL_ROW_40_423
*3928 TAP_TAPCELL_ROW_41_424
*3929 TAP_TAPCELL_ROW_41_425
*3930 TAP_TAPCELL_ROW_41_426
*3931 TAP_TAPCELL_ROW_41_427
*3932 TAP_TAPCELL_ROW_41_428
*3933 TAP_TAPCELL_ROW_41_429
*3934 TAP_TAPCELL_ROW_41_430
*3935 TAP_TAPCELL_ROW_42_431
*3936 TAP_TAPCELL_ROW_42_432
*3937 TAP_TAPCELL_ROW_42_433
*3938 TAP_TAPCELL_ROW_42_434
*3939 TAP_TAPCELL_ROW_42_435
*3940 TAP_TAPCELL_ROW_42_436
*3941 TAP_TAPCELL_ROW_42_437
*3942 TAP_TAPCELL_ROW_43_438
*3943 TAP_TAPCELL_ROW_43_439
*3944 TAP_TAPCELL_ROW_43_440
*3945 TAP_TAPCELL_ROW_43_441
*3946 TAP_TAPCELL_ROW_43_442
*3947 TAP_TAPCELL_ROW_43_443
*3948 TAP_TAPCELL_ROW_43_444
*3949 TAP_TAPCELL_ROW_44_445
*3950 TAP_TAPCELL_ROW_44_446
*3951 TAP_TAPCELL_ROW_44_447
*3952 TAP_TAPCELL_ROW_44_448
*3953 TAP_TAPCELL_ROW_44_449
*3954 TAP_TAPCELL_ROW_44_450
*3955 TAP_TAPCELL_ROW_44_451
*3956 TAP_TAPCELL_ROW_45_452
*3957 TAP_TAPCELL_ROW_45_453
*3958 TAP_TAPCELL_ROW_45_454
*3959 TAP_TAPCELL_ROW_45_455
*3960 TAP_TAPCELL_ROW_45_456
*3961 TAP_TAPCELL_ROW_45_457
*3962 TAP_TAPCELL_ROW_45_458
*3963 TAP_TAPCELL_ROW_46_459
*3964 TAP_TAPCELL_ROW_46_460
*3965 TAP_TAPCELL_ROW_46_461
*3966 TAP_TAPCELL_ROW_46_462
*3967 TAP_TAPCELL_ROW_46_463
*3968 TAP_TAPCELL_ROW_46_464
*3969 TAP_TAPCELL_ROW_46_465
*3970 TAP_TAPCELL_ROW_47_466
*3971 TAP_TAPCELL_ROW_47_467
*3972 TAP_TAPCELL_ROW_47_468
*3973 TAP_TAPCELL_ROW_47_469
*3974 TAP_TAPCELL_ROW_47_470
*3975 TAP_TAPCELL_ROW_47_471
*3976 TAP_TAPCELL_ROW_47_472
*3977 TAP_TAPCELL_ROW_48_473
*3978 TAP_TAPCELL_ROW_48_474
*3979 TAP_TAPCELL_ROW_48_475
*3980 TAP_TAPCELL_ROW_48_476
*3981 TAP_TAPCELL_ROW_48_477
*3982 TAP_TAPCELL_ROW_48_478
*3983 TAP_TAPCELL_ROW_48_479
*3984 TAP_TAPCELL_ROW_49_480
*3985 TAP_TAPCELL_ROW_49_481
*3986 TAP_TAPCELL_ROW_49_482
*3987 TAP_TAPCELL_ROW_49_483
*3988 TAP_TAPCELL_ROW_49_484
*3989 TAP_TAPCELL_ROW_49_485
*3990 TAP_TAPCELL_ROW_49_486
*3991 TAP_TAPCELL_ROW_4_165
*3992 TAP_TAPCELL_ROW_4_166
*3993 TAP_TAPCELL_ROW_4_167
*3994 TAP_TAPCELL_ROW_4_168
*3995 TAP_TAPCELL_ROW_4_169
*3996 TAP_TAPCELL_ROW_4_170
*3997 TAP_TAPCELL_ROW_4_171
*3998 TAP_TAPCELL_ROW_50_487
*3999 TAP_TAPCELL_ROW_50_488
*4000 TAP_TAPCELL_ROW_50_489
*4001 TAP_TAPCELL_ROW_50_490
*4002 TAP_TAPCELL_ROW_50_491
*4003 TAP_TAPCELL_ROW_50_492
*4004 TAP_TAPCELL_ROW_50_493
*4005 TAP_TAPCELL_ROW_51_494
*4006 TAP_TAPCELL_ROW_51_495
*4007 TAP_TAPCELL_ROW_51_496
*4008 TAP_TAPCELL_ROW_51_497
*4009 TAP_TAPCELL_ROW_51_498
*4010 TAP_TAPCELL_ROW_51_499
*4011 TAP_TAPCELL_ROW_51_500
*4012 TAP_TAPCELL_ROW_52_501
*4013 TAP_TAPCELL_ROW_52_502
*4014 TAP_TAPCELL_ROW_52_503
*4015 TAP_TAPCELL_ROW_52_504
*4016 TAP_TAPCELL_ROW_52_505
*4017 TAP_TAPCELL_ROW_52_506
*4018 TAP_TAPCELL_ROW_52_507
*4019 TAP_TAPCELL_ROW_53_508
*4020 TAP_TAPCELL_ROW_53_509
*4021 TAP_TAPCELL_ROW_53_510
*4022 TAP_TAPCELL_ROW_53_511
*4023 TAP_TAPCELL_ROW_53_512
*4024 TAP_TAPCELL_ROW_53_513
*4025 TAP_TAPCELL_ROW_53_514
*4026 TAP_TAPCELL_ROW_54_515
*4027 TAP_TAPCELL_ROW_54_516
*4028 TAP_TAPCELL_ROW_54_517
*4029 TAP_TAPCELL_ROW_54_518
*4030 TAP_TAPCELL_ROW_54_519
*4031 TAP_TAPCELL_ROW_54_520
*4032 TAP_TAPCELL_ROW_54_521
*4033 TAP_TAPCELL_ROW_55_522
*4034 TAP_TAPCELL_ROW_55_523
*4035 TAP_TAPCELL_ROW_55_524
*4036 TAP_TAPCELL_ROW_55_525
*4037 TAP_TAPCELL_ROW_55_526
*4038 TAP_TAPCELL_ROW_55_527
*4039 TAP_TAPCELL_ROW_55_528
*4040 TAP_TAPCELL_ROW_56_529
*4041 TAP_TAPCELL_ROW_56_530
*4042 TAP_TAPCELL_ROW_56_531
*4043 TAP_TAPCELL_ROW_56_532
*4044 TAP_TAPCELL_ROW_56_533
*4045 TAP_TAPCELL_ROW_56_534
*4046 TAP_TAPCELL_ROW_56_535
*4047 TAP_TAPCELL_ROW_57_536
*4048 TAP_TAPCELL_ROW_57_537
*4049 TAP_TAPCELL_ROW_57_538
*4050 TAP_TAPCELL_ROW_57_539
*4051 TAP_TAPCELL_ROW_57_540
*4052 TAP_TAPCELL_ROW_57_541
*4053 TAP_TAPCELL_ROW_57_542
*4054 TAP_TAPCELL_ROW_58_543
*4055 TAP_TAPCELL_ROW_58_544
*4056 TAP_TAPCELL_ROW_58_545
*4057 TAP_TAPCELL_ROW_58_546
*4058 TAP_TAPCELL_ROW_58_547
*4059 TAP_TAPCELL_ROW_58_548
*4060 TAP_TAPCELL_ROW_58_549
*4061 TAP_TAPCELL_ROW_59_550
*4062 TAP_TAPCELL_ROW_59_551
*4063 TAP_TAPCELL_ROW_59_552
*4064 TAP_TAPCELL_ROW_59_553
*4065 TAP_TAPCELL_ROW_59_554
*4066 TAP_TAPCELL_ROW_59_555
*4067 TAP_TAPCELL_ROW_59_556
*4068 TAP_TAPCELL_ROW_5_172
*4069 TAP_TAPCELL_ROW_5_173
*4070 TAP_TAPCELL_ROW_5_174
*4071 TAP_TAPCELL_ROW_5_175
*4072 TAP_TAPCELL_ROW_5_176
*4073 TAP_TAPCELL_ROW_5_177
*4074 TAP_TAPCELL_ROW_5_178
*4075 TAP_TAPCELL_ROW_60_557
*4076 TAP_TAPCELL_ROW_60_558
*4077 TAP_TAPCELL_ROW_60_559
*4078 TAP_TAPCELL_ROW_60_560
*4079 TAP_TAPCELL_ROW_60_561
*4080 TAP_TAPCELL_ROW_60_562
*4081 TAP_TAPCELL_ROW_60_563
*4082 TAP_TAPCELL_ROW_61_564
*4083 TAP_TAPCELL_ROW_61_565
*4084 TAP_TAPCELL_ROW_61_566
*4085 TAP_TAPCELL_ROW_61_567
*4086 TAP_TAPCELL_ROW_61_568
*4087 TAP_TAPCELL_ROW_61_569
*4088 TAP_TAPCELL_ROW_61_570
*4089 TAP_TAPCELL_ROW_62_571
*4090 TAP_TAPCELL_ROW_62_572
*4091 TAP_TAPCELL_ROW_62_573
*4092 TAP_TAPCELL_ROW_62_574
*4093 TAP_TAPCELL_ROW_62_575
*4094 TAP_TAPCELL_ROW_62_576
*4095 TAP_TAPCELL_ROW_62_577
*4096 TAP_TAPCELL_ROW_63_578
*4097 TAP_TAPCELL_ROW_63_579
*4098 TAP_TAPCELL_ROW_63_580
*4099 TAP_TAPCELL_ROW_63_581
*4100 TAP_TAPCELL_ROW_63_582
*4101 TAP_TAPCELL_ROW_63_583
*4102 TAP_TAPCELL_ROW_63_584
*4103 TAP_TAPCELL_ROW_64_585
*4104 TAP_TAPCELL_ROW_64_586
*4105 TAP_TAPCELL_ROW_64_587
*4106 TAP_TAPCELL_ROW_64_588
*4107 TAP_TAPCELL_ROW_64_589
*4108 TAP_TAPCELL_ROW_64_590
*4109 TAP_TAPCELL_ROW_64_591
*4110 TAP_TAPCELL_ROW_64_592
*4111 TAP_TAPCELL_ROW_64_593
*4112 TAP_TAPCELL_ROW_64_594
*4113 TAP_TAPCELL_ROW_64_595
*4114 TAP_TAPCELL_ROW_64_596
*4115 TAP_TAPCELL_ROW_64_597
*4116 TAP_TAPCELL_ROW_64_598
*4117 TAP_TAPCELL_ROW_6_179
*4118 TAP_TAPCELL_ROW_6_180
*4119 TAP_TAPCELL_ROW_6_181
*4120 TAP_TAPCELL_ROW_6_182
*4121 TAP_TAPCELL_ROW_6_183
*4122 TAP_TAPCELL_ROW_6_184
*4123 TAP_TAPCELL_ROW_6_185
*4124 TAP_TAPCELL_ROW_7_186
*4125 TAP_TAPCELL_ROW_7_187
*4126 TAP_TAPCELL_ROW_7_188
*4127 TAP_TAPCELL_ROW_7_189
*4128 TAP_TAPCELL_ROW_7_190
*4129 TAP_TAPCELL_ROW_7_191
*4130 TAP_TAPCELL_ROW_7_192
*4131 TAP_TAPCELL_ROW_8_193
*4132 TAP_TAPCELL_ROW_8_194
*4133 TAP_TAPCELL_ROW_8_195
*4134 TAP_TAPCELL_ROW_8_196
*4135 TAP_TAPCELL_ROW_8_197
*4136 TAP_TAPCELL_ROW_8_198
*4137 TAP_TAPCELL_ROW_8_199
*4138 TAP_TAPCELL_ROW_9_200
*4139 TAP_TAPCELL_ROW_9_201
*4140 TAP_TAPCELL_ROW_9_202
*4141 TAP_TAPCELL_ROW_9_203
*4142 TAP_TAPCELL_ROW_9_204
*4143 TAP_TAPCELL_ROW_9_205
*4144 TAP_TAPCELL_ROW_9_206
*4145 _0692_
*4146 _0693_
*4147 _0694_
*4148 _0695_
*4149 _0696_
*4150 _0697_
*4151 _0698_
*4152 _0699_
*4153 _0700_
*4154 _0701_
*4155 _0702_
*4156 _0703_
*4157 _0704_
*4158 _0705_
*4159 _0706_
*4160 _0707_
*4161 _0708_
*4162 _0709_
*4163 _0710_
*4164 _0711_
*4165 _0712_
*4166 _0713_
*4167 _0714_
*4168 _0715_
*4169 _0716_
*4170 _0717_
*4171 _0718_
*4172 _0719_
*4173 _0720_
*4174 _0721_
*4175 _0722_
*4176 _0723_
*4177 _0724_
*4178 _0725_
*4179 _0726_
*4180 _0727_
*4181 _0728_
*4182 _0729_
*4183 _0730_
*4184 _0731_
*4185 _0732_
*4186 _0733_
*4187 _0734_
*4188 _0735_
*4189 _0736_
*4190 _0737_
*4191 _0738_
*4192 _0739_
*4193 _0740_
*4194 _0741_
*4195 _0742_
*4196 _0743_
*4197 _0744_
*4198 _0745_
*4199 _0746_
*4200 _0747_
*4201 _0748_
*4202 _0749_
*4203 _0750_
*4204 _0751_
*4205 _0752_
*4206 _0753_
*4207 _0754_
*4208 _0755_
*4209 _0756_
*4210 _0757_
*4211 _0758_
*4212 _0759_
*4213 _0760_
*4214 _0761_
*4215 _0762_
*4216 _0763_
*4217 _0764_
*4218 _0765_
*4219 _0766_
*4220 _0767_
*4221 _0768_
*4222 _0769_
*4223 _0770_
*4224 _0771_
*4225 _0772_
*4226 _0773_
*4227 _0774_
*4228 _0775_
*4229 _0776_
*4230 _0777_
*4231 _0778_
*4232 _0779_
*4233 _0780_
*4234 _0781_
*4235 _0782_
*4236 _0783_
*4237 _0784_
*4238 _0785_
*4239 _0786_
*4240 _0787_
*4241 _0788_
*4242 _0789_
*4243 _0790_
*4244 _0791_
*4245 _0792_
*4246 _0793_
*4247 _0794_
*4248 _0795_
*4249 _0796_
*4250 _0797_
*4251 _0798_
*4252 _0799_
*4253 _0800_
*4254 _0801_
*4255 _0802_
*4256 _0803_
*4257 _0804_
*4258 _0805_
*4259 _0806_
*4260 _0807_
*4261 _0808_
*4262 _0809_
*4263 _0810_
*4264 _0811_
*4265 _0812_
*4266 _0813_
*4267 _0814_
*4268 _0815_
*4269 _0816_
*4270 _0817_
*4271 _0818_
*4272 _0819_
*4273 _0820_
*4274 _0821_
*4275 _0822_
*4276 _0823_
*4277 _0824_
*4278 _0825_
*4279 _0826_
*4280 _0827_
*4281 _0828_
*4282 _0829_
*4283 _0830_
*4284 _0831_
*4285 _0832_
*4286 _0833_
*4287 _0834_
*4288 _0835_
*4289 _0836_
*4290 _0837_
*4291 _0838_
*4292 _0839_
*4293 _0840_
*4294 _0841_
*4295 _0842_
*4296 _0843_
*4297 _0844_
*4298 _0845_
*4299 _0846_
*4300 _0847_
*4301 _0848_
*4302 _0849_
*4303 _0850_
*4304 _0851_
*4305 _0852_
*4306 _0853_
*4307 _0854_
*4308 _0855_
*4309 _0856_
*4310 _0857_
*4311 _0858_
*4312 _0859_
*4313 _0860_
*4314 _0861_
*4315 _0862_
*4316 _0863_
*4317 _0864_
*4318 _0865_
*4319 _0866_
*4320 _0867_
*4321 _0868_
*4322 _0869_
*4323 _0870_
*4324 _0871_
*4325 _0872_
*4326 _0873_
*4327 _0874_
*4328 _0875_
*4329 _0876_
*4330 _0877_
*4331 _0878_
*4332 _0879_
*4333 _0880_
*4334 _0881_
*4335 _0882_
*4336 _0883_
*4337 _0884_
*4338 _0885_
*4339 _0886_
*4340 _0887_
*4341 _0888_
*4342 _0889_
*4343 _0890_
*4344 _0891_
*4345 _0892_
*4346 _0893_
*4347 _0894_
*4348 _0895_
*4349 _0896_
*4350 _0897_
*4351 _0898_
*4352 _0899_
*4353 _0900_
*4354 _0901_
*4355 _0902_
*4356 _0903_
*4357 _0904_
*4358 _0905_
*4359 _0906_
*4360 _0907_
*4361 _0908_
*4362 _0909_
*4363 _0910_
*4364 _0911_
*4365 _0912_
*4366 _0913_
*4367 _0914_
*4368 _0915_
*4369 _0916_
*4370 _0917_
*4371 _0918_
*4372 _0919_
*4373 _0920_
*4374 _0921_
*4375 _0922_
*4376 _0923_
*4377 _0924_
*4378 _0925_
*4379 _0926_
*4380 _0927_
*4381 _0928_
*4382 _0929_
*4383 _0930_
*4384 _0931_
*4385 _0932_
*4386 _0933_
*4387 _0934_
*4388 _0935_
*4389 _0936_
*4390 _0937_
*4391 _0938_
*4392 _0939_
*4393 _0940_
*4394 _0941_
*4395 _0942_
*4396 _0943_
*4397 _0944_
*4398 _0945_
*4399 _0946_
*4400 _0947_
*4401 _0948_
*4402 _0949_
*4403 _0950_
*4404 _0951_
*4405 _0952_
*4406 _0953_
*4407 _0954_
*4408 _0955_
*4409 _0956_
*4410 _0957_
*4411 _0958_
*4412 _0959_
*4413 _0960_
*4414 _0961_
*4415 _0962_
*4416 _0963_
*4417 _0964_
*4418 _0965_
*4419 _0966_
*4420 _0967_
*4421 _0968_
*4422 _0969_
*4423 _0970_
*4424 _0971_
*4425 _0972_
*4426 _0973_
*4427 _0974_
*4428 _0975_
*4429 _0976_
*4430 _0977_
*4431 _0978_
*4432 _0979_
*4433 _0980_
*4434 _0981_
*4435 _0982_
*4436 _0983_
*4437 _0984_
*4438 _0985_
*4439 _0986_
*4440 _0987_
*4441 _0988_
*4442 _0989_
*4443 _0990_
*4444 _0991_
*4445 _0992_
*4446 _0993_
*4447 _0994_
*4448 _0995_
*4449 _0996_
*4450 _0997_
*4451 _0998_
*4452 _0999_
*4453 _1000_
*4454 _1001_
*4455 _1002_
*4456 _1003_
*4457 _1004_
*4458 _1005_
*4459 _1006_
*4460 _1007_
*4461 _1008_
*4462 _1009_
*4463 _1010_
*4464 _1011_
*4465 _1012_
*4466 _1013_
*4467 _1014_
*4468 _1015_
*4469 _1016_
*4470 _1017_
*4471 _1018_
*4472 _1019_
*4473 _1020_
*4474 _1021_
*4475 _1022_
*4476 _1023_
*4477 _1024_
*4478 _1025_
*4479 _1026_
*4480 _1027_
*4481 _1028_
*4482 _1029_
*4483 _1030_
*4484 _1031_
*4485 _1032_
*4486 _1033_
*4487 _1034_
*4488 _1035_
*4489 _1036_
*4490 _1037_
*4491 _1038_
*4492 _1039_
*4493 _1040_
*4494 _1041_
*4495 _1042_
*4496 _1043_
*4497 _1044_
*4498 _1045_
*4499 _1046_
*4500 _1047_
*4501 _1048_
*4502 _1049_
*4503 _1050_
*4504 _1051_
*4505 _1052_
*4506 _1053_
*4507 _1054_
*4508 _1055_
*4509 _1056_
*4510 _1057_
*4511 _1058_
*4512 _1059_
*4513 _1060_
*4514 _1061_
*4515 _1062_
*4516 _1063_
*4517 _1064_
*4518 _1065_
*4519 _1066_
*4520 _1067_
*4521 _1068_
*4522 _1069_
*4523 _1070_
*4524 _1071_
*4525 _1072_
*4526 _1073_
*4527 _1074_
*4528 _1075_
*4529 _1076_
*4530 _1077_
*4531 _1078_
*4532 _1079_
*4533 _1080_
*4534 _1081_
*4535 _1082_
*4536 _1083_
*4537 _1084_
*4538 _1085_
*4539 _1086_
*4540 _1087_
*4541 _1088_
*4542 _1089_
*4543 _1090_
*4544 _1091_
*4545 _1092_
*4546 _1093_
*4547 _1094_
*4548 _1095_
*4549 _1096_
*4550 _1097_
*4551 _1098_
*4552 _1099_
*4553 _1100_
*4554 _1101_
*4555 _1102_
*4556 _1103_
*4557 _1104_
*4558 _1105_
*4559 _1106_
*4560 _1107_
*4561 _1108_
*4562 _1109_
*4563 _1110_
*4564 _1111_
*4565 _1112_
*4566 _1113_
*4567 _1114_
*4568 _1115_
*4569 _1116_
*4570 _1117_
*4571 _1118_
*4572 _1119_
*4573 _1120_
*4574 _1121_
*4575 _1122_
*4576 _1123_
*4577 _1124_
*4578 _1125_
*4579 _1126_
*4580 _1127_
*4581 _1128_
*4582 _1129_
*4583 _1130_
*4584 _1131_
*4585 _1132_
*4586 _1133_
*4587 _1134_
*4588 _1135_
*4589 _1136_
*4590 _1137_
*4591 _1138_
*4592 _1139_
*4593 _1140_
*4594 _1141_
*4595 _1142_
*4596 _1143_
*4597 _1144_
*4598 _1145_
*4599 _1146_
*4600 _1147_
*4601 _1148_
*4602 _1149_
*4603 _1150_
*4604 _1151_
*4605 _1152_
*4606 _1153_
*4607 _1154_
*4608 _1155_
*4609 _1156_
*4610 _1157_
*4611 _1158_
*4612 _1159_
*4613 _1160_
*4614 _1161_
*4615 _1162_
*4616 _1163_
*4617 _1164_
*4618 _1165_
*4619 _1166_
*4620 _1167_
*4621 _1168_
*4622 _1169_
*4623 _1170_
*4624 _1171_
*4625 _1172_
*4626 _1173_
*4627 _1174_
*4628 _1175_
*4629 _1176_
*4630 _1177_
*4631 _1178_
*4632 _1179_
*4633 _1180_
*4634 _1181_
*4635 _1182_
*4636 _1183_
*4637 _1184_
*4638 _1185_
*4639 _1186_
*4640 _1187_
*4641 _1188_
*4642 _1189_
*4643 _1190_
*4644 _1191_
*4645 _1192_
*4646 _1193_
*4647 _1194_
*4648 _1195_
*4649 _1196_
*4650 _1197_
*4651 _1198_
*4652 _1199_
*4653 _1200_
*4654 _1201_
*4655 _1202_
*4656 _1203_
*4657 _1204_
*4658 _1205_
*4659 _1206_
*4660 _1207_
*4661 _1208_
*4662 _1209_
*4663 _1210_
*4664 _1211_
*4665 _1212_
*4666 _1213_
*4667 _1214_
*4668 _1215_
*4669 _1216_
*4670 _1217_
*4671 _1218_
*4672 _1219_
*4673 _1220_
*4674 _1221_
*4675 _1222_
*4676 _1223_
*4677 _1224_
*4678 _1225_
*4679 _1226_
*4680 _1227_
*4681 _1228_
*4682 _1229_
*4683 _1230_
*4684 _1231_
*4685 _1232_
*4686 _1233_
*4687 _1234_
*4688 _1235_
*4689 _1236_
*4690 _1237_
*4691 _1238_
*4692 _1239_
*4693 _1240_
*4694 _1241_
*4695 _1242_
*4696 _1243_
*4697 _1244_
*4698 _1245_
*4699 _1246_
*4700 _1247_
*4701 _1248_
*4702 _1249_
*4703 _1250_
*4704 _1251_
*4705 _1252_
*4706 _1253_
*4707 _1254_
*4708 _1255_
*4709 _1256_
*4710 _1257_
*4711 _1258_
*4712 _1259_
*4713 _1260_
*4714 _1261_
*4715 _1262_
*4716 _1263_
*4717 _1264_
*4718 _1265_
*4719 _1266_
*4720 _1267_
*4721 _1268_
*4722 _1269_
*4723 _1270_
*4724 _1271_
*4725 _1272_
*4726 _1273_
*4727 _1274_
*4728 _1275_
*4729 _1276_
*4730 _1277_
*4731 _1278_
*4732 _1279_
*4733 _1280_
*4734 _1281_
*4735 _1282_
*4736 _1283_
*4737 _1284_
*4738 _1285_
*4739 _1286_
*4740 _1287_
*4741 _1288_
*4742 _1289_
*4743 _1290_
*4744 _1291_
*4745 _1292_
*4746 _1293_
*4747 _1294_
*4748 _1295_
*4749 _1296_
*4750 _1297_
*4751 _1298_
*4752 _1299_
*4753 _1300_
*4754 _1301_
*4755 _1302_
*4756 _1303_
*4757 _1304_
*4758 _1305_
*4759 _1306_
*4760 _1307_
*4761 _1308_
*4762 _1309_
*4763 _1310_
*4764 _1311_
*4765 _1312_
*4766 _1313_
*4767 _1314_
*4768 _1315_
*4769 _1316_
*4770 _1317_
*4771 _1318_
*4772 _1319_
*4773 _1320_
*4774 _1321_
*4775 _1322_
*4776 _1323_
*4777 _1324_
*4778 _1325_
*4779 _1326_
*4780 _1327_
*4781 _1328_
*4782 _1329_
*4783 _1330_
*4784 _1331_
*4785 _1332_
*4786 _1333_
*4787 _1334_
*4788 _1335_
*4789 _1336_
*4790 _1337_
*4791 _1338_
*4792 _1339_
*4793 _1340_
*4794 _1341_
*4795 _1342_
*4796 _1343_
*4797 _1344_
*4798 _1345_
*4799 _1346_
*4800 _1347_
*4801 _1348_
*4802 _1349_
*4803 _1350_
*4804 _1351_
*4805 _1352_
*4806 _1353_
*4807 _1354_
*4808 _1355_
*4809 _1356_
*4810 _1357_
*4811 _1358_
*4812 _1359_
*4813 _1360_
*4814 _1361_
*4815 _1362_
*4816 _1363_
*4817 _1364_
*4818 _1365_
*4819 _1366_
*4820 _1367_
*4821 _1368_
*4822 _1369_
*4823 _1370_
*4824 _1371_
*4825 _1372_
*4826 _1373_
*4827 _1374_
*4828 _1375_
*4829 _1376_
*4830 _1377_
*4831 _1378_
*4832 _1379_
*4833 _1380_
*4834 _1381_
*4835 _1382_
*4836 _1383_
*4837 _1384_
*4838 _1385_
*4839 _1386_
*4840 _1387_
*4841 _1388_
*4842 _1389_
*4843 _1390_
*4844 _1391_
*4845 _1392_
*4846 _1393_
*4847 _1394_
*4848 _1395_
*4849 _1396_
*4850 _1397_
*4851 _1398_
*4852 _1399_
*4853 _1400_
*4854 _1401_
*4855 _1402_
*4856 _1403_
*4857 _1404_
*4858 _1405_
*4859 _1406_
*4860 _1407_
*4861 _1408_
*4862 _1409_
*4863 _1410_
*4864 _1411_
*4865 _1412_
*4866 _1413_
*4867 _1414_
*4868 _1415_
*4869 _1416_
*4870 _1417_
*4871 _1418_
*4872 _1419_
*4873 _1420_
*4874 _1421_
*4875 _1422_
*4876 _1423_
*4877 _1424_
*4878 _1425_
*4879 _1426_
*4880 _1427_
*4881 _1428_
*4882 _1429_
*4883 _1430_
*4884 _1431_
*4885 _1432_
*4886 _1433_
*4887 _1434_
*4888 _1435_
*4889 _1436_
*4890 _1437_
*4891 _1438_
*4892 _1439_
*4893 _1440_
*4894 _1441_
*4895 _1442_
*4896 _1443_
*4897 _1444_
*4898 _1445_
*4899 _1446_
*4900 _1447_
*4901 _1448_
*4902 _1449_
*4903 _1450_
*4904 _1451_
*4905 _1452_
*4906 _1453_
*4907 _1454_
*4908 _1455_
*4909 _1456_
*4910 _1457_
*4911 _1458_
*4912 _1459_
*4913 _1460_
*4914 _1461_
*4915 _1462_
*4916 _1463_
*4917 _1464_
*4918 clkbuf_0_clk
*4919 clkbuf_3_0__f_clk
*4920 clkbuf_3_1__f_clk
*4921 clkbuf_3_2__f_clk
*4922 clkbuf_3_3__f_clk
*4923 clkbuf_3_4__f_clk
*4924 clkbuf_3_5__f_clk
*4925 clkbuf_3_6__f_clk
*4926 clkbuf_3_7__f_clk
*4927 clkload0
*4928 clkload1
*4929 clkload2
*4930 clkload3
*4931 clkload4
*4932 clkload5
*4933 clone16
*4934 clone7
*4935 fanout100
*4936 fanout101
*4937 fanout102
*4938 fanout103
*4939 fanout104
*4940 fanout105
*4941 fanout106
*4942 fanout107
*4943 fanout108
*4944 fanout109
*4945 fanout110
*4946 fanout111
*4947 fanout112
*4948 fanout113
*4949 fanout114
*4950 fanout115
*4951 fanout116
*4952 fanout52
*4953 fanout53
*4954 fanout54
*4955 fanout55
*4956 fanout57
*4957 fanout58
*4958 fanout59
*4959 fanout60
*4960 fanout61
*4961 fanout62
*4962 fanout65
*4963 fanout66
*4964 fanout67
*4965 fanout68
*4966 fanout69
*4967 fanout70
*4968 fanout71
*4969 fanout72
*4970 fanout73
*4971 fanout74
*4972 fanout75
*4973 fanout76
*4974 fanout77
*4975 fanout78
*4976 fanout79
*4977 fanout80
*4978 fanout81
*4979 fanout82
*4980 fanout83
*4981 fanout84
*4982 fanout85
*4983 fanout86
*4984 fanout87
*4985 fanout88
*4986 fanout89
*4987 fanout90
*4988 fanout91
*4989 fanout92
*4990 fanout93
*4991 fanout94
*4992 fanout95
*4993 fanout96
*4994 fanout97
*4995 fanout98
*4996 fanout99
*4997 hold19
*4998 hold20
*4999 hold21
*5000 hold22
*5001 hold23
*5002 hold24
*5003 hold25
*5004 hold26
*5005 hold27
*5006 hold28
*5007 hold29
*5008 hold30
*5009 hold31
*5010 hold32
*5011 hold33
*5012 hold34
*5013 hold35
*5014 hold36
*5015 hold37
*5016 hold38
*5017 hold39
*5018 hold40
*5019 hold41
*5020 hold42
*5021 hold43
*5022 hold44
*5023 hold45
*5024 hold46
*5025 hold47
*5026 hold48
*5027 hold49
*5028 hold50
*5029 hold51
*5030 hold52
*5031 hold53
*5032 hold54
*5033 hold55
*5034 hold56
*5035 hold57
*5036 hold58
*5037 hold59
*5038 hold60
*5039 hold61
*5040 hold62
*5041 hold63
*5042 hold64
*5043 hold65
*5044 hold66
*5045 hold67
*5046 hold68
*5047 hold69
*5048 input1
*5049 input10
*5050 input11
*5051 input12
*5052 input13
*5053 input14
*5054 input15
*5055 input16
*5056 input17
*5057 input18
*5058 input19
*5059 input2
*5060 input3
*5061 input4
*5062 input5
*5063 input6
*5064 input7
*5065 input8
*5066 input9
*5067 max_cap63
*5068 max_cap64
*5069 output20
*5070 output21
*5071 output22
*5072 output23
*5073 output24
*5074 output25
*5075 output26
*5076 output27
*5077 output28
*5078 output29
*5079 output30
*5080 output31
*5081 output32
*5082 output33
*5083 output34
*5084 output35
*5085 output36
*5086 output37
*5087 output38
*5088 output39
*5089 output40
*5090 output41
*5091 output42
*5092 output43
*5093 output44
*5094 output45
*5095 output46
*5096 output47
*5097 output48
*5098 output49
*5099 output50
*5100 output51
*5101 rebuffer1
*5102 rebuffer10
*5103 rebuffer11
*5104 rebuffer12
*5105 rebuffer13
*5106 rebuffer14
*5107 rebuffer15
*5108 rebuffer18
*5109 rebuffer2
*5110 rebuffer3
*5111 rebuffer4
*5112 rebuffer5
*5113 rebuffer6
*5114 rebuffer8
*5115 rebuffer9
*5116 top_117

*PORTS
addr[0] I
addr[1] I
addr[2] I
addr[3] I
addr[4] I
addr[5] I
addr[6] I
addr[7] I
clk I
rdata[0] O
rdata[10] O
rdata[11] O
rdata[12] O
rdata[13] O
rdata[14] O
rdata[15] O
rdata[16] O
rdata[17] O
rdata[18] O
rdata[19] O
rdata[1] O
rdata[20] O
rdata[21] O
rdata[22] O
rdata[23] O
rdata[24] O
rdata[25] O
rdata[26] O
rdata[27] O
rdata[28] O
rdata[29] O
rdata[2] O
rdata[30] O
rdata[31] O
rdata[3] O
rdata[4] O
rdata[5] O
rdata[6] O
rdata[7] O
rdata[8] O
rdata[9] O
ready O
rst I
valid I
wdata[0] I
wdata[10] I
wdata[11] I
wdata[12] I
wdata[13] I
wdata[14] I
wdata[15] I
wdata[16] I
wdata[17] I
wdata[18] I
wdata[19] I
wdata[1] I
wdata[20] I
wdata[21] I
wdata[22] I
wdata[23] I
wdata[24] I
wdata[25] I
wdata[26] I
wdata[27] I
wdata[28] I
wdata[29] I
wdata[2] I
wdata[30] I
wdata[31] I
wdata[3] I
wdata[4] I
wdata[5] I
wdata[6] I
wdata[7] I
wdata[8] I
wdata[9] I
write I

*D_NET *3 0.000766269
*CONN
*P addr[0] I
*I *5048:A I *D sky130_fd_sc_hd__buf_1
*CAP
1 addr[0] 0.000326254
2 *5048:A 0.000326254
3 *5048:A *5059:A 3.19385e-05
4 *5048:A *5061:A 2.25951e-05
5 *5048:A *830:10 5.92267e-05
*RES
1 addr[0] *5048:A 20.2479 
*END

*D_NET *4 0.000759739
*CONN
*P addr[1] I
*I *5059:A I *D sky130_fd_sc_hd__clkbuf_1
*CAP
1 addr[1] 0.000350086
2 *5059:A 0.000350086
3 *5059:A rdata[5] 2.15768e-05
4 *5059:A *4154:A 6.05161e-06
5 *5059:A *830:10 0
6 *5048:A *5059:A 3.19385e-05
*RES
1 addr[1] *5059:A 22.3017 
*END

*D_NET *5 0.00067267
*CONN
*P addr[2] I
*I *5060:A I *D sky130_fd_sc_hd__clkbuf_1
*CAP
1 addr[2] 0.000301982
2 *5060:A 0.000301982
3 *5060:A rdata[3] 2.25951e-05
4 *5060:A rdata[5] 4.61106e-05
*RES
1 addr[2] *5060:A 21.391 
*END

*D_NET *6 0.00063038
*CONN
*P addr[3] I
*I *5061:A I *D sky130_fd_sc_hd__clkbuf_1
*CAP
1 addr[3] 0.000288897
2 *5061:A 0.000288897
3 *5061:A *5063:A 2.99915e-05
4 *5048:A *5061:A 2.25951e-05
*RES
1 addr[3] *5061:A 21.0874 
*END

*D_NET *7 0.000575454
*CONN
*P addr[4] I
*I *5062:A I *D sky130_fd_sc_hd__clkbuf_1
*CAP
1 addr[4] 0.000272731
2 *5062:A 0.000272731
3 *5062:A *5065:A 2.99915e-05
*RES
1 addr[4] *5062:A 20.4803 
*END

*D_NET *8 0.000601806
*CONN
*P addr[5] I
*I *5063:A I *D sky130_fd_sc_hd__clkbuf_1
*CAP
1 addr[5] 0.000270911
2 *5063:A 0.000270911
3 *5063:A rdata[4] 2.99915e-05
4 *5061:A *5063:A 2.99915e-05
*RES
1 addr[5] *5063:A 20.7838 
*END

*D_NET *9 0.000650192
*CONN
*P addr[6] I
*I *5064:A I *D sky130_fd_sc_hd__clkbuf_1
*CAP
1 addr[6] 0.000260838
2 *5064:A 0.000260838
3 *5064:A rdata[4] 2.87684e-05
4 *5064:A ready 2.25951e-05
5 *5064:A *4150:B 2.35149e-05
6 *5064:A *4150:D 5.36379e-05
*RES
1 addr[6] *5064:A 19.9443 
*END

*D_NET *10 0.000569084
*CONN
*P addr[7] I
*I *5065:A I *D sky130_fd_sc_hd__clkbuf_1
*CAP
1 addr[7] 0.00025455
2 *5065:A 0.00025455
3 *5065:A ready 2.99915e-05
4 *5062:A *5065:A 2.99915e-05
*RES
1 addr[7] *5065:A 20.4803 
*END

*D_NET *11 0.0184132
*CONN
*P clk I
*I *4918:A I *D sky130_fd_sc_hd__clkbuf_16
*CAP
1 clk 0.00476971
2 *4918:A 0
3 *11:9 0.00350769
4 *11:7 0.0082774
5 *11:7 *641:10 0.000152412
6 *11:9 *4491:A 0
7 *11:9 *4493:B1 4.97918e-05
8 *11:9 *4493:C1 0
9 *11:9 *4530:B1 8.47011e-05
10 *11:9 *4530:C1 5.63007e-05
11 *11:9 *4532:A1 0
12 *11:9 *4533:C1 6.16864e-05
13 *11:9 *4535:A1 3.56976e-05
14 *11:9 *4535:A2 0
15 *11:9 *4567:A 0.000114121
16 *11:9 *4567:B 0.000196269
17 *11:9 *4568:A 0.000103993
18 *11:9 *4568:B 0
19 *11:9 *4606:A 0
20 *11:9 *4606:B 0
21 *11:9 *4628:B 0.000195547
22 *11:9 *4629:A 1.31516e-05
23 *11:9 *4669:B 0
24 *11:9 *447:10 0
25 *11:9 *450:25 3.60626e-05
26 *11:9 *450:36 0.000203268
27 *11:9 *451:8 0
28 *11:9 *482:12 0
29 *11:9 *485:12 2.05938e-05
30 *11:9 *486:10 0.000257165
31 *11:9 *520:12 0
32 *11:9 *557:12 0.000126439
33 *11:9 *558:12 6.19181e-05
34 *11:9 *583:14 3.79467e-05
35 *11:9 *611:10 0
36 *11:9 *611:14 0
37 *11:9 *622:10 5.13049e-05
38 *11:9 *849:16 0
*RES
1 clk *11:7 17.0901 
2 *11:7 *11:9 70.4018 
3 *11:9 *4918:A 13.8 
*END

*D_NET *12 0.000725671
*CONN
*P rdata[0] O
*I *5069:X O *D sky130_fd_sc_hd__buf_2
*CAP
1 rdata[0] 0.000345981
2 *5069:X 0.000345981
3 rdata[0] *5049:A 3.37077e-05
*RES
1 *5069:X rdata[0] 20.891 
*END

*D_NET *13 0.00153083
*CONN
*P rdata[10] O
*I *5070:X O *D sky130_fd_sc_hd__buf_2
*CAP
1 rdata[10] 0.000458498
2 *5070:X 0.000458498
3 rdata[10] rdata[11] 2.04825e-05
4 rdata[10] rdata[14] 7.60268e-05
5 rdata[10] *5017:A 4.75911e-05
6 rdata[10] *5070:A 0.00046973
*RES
1 *5070:X rdata[10] 24.73 
*END

*D_NET *14 0.0012478
*CONN
*P rdata[11] O
*I *5071:X O *D sky130_fd_sc_hd__buf_2
*CAP
1 rdata[11] 0.000452607
2 *5071:X 0.000452607
3 rdata[11] rdata[13] 7.3448e-05
4 rdata[11] rdata[14] 7.3448e-05
5 rdata[11] *5070:A 2.49484e-05
6 rdata[11] *5073:A 0
7 rdata[11] *930:12 0.000150257
8 rdata[10] rdata[11] 2.04825e-05
*RES
1 *5071:X rdata[11] 23.8544 
*END

*D_NET *15 0.000988475
*CONN
*P rdata[12] O
*I *5072:X O *D sky130_fd_sc_hd__buf_2
*CAP
1 rdata[12] 0.000391679
2 *5072:X 0.000391679
3 rdata[12] rdata[13] 8.97528e-05
4 rdata[12] *930:12 0.000115364
*RES
1 *5072:X rdata[12] 21.8378 
*END

*D_NET *16 0.00126044
*CONN
*P rdata[13] O
*I *5073:X O *D sky130_fd_sc_hd__buf_2
*CAP
1 rdata[13] 0.000519004
2 *5073:X 0.000519004
3 rdata[13] rdata[14] 0
4 rdata[13] *4212:C1 0
5 rdata[13] *5073:A 5.92267e-05
6 rdata[11] rdata[13] 7.3448e-05
7 rdata[12] rdata[13] 8.97528e-05
*RES
1 *5073:X rdata[13] 20.0578 
*END

*D_NET *17 0.0011049
*CONN
*P rdata[14] O
*I *5074:X O *D sky130_fd_sc_hd__buf_2
*CAP
1 rdata[14] 0.000408803
2 *5074:X 0.000408803
3 rdata[14] *4212:C1 0
4 rdata[14] *5008:A 2.57126e-05
5 rdata[14] *5074:A 0.000112106
6 rdata[10] rdata[14] 7.60268e-05
7 rdata[11] rdata[14] 7.3448e-05
8 rdata[13] rdata[14] 0
*RES
1 *5074:X rdata[14] 21.5189 
*END

*D_NET *18 0.000497221
*CONN
*P rdata[15] O
*I *5075:X O *D sky130_fd_sc_hd__buf_2
*CAP
1 rdata[15] 0.000206536
2 *5075:X 0.000206536
3 rdata[15] rdata[16] 8.41484e-05
4 rdata[15] *5075:A 0
*RES
1 *5075:X rdata[15] 18.1949 
*END

*D_NET *19 0.00119225
*CONN
*P rdata[16] O
*I *5076:X O *D sky130_fd_sc_hd__buf_2
*CAP
1 rdata[16] 0.000554048
2 *5076:X 0.000554048
3 rdata[16] *4862:CLK 0
4 rdata[15] rdata[16] 8.41484e-05
*RES
1 *5076:X rdata[16] 18.9877 
*END

*D_NET *20 0.000488883
*CONN
*P rdata[17] O
*I *5077:X O *D sky130_fd_sc_hd__buf_2
*CAP
1 rdata[17] 0.000154643
2 *5077:X 0.000154643
3 rdata[17] rdata[19] 9.54485e-05
4 rdata[17] rdata[20] 8.41484e-05
*RES
1 *5077:X rdata[17] 18.1949 
*END

*D_NET *21 0.000519794
*CONN
*P rdata[18] O
*I *5078:X O *D sky130_fd_sc_hd__buf_2
*CAP
1 rdata[18] 0.000208555
2 *5078:X 0.000208555
3 rdata[18] rdata[19] 0
4 rdata[18] rdata[9] 8.41484e-05
5 rdata[18] *5078:A 1.85361e-05
*RES
1 *5078:X rdata[18] 18.4985 
*END

*D_NET *22 0.000579331
*CONN
*P rdata[19] O
*I *5079:X O *D sky130_fd_sc_hd__buf_2
*CAP
1 rdata[19] 0.000225007
2 *5079:X 0.000225007
3 rdata[19] *5079:A 3.38674e-05
4 rdata[17] rdata[19] 9.54485e-05
5 rdata[18] rdata[19] 0
*RES
1 *5079:X rdata[19] 18.8021 
*END

*D_NET *23 0.000665001
*CONN
*P rdata[1] O
*I *5080:X O *D sky130_fd_sc_hd__buf_2
*CAP
1 rdata[1] 0.000332501
2 *5080:X 0.000332501
3 rdata[1] *5080:A 0
*RES
1 *5080:X rdata[1] 19.6044 
*END

*D_NET *24 0.00119595
*CONN
*P rdata[20] O
*I *5081:X O *D sky130_fd_sc_hd__buf_2
*CAP
1 rdata[20] 0.000508178
2 *5081:X 0.000508178
3 rdata[20] rdata[24] 9.54485e-05
4 rdata[20] *837:93 0
5 rdata[17] rdata[20] 8.41484e-05
*RES
1 *5081:X rdata[20] 18.9877 
*END

*D_NET *25 0.000862711
*CONN
*P rdata[21] O
*I *5082:X O *D sky130_fd_sc_hd__buf_2
*CAP
1 rdata[21] 0.000344877
2 *5082:X 0.000344877
3 rdata[21] rdata[24] 9.28756e-05
4 rdata[21] *940:8 8.00806e-05
*RES
1 *5082:X rdata[21] 21.2306 
*END

*D_NET *26 0.000510395
*CONN
*P rdata[22] O
*I *5083:X O *D sky130_fd_sc_hd__buf_2
*CAP
1 rdata[22] 0.000231648
2 *5083:X 0.000231648
3 rdata[22] *941:12 4.70981e-05
*RES
1 *5083:X rdata[22] 18.4985 
*END

*D_NET *27 0.00113869
*CONN
*P rdata[23] O
*I *5084:X O *D sky130_fd_sc_hd__buf_2
*CAP
1 rdata[23] 0.000569346
2 *5084:X 0.000569346
*RES
1 *5084:X rdata[23] 24.3714 
*END

*D_NET *28 0.000659829
*CONN
*P rdata[24] O
*I *5085:X O *D sky130_fd_sc_hd__buf_2
*CAP
1 rdata[24] 0.000235752
2 *5085:X 0.000235752
3 rdata[20] rdata[24] 9.54485e-05
4 rdata[21] rdata[24] 9.28756e-05
*RES
1 *5085:X rdata[24] 19.7128 
*END

*D_NET *29 0.00158513
*CONN
*P rdata[25] O
*I *5086:X O *D sky130_fd_sc_hd__buf_2
*CAP
1 rdata[25] 0.000701152
2 *5086:X 0.000701152
3 rdata[25] rdata[8] 5.66971e-05
4 rdata[25] *5086:A 2.76585e-05
5 rdata[25] *967:10 9.84673e-05
*RES
1 *5086:X rdata[25] 27.0857 
*END

*D_NET *30 0.00113871
*CONN
*P rdata[26] O
*I *5087:X O *D sky130_fd_sc_hd__buf_2
*CAP
1 rdata[26] 0.000569355
2 *5087:X 0.000569355
*RES
1 *5087:X rdata[26] 24.3714 
*END

*D_NET *31 0.00113869
*CONN
*P rdata[27] O
*I *5088:X O *D sky130_fd_sc_hd__buf_2
*CAP
1 rdata[27] 0.000569346
2 *5088:X 0.000569346
3 rdata[27] rdata[28] 0
*RES
1 *5088:X rdata[27] 24.3714 
*END

*D_NET *32 0.00113739
*CONN
*P rdata[28] O
*I *5089:X O *D sky130_fd_sc_hd__buf_2
*CAP
1 rdata[28] 0.000557938
2 *5089:X 0.000557938
3 rdata[28] *5088:A 2.15121e-05
4 rdata[27] rdata[28] 0
*RES
1 *5089:X rdata[28] 24.3714 
*END

*D_NET *33 0.00117941
*CONN
*P rdata[29] O
*I *5090:X O *D sky130_fd_sc_hd__buf_2
*CAP
1 rdata[29] 0.000548376
2 *5090:X 0.000548376
3 rdata[29] *5090:A 8.26622e-05
*RES
1 *5090:X rdata[29] 24.3714 
*END

*D_NET *34 0.000715143
*CONN
*P rdata[2] O
*I *5091:X O *D sky130_fd_sc_hd__buf_2
*CAP
1 rdata[2] 0.000299887
2 *5091:X 0.000299887
3 rdata[2] *5091:A 0.000115369
4 rdata[2] *164:10 0
*RES
1 *5091:X rdata[2] 19.4092 
*END

*D_NET *35 0.00113869
*CONN
*P rdata[30] O
*I *5092:X O *D sky130_fd_sc_hd__buf_2
*CAP
1 rdata[30] 0.000569346
2 *5092:X 0.000569346
*RES
1 *5092:X rdata[30] 24.3714 
*END

*D_NET *36 0.00113869
*CONN
*P rdata[31] O
*I *5093:X O *D sky130_fd_sc_hd__buf_2
*CAP
1 rdata[31] 0.000569346
2 *5093:X 0.000569346
3 rdata[31] rdata[6] 0
*RES
1 *5093:X rdata[31] 24.3714 
*END

*D_NET *37 0.000634157
*CONN
*P rdata[3] O
*I *5094:X O *D sky130_fd_sc_hd__buf_2
*CAP
1 rdata[3] 0.000284985
2 *5094:X 0.000284985
3 rdata[3] *164:10 0
4 rdata[3] *953:12 4.15914e-05
5 *5060:A rdata[3] 2.25951e-05
*RES
1 *5094:X rdata[3] 19.4092 
*END

*D_NET *38 0.000647111
*CONN
*P rdata[4] O
*I *5095:X O *D sky130_fd_sc_hd__buf_2
*CAP
1 rdata[4] 0.000294176
2 *5095:X 0.000294176
3 *5063:A rdata[4] 2.99915e-05
4 *5064:A rdata[4] 2.87684e-05
*RES
1 *5095:X rdata[4] 20.891 
*END

*D_NET *39 0.000807252
*CONN
*P rdata[5] O
*I *5096:X O *D sky130_fd_sc_hd__buf_2
*CAP
1 rdata[5] 0.000369782
2 *5096:X 0.000369782
3 *5059:A rdata[5] 2.15768e-05
4 *5060:A rdata[5] 4.61106e-05
*RES
1 *5096:X rdata[5] 21.4981 
*END

*D_NET *40 0.00134305
*CONN
*P rdata[6] O
*I *5097:X O *D sky130_fd_sc_hd__buf_2
*CAP
1 rdata[6] 0.000574269
2 *5097:X 0.000574269
3 rdata[6] *5093:A 0.000139337
4 rdata[6] *5097:A 5.51716e-05
5 rdata[31] rdata[6] 0
*RES
1 *5097:X rdata[6] 24.7821 
*END

*D_NET *41 0.00125554
*CONN
*P rdata[7] O
*I *5098:X O *D sky130_fd_sc_hd__buf_2
*CAP
1 rdata[7] 0.000599054
2 *5098:X 0.000599054
3 rdata[7] *5098:A 5.74309e-05
*RES
1 *5098:X rdata[7] 24.7821 
*END

*D_NET *42 0.00134131
*CONN
*P rdata[8] O
*I *5099:X O *D sky130_fd_sc_hd__buf_2
*CAP
1 rdata[8] 0.000573075
2 *5099:X 0.000573075
3 rdata[8] *4957:A 2.70164e-05
4 rdata[8] *5086:A 0.000111444
5 rdata[25] rdata[8] 5.66971e-05
*RES
1 *5099:X rdata[8] 25.3179 
*END

*D_NET *43 0.000498178
*CONN
*P rdata[9] O
*I *5100:X O *D sky130_fd_sc_hd__buf_2
*CAP
1 rdata[9] 0.000202761
2 *5100:X 0.000202761
3 rdata[9] *935:10 8.50795e-06
4 rdata[18] rdata[9] 8.41484e-05
*RES
1 *5100:X rdata[9] 18.1949 
*END

*D_NET *44 0.00063038
*CONN
*P ready O
*I *5116:HI O *D sky130_fd_sc_hd__conb_1
*CAP
1 ready 0.000288897
2 *5116:HI 0.000288897
3 ready *4150:B 0
4 *5064:A ready 2.25951e-05
5 *5065:A ready 2.99915e-05
*RES
1 *5116:HI ready 21.0874 
*END

*D_NET *45 0.00103087
*CONN
*P rst I
*I *5066:A I *D sky130_fd_sc_hd__clkbuf_4
*CAP
1 rst 0.000515436
2 *5066:A 0.000515436
*RES
1 rst *5066:A 23.7643 
*END

*D_NET *46 0.000649816
*CONN
*P valid I
*I *5049:A I *D sky130_fd_sc_hd__clkbuf_2
*CAP
1 valid 0.000293058
2 *5049:A 0.000293058
3 *5049:A *5058:A 2.99915e-05
4 rdata[0] *5049:A 3.37077e-05
*RES
1 valid *5049:A 20.891 
*END

*D_NET *47 0.000648643
*CONN
*P wdata[0] I
*I *5050:A I *D sky130_fd_sc_hd__buf_1
*CAP
1 wdata[0] 0.00029864
2 *5050:A 0.00029864
3 *5050:A *5051:A 2.87684e-05
4 *5050:A *5058:A 2.25951e-05
*RES
1 wdata[0] *5050:A 19.9443 
*END

*D_NET *58 0.000618669
*CONN
*P wdata[1] I
*I *5051:A I *D sky130_fd_sc_hd__buf_1
*CAP
1 wdata[1] 0.00029495
2 *5051:A 0.00029495
3 *5050:A *5051:A 2.87684e-05
*RES
1 wdata[1] *5051:A 20.7838 
*END

*D_NET *69 0.000661032
*CONN
*P wdata[2] I
*I *5052:A I *D sky130_fd_sc_hd__clkbuf_1
*CAP
1 wdata[2] 0.000316132
2 *5052:A 0.000316132
3 *5052:A *5055:A 2.87684e-05
*RES
1 wdata[2] *5052:A 20.2479 
*END

*D_NET *72 0.00053654
*CONN
*P wdata[3] I
*I *5053:A I *D sky130_fd_sc_hd__clkbuf_1
*CAP
1 wdata[3] 0.00026827
2 *5053:A 0.00026827
*RES
1 wdata[3] *5053:A 19.0336 
*END

*D_NET *73 0.000655904
*CONN
*P wdata[4] I
*I *5054:A I *D sky130_fd_sc_hd__clkbuf_1
*CAP
1 wdata[4] 0.000327952
2 *5054:A 0.000327952
3 *5054:A *5055:A 0
*RES
1 wdata[4] *5054:A 21.391 
*END

*D_NET *74 0.000575335
*CONN
*P wdata[5] I
*I *5055:A I *D sky130_fd_sc_hd__buf_1
*CAP
1 wdata[5] 0.000273283
2 *5055:A 0.000273283
3 *5052:A *5055:A 2.87684e-05
4 *5054:A *5055:A 0
*RES
1 wdata[5] *5055:A 20.4803 
*END

*D_NET *75 0.00094414
*CONN
*P wdata[6] I
*I *5056:A I *D sky130_fd_sc_hd__clkbuf_1
*CAP
1 wdata[6] 0.000462425
2 *5056:A 0.000462425
3 *5056:A *906:10 1.92905e-05
*RES
1 wdata[6] *5056:A 22.6571 
*END

*D_NET *76 0.00094414
*CONN
*P wdata[7] I
*I *5057:A I *D sky130_fd_sc_hd__clkbuf_1
*CAP
1 wdata[7] 0.000462425
2 *5057:A 0.000462425
3 *5057:A *917:10 1.92905e-05
*RES
1 wdata[7] *5057:A 22.6571 
*END

*D_NET *79 0.000660087
*CONN
*P write I
*I *5058:A I *D sky130_fd_sc_hd__buf_1
*CAP
1 write 0.00030375
2 *5058:A 0.00030375
3 *5058:A *831:14 0
4 *5049:A *5058:A 2.99915e-05
5 *5050:A *5058:A 2.25951e-05
*RES
1 write *5058:A 21.391 
*END

*D_NET *80 0.000261148
*CONN
*I *4837:D I *D sky130_fd_sc_hd__dfxtp_1
*I *4152:Y O *D sky130_fd_sc_hd__nor3_1
*CAP
1 *4837:D 9.4466e-05
2 *4152:Y 9.4466e-05
3 *4837:D *4147:A 5.5782e-05
4 *4837:D *4837:CLK 1.64343e-05
5 *4837:D *166:12 0
*RES
1 *4152:Y *4837:D 29.7116 
*END

*D_NET *81 0.000288303
*CONN
*I *4838:D I *D sky130_fd_sc_hd__dfxtp_1
*I *4157:X O *D sky130_fd_sc_hd__and2_1
*CAP
1 *4838:D 9.49822e-05
2 *4157:X 9.49822e-05
3 *4838:D *4157:B 9.83388e-05
*RES
1 *4157:X *4838:D 20.2295 
*END

*D_NET *82 0.00021821
*CONN
*I *4839:D I *D sky130_fd_sc_hd__dfxtp_1
*I *4159:X O *D sky130_fd_sc_hd__and2_1
*CAP
1 *4839:D 8.11099e-05
2 *4159:X 8.11099e-05
3 *4839:D *4269:A 7.43578e-06
4 *4839:D *781:33 4.85545e-05
*RES
1 *4159:X *4839:D 20.2295 
*END

*D_NET *83 0.000202933
*CONN
*I *4840:D I *D sky130_fd_sc_hd__dfxtp_1
*I *4161:X O *D sky130_fd_sc_hd__and2_1
*CAP
1 *4840:D 9.32494e-05
2 *4161:X 9.32494e-05
3 *4840:D *4840:CLK 1.64343e-05
4 *4840:D *844:35 0
*RES
1 *4161:X *4840:D 29.1045 
*END

*D_NET *84 0.000329758
*CONN
*I *4841:D I *D sky130_fd_sc_hd__dfxtp_1
*I *4163:X O *D sky130_fd_sc_hd__and2_1
*CAP
1 *4841:D 7.95059e-05
2 *4163:X 7.95059e-05
3 *4841:D *884:16 0.000170747
*RES
1 *4163:X *4841:D 20.2295 
*END

*D_NET *85 0.000199692
*CONN
*I *4842:D I *D sky130_fd_sc_hd__dfxtp_1
*I *4165:X O *D sky130_fd_sc_hd__and2_1
*CAP
1 *4842:D 8.08727e-05
2 *4165:X 8.08727e-05
3 *4842:D *4983:A 0
4 *4842:D *774:68 3.79467e-05
*RES
1 *4165:X *4842:D 29.1045 
*END

*D_NET *86 0.000374471
*CONN
*I *4843:D I *D sky130_fd_sc_hd__dfxtp_1
*I *4167:X O *D sky130_fd_sc_hd__and2_1
*CAP
1 *4843:D 0.000110238
2 *4167:X 0.000110238
3 *4843:D *4167:B 9.87646e-05
4 *4843:D *4843:CLK 5.52302e-05
*RES
1 *4167:X *4843:D 20.658 
*END

*D_NET *87 0.000374476
*CONN
*I *4844:D I *D sky130_fd_sc_hd__dfxtp_1
*I *4169:X O *D sky130_fd_sc_hd__and2_1
*CAP
1 *4844:D 3.97656e-05
2 *4169:X 3.97656e-05
3 *4844:D *984:27 0.000167931
4 *4844:D *992:25 0.000127014
*RES
1 *4169:X *4844:D 20.2295 
*END

*D_NET *88 0.000211879
*CONN
*I *4845:D I *D sky130_fd_sc_hd__dfxtp_2
*I *4171:X O *D sky130_fd_sc_hd__and2_1
*CAP
1 *4845:D 8.03356e-05
2 *4171:X 8.03356e-05
3 *4845:D *774:104 3.47737e-05
4 *4845:D *840:57 0
5 *4845:D *984:27 1.64343e-05
*RES
1 *4171:X *4845:D 29.1045 
*END

*D_NET *89 0.000212762
*CONN
*I *4846:D I *D sky130_fd_sc_hd__dfxtp_1
*I *4179:X O *D sky130_fd_sc_hd__o211a_1
*CAP
1 *4846:D 7.14697e-05
2 *4179:X 7.14697e-05
3 *4846:D *4179:A2 5.33882e-05
4 *4846:D *773:53 1.64343e-05
5 *4846:D *844:35 0
*RES
1 *4179:X *4846:D 29.1045 
*END

*D_NET *90 0.00029897
*CONN
*I *4847:D I *D sky130_fd_sc_hd__dfxtp_1
*I *4182:X O *D sky130_fd_sc_hd__o211a_1
*CAP
1 *4847:D 6.45064e-05
2 *4182:X 6.45064e-05
3 *4847:D *839:40 0.000169957
*RES
1 *4182:X *4847:D 20.2295 
*END

*D_NET *91 0.000589371
*CONN
*I *4848:D I *D sky130_fd_sc_hd__dfxtp_1
*I *4185:X O *D sky130_fd_sc_hd__o211a_1
*CAP
1 *4848:D 0.000217305
2 *4185:X 0.000217305
3 *4848:D *164:10 0.000154762
4 *4848:D *839:40 0
*RES
1 *4185:X *4848:D 31.7652 
*END

*D_NET *92 0.000734942
*CONN
*I *4849:D I *D sky130_fd_sc_hd__dfxtp_1
*I *4188:X O *D sky130_fd_sc_hd__o211a_1
*CAP
1 *4849:D 0.000275379
2 *4188:X 0.000275379
3 *4849:D *4188:A1 7.92879e-05
4 *4849:D *4188:B1 2.09961e-05
5 *4849:D *164:10 8.39e-05
*RES
1 *4188:X *4849:D 32.7116 
*END

*D_NET *93 0.000389392
*CONN
*I *4850:D I *D sky130_fd_sc_hd__dfxtp_1
*I *4191:X O *D sky130_fd_sc_hd__o211a_1
*CAP
1 *4850:D 6.07726e-05
2 *4191:X 6.07726e-05
3 *4850:D *4191:A1 0.000100823
4 *4850:D *775:89 0.000109725
5 *4850:D *843:10 5.7298e-05
*RES
1 *4191:X *4850:D 29.5152 
*END

*D_NET *94 0.000253199
*CONN
*I *4851:D I *D sky130_fd_sc_hd__dfxtp_1
*I *4194:X O *D sky130_fd_sc_hd__o211a_1
*CAP
1 *4851:D 6.53874e-05
2 *4194:X 6.53874e-05
3 *4851:D *775:16 1.74503e-05
4 *4851:D *775:59 0.000104974
*RES
1 *4194:X *4851:D 29.1045 
*END

*D_NET *95 0.000524143
*CONN
*I *4852:D I *D sky130_fd_sc_hd__dfxtp_1
*I *4197:X O *D sky130_fd_sc_hd__o211a_1
*CAP
1 *4852:D 0.000175612
2 *4197:X 0.000175612
3 *4852:D *4852:CLK 4.87669e-06
4 *4852:D *199:10 5.26091e-05
5 *4852:D *776:56 6.28241e-05
6 *4852:D *839:110 5.26091e-05
*RES
1 *4197:X *4852:D 31.3545 
*END

*D_NET *96 0.000308065
*CONN
*I *4853:D I *D sky130_fd_sc_hd__dfxtp_1
*I *4200:X O *D sky130_fd_sc_hd__o221a_1
*CAP
1 *4853:D 9.47805e-05
2 *4200:X 9.47805e-05
3 *4853:D *4947:A 5.92518e-05
4 *4853:D *845:10 5.92518e-05
*RES
1 *4200:X *4853:D 29.5152 
*END

*D_NET *97 0.000518282
*CONN
*I *4854:D I *D sky130_fd_sc_hd__dfxtp_1
*I *4202:X O *D sky130_fd_sc_hd__o221a_1
*CAP
1 *4854:D 0.00018769
2 *4202:X 0.00018769
3 *4854:D *4202:A1 1.49642e-05
4 *4854:D *4854:CLK 0.000127939
*RES
1 *4202:X *4854:D 31.225 
*END

*D_NET *98 0.000268358
*CONN
*I *4855:D I *D sky130_fd_sc_hd__dfxtp_1
*I *4204:X O *D sky130_fd_sc_hd__o221a_1
*CAP
1 *4855:D 9.08596e-05
2 *4204:X 9.08596e-05
3 *4855:D *4855:CLK 5.49489e-05
4 *4855:D *838:103 3.16898e-05
*RES
1 *4204:X *4855:D 20.2295 
*END

*D_NET *99 0.000458193
*CONN
*I *4856:D I *D sky130_fd_sc_hd__dfxtp_1
*I *4206:X O *D sky130_fd_sc_hd__o221a_1
*CAP
1 *4856:D 0.000190148
2 *4206:X 0.000190148
3 *4856:D *4206:A1 1.92789e-05
4 *4856:D *778:80 2.8266e-06
5 *4856:D *778:91 5.57914e-05
*RES
1 *4206:X *4856:D 30.9393 
*END

*D_NET *100 0.000317967
*CONN
*I *4857:D I *D sky130_fd_sc_hd__dfxtp_1
*I *4208:X O *D sky130_fd_sc_hd__o221a_1
*CAP
1 *4857:D 5.93661e-05
2 *4208:X 5.93661e-05
3 *4857:D *4208:B1 0.000170324
4 *4857:D *4857:CLK 2.89114e-05
*RES
1 *4208:X *4857:D 20.2295 
*END

*D_NET *101 0.000268349
*CONN
*I *4858:D I *D sky130_fd_sc_hd__dfxtp_1
*I *4210:X O *D sky130_fd_sc_hd__o221a_1
*CAP
1 *4858:D 8.74556e-05
2 *4210:X 8.74556e-05
3 *4858:D *778:67 9.34379e-05
*RES
1 *4210:X *4858:D 29.1045 
*END

*D_NET *102 0.000863526
*CONN
*I *4859:D I *D sky130_fd_sc_hd__dfxtp_1
*I *4212:X O *D sky130_fd_sc_hd__o221a_1
*CAP
1 *4859:D 0.000360335
2 *4212:X 0.000360335
3 *4859:D *4212:A2 0.000142856
4 *4859:D *5024:A 0
5 *4859:D *778:71 0
*RES
1 *4212:X *4859:D 32.7116 
*END

*D_NET *103 0.000445554
*CONN
*I *4860:D I *D sky130_fd_sc_hd__dfxtp_1
*I *4214:X O *D sky130_fd_sc_hd__o221a_1
*CAP
1 *4860:D 0.000106394
2 *4214:X 0.000106394
3 *4860:D *4212:C1 0.000151333
4 *4860:D *4214:A1 1.92789e-05
5 *4860:D *778:71 4.1331e-06
6 *4860:D *778:80 5.80217e-05
*RES
1 *4214:X *4860:D 30.2473 
*END

*D_NET *104 0.00047784
*CONN
*I *4861:D I *D sky130_fd_sc_hd__dfxtp_1
*I *4216:X O *D sky130_fd_sc_hd__o221a_1
*CAP
1 *4861:D 0.000180414
2 *4216:X 0.000180414
3 *4861:D *4216:A1 3.32631e-05
4 *4861:D *4862:CLK 7.92879e-05
5 *4861:D *778:91 4.46186e-06
*RES
1 *4216:X *4861:D 30.658 
*END

*D_NET *105 0.000246091
*CONN
*I *4862:D I *D sky130_fd_sc_hd__dfxtp_1
*I *4218:X O *D sky130_fd_sc_hd__o221a_1
*CAP
1 *4862:D 9.4472e-05
2 *4218:X 9.4472e-05
3 *4862:D *4862:CLK 5.71472e-05
*RES
1 *4218:X *4862:D 20.2295 
*END

*D_NET *106 0.000332395
*CONN
*I *4863:D I *D sky130_fd_sc_hd__dfxtp_1
*I *4220:X O *D sky130_fd_sc_hd__o221a_1
*CAP
1 *4863:D 0.00011371
2 *4220:X 0.00011371
3 *4863:D *777:62 0.000104974
4 *4863:D *967:91 0
*RES
1 *4220:X *4863:D 29.7473 
*END

*D_NET *107 0.000624539
*CONN
*I *4864:D I *D sky130_fd_sc_hd__dfxtp_1
*I *4222:X O *D sky130_fd_sc_hd__o221a_1
*CAP
1 *4864:D 0.000249441
2 *4222:X 0.000249441
3 *4864:D *4222:A1 0
4 *4864:D *4222:A2 0.000125658
*RES
1 *4222:X *4864:D 32.8321 
*END

*D_NET *108 0.000317419
*CONN
*I *4865:D I *D sky130_fd_sc_hd__dfxtp_1
*I *4224:X O *D sky130_fd_sc_hd__o221a_1
*CAP
1 *4865:D 7.17981e-05
2 *4224:X 7.17981e-05
3 *4865:D *4224:A1 0.000173823
*RES
1 *4224:X *4865:D 20.2295 
*END

*D_NET *109 0.000317419
*CONN
*I *4866:D I *D sky130_fd_sc_hd__dfxtp_1
*I *4226:X O *D sky130_fd_sc_hd__o221a_1
*CAP
1 *4866:D 7.17981e-05
2 *4226:X 7.17981e-05
3 *4866:D *4226:A1 0.000173823
*RES
1 *4226:X *4866:D 20.2295 
*END

*D_NET *110 0.00086165
*CONN
*I *4867:D I *D sky130_fd_sc_hd__dfxtp_1
*I *4228:X O *D sky130_fd_sc_hd__o221a_1
*CAP
1 *4867:D 0.000359397
2 *4228:X 0.000359397
3 *4867:D *4228:A2 0.000142856
4 *4867:D *4867:CLK 0
5 *4867:D *837:91 0
*RES
1 *4228:X *4867:D 32.7116 
*END

*D_NET *111 0.000342706
*CONN
*I *4868:D I *D sky130_fd_sc_hd__dfxtp_1
*I *4230:X O *D sky130_fd_sc_hd__o221a_1
*CAP
1 *4868:D 5.39504e-05
2 *4230:X 5.39504e-05
3 *4868:D *4228:C1 8.73796e-05
4 *4868:D *4230:A1 0.000147426
*RES
1 *4230:X *4868:D 20.8321 
*END

*D_NET *112 0.00140806
*CONN
*I *4869:D I *D sky130_fd_sc_hd__dfxtp_1
*I *4232:X O *D sky130_fd_sc_hd__o221a_1
*CAP
1 *4869:D 8.0597e-05
2 *4232:X 8.0597e-05
3 *4869:D *4232:A2 0.000623433
4 *4869:D *967:64 0.000623433
*RES
1 *4232:X *4869:D 24.5152 
*END

*D_NET *113 0.000398746
*CONN
*I *4870:D I *D sky130_fd_sc_hd__dfxtp_1
*I *4234:X O *D sky130_fd_sc_hd__o221a_1
*CAP
1 *4870:D 0.000118262
2 *4234:X 0.000118262
3 *4870:D *777:117 6.70845e-05
4 *4870:D *967:87 9.51375e-05
*RES
1 *4234:X *4870:D 20.783 
*END

*D_NET *114 0.000629404
*CONN
*I *4871:D I *D sky130_fd_sc_hd__dfxtp_1
*I *4236:X O *D sky130_fd_sc_hd__o221a_1
*CAP
1 *4871:D 0.000173944
2 *4236:X 0.000173944
3 *4871:D *779:80 5.09908e-05
4 *4871:D *779:82 0.000146187
5 *4871:D *779:158 8.43386e-05
*RES
1 *4236:X *4871:D 31.158 
*END

*D_NET *115 0.000371201
*CONN
*I *4872:D I *D sky130_fd_sc_hd__dfxtp_1
*I *4238:X O *D sky130_fd_sc_hd__o221a_1
*CAP
1 *4872:D 0.00013424
2 *4238:X 0.00013424
3 *4872:D *967:41 0.00010272
*RES
1 *4238:X *4872:D 29.9259 
*END

*D_NET *116 0.000379786
*CONN
*I *4873:D I *D sky130_fd_sc_hd__dfxtp_1
*I *4240:X O *D sky130_fd_sc_hd__o221a_1
*CAP
1 *4873:D 9.25642e-05
2 *4240:X 9.25642e-05
3 *4873:D *4240:A2 5.33882e-05
4 *4873:D *4873:CLK 0.000103323
5 *4873:D *838:124 3.79467e-05
*RES
1 *4240:X *4873:D 29.9259 
*END

*D_NET *117 0.00048981
*CONN
*I *4874:D I *D sky130_fd_sc_hd__dfxtp_1
*I *4242:X O *D sky130_fd_sc_hd__o221a_1
*CAP
1 *4874:D 0.000218755
2 *4242:X 0.000218755
3 *4874:D *4242:A1 2.11336e-05
4 *4874:D *779:92 3.11667e-05
*RES
1 *4242:X *4874:D 30.9393 
*END

*D_NET *118 0.000284136
*CONN
*I *4875:D I *D sky130_fd_sc_hd__dfxtp_1
*I *4244:X O *D sky130_fd_sc_hd__o221a_1
*CAP
1 *4875:D 9.73675e-05
2 *4244:X 9.73675e-05
3 *4875:D *4244:A1 5.32071e-05
4 *4875:D *779:110 3.61939e-05
*RES
1 *4244:X *4875:D 29.5152 
*END

*D_NET *119 0.000684885
*CONN
*I *4876:D I *D sky130_fd_sc_hd__dfxtp_1
*I *4246:X O *D sky130_fd_sc_hd__o221a_1
*CAP
1 *4876:D 0.000282071
2 *4246:X 0.000282071
3 *4876:D *4246:B2 6.81335e-05
4 *4876:D *5025:A 5.26091e-05
*RES
1 *4246:X *4876:D 32.9973 
*END

*D_NET *120 0.000264954
*CONN
*I *4877:D I *D sky130_fd_sc_hd__dfxtp_1
*I *4248:X O *D sky130_fd_sc_hd__o221a_1
*CAP
1 *4877:D 0.000100268
2 *4248:X 0.000100268
3 *4877:D *4876:CLK 1.64343e-05
4 *4877:D *199:10 0
5 *4877:D *776:71 4.79842e-05
*RES
1 *4248:X *4877:D 29.7116 
*END

*D_NET *121 0.000346731
*CONN
*I *4878:D I *D sky130_fd_sc_hd__dfxtp_4
*I *4251:X O *D sky130_fd_sc_hd__and2_1
*CAP
1 *4878:D 2.80686e-05
2 *4251:X 2.80686e-05
3 *4878:D *4840:CLK 5.65955e-05
4 *4878:D *774:44 0.000130869
5 *4878:D *841:69 0.000103129
*RES
1 *4251:X *4878:D 20.3679 
*END

*D_NET *122 0.000309144
*CONN
*I *4879:D I *D sky130_fd_sc_hd__dfxtp_1
*I *4253:X O *D sky130_fd_sc_hd__and2_1
*CAP
1 *4879:D 3.80415e-05
2 *4253:X 3.80415e-05
3 *4879:D *774:40 3.03133e-05
4 *4879:D *774:42 3.18676e-05
5 *4879:D *841:118 0.00017088
*RES
1 *4253:X *4879:D 20.2295 
*END

*D_NET *123 0.000432126
*CONN
*I *4880:D I *D sky130_fd_sc_hd__dfxtp_1
*I *4255:X O *D sky130_fd_sc_hd__and2_1
*CAP
1 *4880:D 0.000185426
2 *4255:X 0.000185426
3 *4880:D *4255:A 6.05161e-06
4 *4880:D *4880:CLK 5.52238e-05
*RES
1 *4255:X *4880:D 21.4616 
*END

*D_NET *124 0.000357747
*CONN
*I *4881:D I *D sky130_fd_sc_hd__dfxtp_2
*I *4257:X O *D sky130_fd_sc_hd__and2_1
*CAP
1 *4881:D 2.64597e-05
2 *4257:X 2.64597e-05
3 *4881:D *4257:B 0.000134504
4 *4881:D *873:8 0.000170324
*RES
1 *4257:X *4881:D 20.2295 
*END

*D_NET *125 0.000368668
*CONN
*I *4882:D I *D sky130_fd_sc_hd__dfxtp_1
*I *4259:X O *D sky130_fd_sc_hd__and2_1
*CAP
1 *4882:D 2.0202e-05
2 *4259:X 2.0202e-05
3 *4882:D *4259:A 0.000173823
4 *4882:D *774:89 2.44318e-05
5 *4882:D *774:100 0.00013001
*RES
1 *4259:X *4882:D 20.2295 
*END

*D_NET *126 0.000388219
*CONN
*I *4883:D I *D sky130_fd_sc_hd__dfxtp_1
*I *4261:X O *D sky130_fd_sc_hd__and2_1
*CAP
1 *4883:D 0.00014935
2 *4261:X 0.00014935
3 *4883:D *4843:CLK 0
4 *4883:D *4883:CLK 8.95186e-05
5 *4883:D *224:42 0
*RES
1 *4261:X *4883:D 30.4036 
*END

*D_NET *127 0.00037574
*CONN
*I *4884:D I *D sky130_fd_sc_hd__dfxtp_1
*I *4263:X O *D sky130_fd_sc_hd__and2_1
*CAP
1 *4884:D 9.349e-05
2 *4263:X 9.349e-05
3 *4884:D *4963:A 2.90501e-05
4 *4884:D *975:31 0.00015971
*RES
1 *4263:X *4884:D 29.7473 
*END

*D_NET *128 0.00036244
*CONN
*I *4885:D I *D sky130_fd_sc_hd__dfxtp_2
*I *4265:X O *D sky130_fd_sc_hd__and2_1
*CAP
1 *4885:D 0.00012986
2 *4265:X 0.00012986
3 *4885:D *774:113 0.00010272
*RES
1 *4265:X *4885:D 29.9259 
*END

*D_NET *129 0.000342365
*CONN
*I *4886:D I *D sky130_fd_sc_hd__dfxtp_1
*I *4269:X O *D sky130_fd_sc_hd__and3_1
*CAP
1 *4886:D 9.99812e-05
2 *4269:X 9.99812e-05
3 *4886:D *4266:A1 8.90236e-05
4 *4886:D *4269:B 5.33786e-05
5 *4886:D *1005:17 0
*RES
1 *4269:X *4886:D 29.7473 
*END

*D_NET *130 0.000732937
*CONN
*I *4887:D I *D sky130_fd_sc_hd__dfxtp_1
*I *4278:X O *D sky130_fd_sc_hd__o211a_1
*CAP
1 *4887:D 0.000220475
2 *4278:X 0.000220475
3 *4887:D *4887:CLK 0.000221501
4 *4887:D *844:35 3.47797e-05
5 *4887:D *1010:52 3.5707e-05
*RES
1 *4278:X *4887:D 31.9795 
*END

*D_NET *131 0.000670999
*CONN
*I *4888:D I *D sky130_fd_sc_hd__dfxtp_1
*I *4293:X O *D sky130_fd_sc_hd__o211a_1
*CAP
1 *4888:D 0.00016796
2 *4293:X 0.00016796
3 *4888:D *4888:CLK 0.000231818
4 *4888:D *164:10 0
5 *4888:D *839:49 0.00010326
*RES
1 *4293:X *4888:D 31.158 
*END

*D_NET *132 0.000691138
*CONN
*I *4889:D I *D sky130_fd_sc_hd__dfxtp_1
*I *4313:X O *D sky130_fd_sc_hd__o211a_1
*CAP
1 *4889:D 0.000208692
2 *4313:X 0.000208692
3 *4889:D *4313:B1 2.51343e-06
4 *4889:D *4994:A 8.89117e-05
5 *4889:D *775:59 0.000128154
6 *4889:D *775:70 3.51442e-05
7 *4889:D *843:16 1.90303e-05
*RES
1 *4313:X *4889:D 31.35 
*END

*D_NET *133 0.000317419
*CONN
*I *4890:D I *D sky130_fd_sc_hd__dfxtp_1
*I *4338:X O *D sky130_fd_sc_hd__and2_1
*CAP
1 *4890:D 7.17981e-05
2 *4338:X 7.17981e-05
3 *4890:D *843:116 0.000173823
*RES
1 *4338:X *4890:D 20.2295 
*END

*D_NET *134 0.000943633
*CONN
*I *4891:D I *D sky130_fd_sc_hd__dfxtp_1
*I *4371:X O *D sky130_fd_sc_hd__o211a_1
*CAP
1 *4891:D 0.000350088
2 *4371:X 0.000350088
3 *4891:D *4371:A2 5.17614e-05
4 *4891:D *776:32 8.95186e-05
5 *4891:D *844:52 7.6644e-05
6 *4891:D *1009:55 6.8646e-06
7 *4891:D *1010:131 1.86687e-05
*RES
1 *4371:X *4891:D 32.9929 
*END

*D_NET *135 0.000773236
*CONN
*I *4892:D I *D sky130_fd_sc_hd__dfxtp_1
*I *4411:X O *D sky130_fd_sc_hd__o211a_1
*CAP
1 *4892:D 0.000183733
2 *4411:X 0.000183733
3 *4892:D *825:12 2.524e-05
4 *4892:D *1002:46 0.00038053
5 *4892:D *1002:54 0
*RES
1 *4411:X *4892:D 32.1759 
*END

*D_NET *136 0.000205587
*CONN
*I *4893:D I *D sky130_fd_sc_hd__dfxtp_1
*I *4456:X O *D sky130_fd_sc_hd__o211a_1
*CAP
1 *4893:D 9.45762e-05
2 *4456:X 9.45762e-05
3 *4893:D *779:29 1.64343e-05
4 *4893:D *845:18 0
*RES
1 *4456:X *4893:D 29.1045 
*END

*D_NET *137 0.000384322
*CONN
*I *4894:D I *D sky130_fd_sc_hd__dfxtp_1
*I *4503:X O *D sky130_fd_sc_hd__and2_1
*CAP
1 *4894:D 6.62822e-05
2 *4503:X 6.62822e-05
3 *4894:D *4502:S 7.99677e-06
4 *4894:D *4503:A 6.58195e-05
5 *4894:D *966:104 0.000177941
*RES
1 *4503:X *4894:D 30.0152 
*END

*D_NET *138 0.00171452
*CONN
*I *4895:D I *D sky130_fd_sc_hd__dfxtp_1
*I *4545:X O *D sky130_fd_sc_hd__o211a_1
*CAP
1 *4895:D 0.000243733
2 *4545:X 0.000243733
3 *4895:D *4544:B1 0
4 *4895:D *498:14 0
5 *4895:D *828:30 2.15245e-05
6 *4895:D *838:118 0.000754636
7 *4895:D *1012:15 0
8 *4895:D *1012:51 0.000450889
*RES
1 *4545:X *4895:D 36.0866 
*END

*D_NET *139 0.000297439
*CONN
*I *4896:D I *D sky130_fd_sc_hd__dfxtp_1
*I *4588:X O *D sky130_fd_sc_hd__o211a_1
*CAP
1 *4896:D 3.92594e-05
2 *4588:X 3.92594e-05
3 *4896:D *4588:B1 0.000172893
4 *4896:D *798:8 4.60276e-05
*RES
1 *4588:X *4896:D 20.2295 
*END

*D_NET *140 0.00039898
*CONN
*I *4897:D I *D sky130_fd_sc_hd__dfxtp_1
*I *4621:X O *D sky130_fd_sc_hd__o211a_1
*CAP
1 *4897:D 0.000116988
2 *4621:X 0.000116988
3 *4897:D *4621:A2 5.52238e-05
4 *4897:D *4897:CLK 1.69115e-05
5 *4897:D *574:25 1.64343e-05
6 *4897:D *671:14 3.71496e-05
7 *4897:D *849:43 3.92854e-05
*RES
1 *4621:X *4897:D 29.9438 
*END

*D_NET *141 0.000317419
*CONN
*I *4898:D I *D sky130_fd_sc_hd__dfxtp_1
*I *4656:X O *D sky130_fd_sc_hd__o211a_1
*CAP
1 *4898:D 7.17981e-05
2 *4656:X 7.17981e-05
3 *4898:D *800:14 0.000173823
*RES
1 *4656:X *4898:D 20.2295 
*END

*D_NET *142 0.000396361
*CONN
*I *4899:D I *D sky130_fd_sc_hd__dfxtp_1
*I *4685:X O *D sky130_fd_sc_hd__o211a_1
*CAP
1 *4899:D 2.73004e-05
2 *4685:X 2.73004e-05
3 *4899:D *849:76 0.00017088
4 *4899:D *968:113 0.00017088
*RES
1 *4685:X *4899:D 20.2295 
*END

*D_NET *143 0.000431974
*CONN
*I *4900:D I *D sky130_fd_sc_hd__dfxtp_1
*I *4713:X O *D sky130_fd_sc_hd__o211a_1
*CAP
1 *4900:D 0.000137294
2 *4713:X 0.000137294
3 *4900:D *181:60 0
4 *4900:D *778:29 0
5 *4900:D *802:26 0.000147136
6 *4900:D *849:102 1.02504e-05
*RES
1 *4713:X *4900:D 30.3366 
*END

*D_NET *144 0.000516622
*CONN
*I *4901:D I *D sky130_fd_sc_hd__dfxtp_1
*I *4725:X O *D sky130_fd_sc_hd__o221a_1
*CAP
1 *4901:D 3.70961e-05
2 *4725:X 3.70961e-05
3 *4901:D *798:59 0.000183924
4 *4901:D *846:41 0.000258506
*RES
1 *4725:X *4901:D 21.0509 
*END

*D_NET *145 0.000826846
*CONN
*I *4902:D I *D sky130_fd_sc_hd__dfxtp_1
*I *4733:X O *D sky130_fd_sc_hd__o211a_1
*CAP
1 *4902:D 0.000320701
2 *4733:X 0.000320701
3 *4902:D *4733:A1 4.87854e-05
4 *4902:D *4733:A2 1.56e-05
5 *4902:D *4733:C1 1.61917e-05
6 *4902:D *4902:CLK 5.21324e-05
7 *4902:D *804:8 3.52992e-05
8 *4902:D *804:22 1.74352e-05
*RES
1 *4733:X *4902:D 23.658 
*END

*D_NET *146 0.00100957
*CONN
*I *4903:D I *D sky130_fd_sc_hd__dfxtp_1
*I *4738:X O *D sky130_fd_sc_hd__o211a_1
*CAP
1 *4903:D 0.000260017
2 *4738:X 0.000260017
3 *4903:D *4903:CLK 0.000453825
4 *4903:D *833:19 3.5707e-05
*RES
1 *4738:X *4903:D 33.2116 
*END

*D_NET *147 0.000886115
*CONN
*I *4904:D I *D sky130_fd_sc_hd__dfxtp_1
*I *4745:X O *D sky130_fd_sc_hd__o211a_1
*CAP
1 *4904:D 0.000290526
2 *4745:X 0.000290526
3 *4904:D *4745:B1 0
4 *4904:D *181:60 0.000177948
5 *4904:D *777:21 0.000127114
*RES
1 *4745:X *4904:D 33.1223 
*END

*D_NET *148 0.000368668
*CONN
*I *4905:D I *D sky130_fd_sc_hd__dfxtp_1
*I *4750:X O *D sky130_fd_sc_hd__o211a_1
*CAP
1 *4905:D 2.0202e-05
2 *4750:X 2.0202e-05
3 *4905:D *777:70 0.00013001
4 *4905:D *777:76 2.44318e-05
5 *4905:D *833:95 0.000173823
*RES
1 *4750:X *4905:D 20.2295 
*END

*D_NET *149 0.000537832
*CONN
*I *4906:D I *D sky130_fd_sc_hd__dfxtp_2
*I *4760:X O *D sky130_fd_sc_hd__o211a_1
*CAP
1 *4906:D 0.000197226
2 *4760:X 0.000197226
3 *4906:D *4760:A1 3.99614e-06
4 *4906:D *777:117 0.000133331
5 *4906:D *833:74 6.05161e-06
*RES
1 *4760:X *4906:D 22.35 
*END

*D_NET *150 0.000345392
*CONN
*I *4907:D I *D sky130_fd_sc_hd__dfxtp_1
*I *4765:X O *D sky130_fd_sc_hd__o211a_1
*CAP
1 *4907:D 8.53361e-05
2 *4765:X 8.53361e-05
3 *4907:D *780:101 5.71472e-05
4 *4907:D *780:112 0.000117573
*RES
1 *4765:X *4907:D 20.8321 
*END

*D_NET *151 0.000301283
*CONN
*I *4908:D I *D sky130_fd_sc_hd__dfxtp_1
*I *4773:X O *D sky130_fd_sc_hd__o211a_1
*CAP
1 *4908:D 3.8776e-05
2 *4773:X 3.8776e-05
3 *4908:D *780:89 1.92789e-05
4 *4908:D *811:6 0.00017088
5 *4908:D *847:33 3.35721e-05
*RES
1 *4773:X *4908:D 20.2295 
*END

*D_NET *152 0.000421795
*CONN
*I *4909:D I *D sky130_fd_sc_hd__dfxtp_1
*I *4778:Y O *D sky130_fd_sc_hd__a211oi_1
*CAP
1 *4909:D 0.000144461
2 *4778:Y 0.000144461
3 *4909:D *4777:B 6.14332e-05
4 *4909:D *4778:A2 0
5 *4909:D *4778:B1 0
6 *4909:D *4790:A 0
7 *4909:D *780:47 1.19309e-05
8 *4909:D *780:73 5.95099e-05
9 *4909:D *834:60 0
*RES
1 *4778:Y *4909:D 30.4259 
*END

*D_NET *153 0.00115977
*CONN
*I *4910:D I *D sky130_fd_sc_hd__dfxtp_2
*I *4786:X O *D sky130_fd_sc_hd__o211a_1
*CAP
1 *4910:D 0.000282445
2 *4786:X 0.000282445
3 *4910:D *4786:B1 9.24299e-05
4 *4910:D *4903:CLK 9.25014e-06
5 *4910:D *4910:CLK 1.64343e-05
6 *4910:D *780:12 0.000164547
7 *4910:D *813:12 0.000312215
*RES
1 *4786:X *4910:D 33.0152 
*END

*D_NET *154 0.00045134
*CONN
*I *4911:D I *D sky130_fd_sc_hd__dfxtp_1
*I *4791:Y O *D sky130_fd_sc_hd__a211oi_1
*CAP
1 *4911:D 0.000160736
2 *4791:Y 0.000160736
3 *4911:D *1002:22 0.000129868
*RES
1 *4791:Y *4911:D 30.6402 
*END

*D_NET *155 0.000534182
*CONN
*I *4912:D I *D sky130_fd_sc_hd__dfxtp_1
*I *4799:X O *D sky130_fd_sc_hd__o211a_1
*CAP
1 *4912:D 0.000105427
2 *4799:X 0.000105427
3 *4912:D *4239:A 0.000153047
4 *4912:D *832:134 0.000167767
5 *4912:D *845:88 2.51343e-06
*RES
1 *4799:X *4912:D 30.2473 
*END

*D_NET *156 0.000483775
*CONN
*I *4913:D I *D sky130_fd_sc_hd__dfxtp_1
*I *4804:Y O *D sky130_fd_sc_hd__a211oi_1
*CAP
1 *4913:D 0.000125479
2 *4804:Y 0.000125479
3 *4913:D *779:25 5.7298e-05
4 *4913:D *832:61 0.000175519
*RES
1 *4804:Y *4913:D 30.4259 
*END

*D_NET *157 0.000244223
*CONN
*I *4914:D I *D sky130_fd_sc_hd__dfxtp_1
*I *4815:X O *D sky130_fd_sc_hd__o211a_1
*CAP
1 *4914:D 6.96245e-05
2 *4815:X 6.96245e-05
3 *4914:D *4243:A 0.000104974
4 *4914:D *845:12 0
*RES
1 *4815:X *4914:D 29.1045 
*END

*D_NET *158 0.000338509
*CONN
*I *4915:D I *D sky130_fd_sc_hd__dfxtp_1
*I *4820:Y O *D sky130_fd_sc_hd__a211oi_1
*CAP
1 *4915:D 8.11009e-05
2 *4820:Y 8.11009e-05
3 *4915:D *4819:B 1.64343e-05
4 *4915:D *4820:B1 8.32354e-05
5 *4915:D *4915:CLK 7.66377e-05
*RES
1 *4820:Y *4915:D 29.7116 
*END

*D_NET *159 0.000503111
*CONN
*I *4916:D I *D sky130_fd_sc_hd__dfxtp_1
*I *4831:Y O *D sky130_fd_sc_hd__a211oi_2
*CAP
1 *4916:D 0.000128932
2 *4831:Y 0.000128932
3 *4916:D *4244:A2 5.33005e-05
4 *4916:D *4916:CLK 1.64343e-05
5 *4916:D *844:81 0.000175512
*RES
1 *4831:Y *4916:D 30.5509 
*END

*D_NET *160 0.000317419
*CONN
*I *4917:D I *D sky130_fd_sc_hd__dfxtp_1
*I *4836:Y O *D sky130_fd_sc_hd__a211oi_1
*CAP
1 *4917:D 7.17981e-05
2 *4836:Y 7.17981e-05
3 *4917:D *4832:A 0.000173823
*RES
1 *4836:Y *4917:D 20.2295 
*END

*D_NET *161 0.0100135
*CONN
*I *4418:B1 I *D sky130_fd_sc_hd__o2bb2a_1
*I *4460:B2 I *D sky130_fd_sc_hd__o2bb2a_1
*I *4506:B2 I *D sky130_fd_sc_hd__o2bb2a_1
*I *4548:B2 I *D sky130_fd_sc_hd__o2bb2a_1
*I *4592:B2 I *D sky130_fd_sc_hd__o2bb2a_1
*I *4631:B2 I *D sky130_fd_sc_hd__o2bb2a_1
*I *4662:B2 I *D sky130_fd_sc_hd__o2bb2a_1
*I *4145:Y O *D sky130_fd_sc_hd__inv_2
*CAP
1 *4418:B1 0.000602062
2 *4460:B2 0
3 *4506:B2 0
4 *4548:B2 3.75977e-05
5 *4592:B2 5.96681e-05
6 *4631:B2 4.31276e-05
7 *4662:B2 0.000102373
8 *4145:Y 0
9 *161:65 0.00092629
10 *161:52 0.000853372
11 *161:41 0.000835598
12 *161:30 0.000458239
13 *161:19 0.000293416
14 *161:6 0.000222948
15 *4418:B1 *4415:A 9.82593e-05
16 *4418:B1 *4417:D 0.000384472
17 *4418:B1 *4461:A_N 0.000312203
18 *4418:B1 *4462:A 0.00010326
19 *4418:B1 *796:36 9.69119e-06
20 *4418:B1 *977:52 5.41794e-05
21 *4418:B1 *977:68 0
22 *4418:B1 *1003:30 1.721e-05
23 *4418:B1 *1003:45 0
24 *4548:B2 *977:31 9.90367e-05
25 *4592:B2 *4592:A2_N 6.57032e-05
26 *4592:B2 *4592:B1 9.41642e-05
27 *4631:B2 *580:18 9.71197e-05
28 *4662:B2 *4662:A1_N 9.60875e-05
29 *4662:B2 *642:18 9.80173e-05
30 *4662:B2 *975:52 0.000173797
31 *4662:B2 *976:74 0.000107875
32 *4662:B2 *977:23 0
33 *4662:B2 *994:94 0.000100831
34 *161:19 *976:74 0.000129868
35 *161:19 *976:87 0.000217478
36 *161:19 *977:23 0
37 *161:19 *997:136 0.0001098
38 *161:30 *4592:B1 3.17148e-05
39 *161:30 *976:87 9.25014e-06
40 *161:30 *976:98 0.000378882
41 *161:30 *997:136 0.000180965
42 *161:41 *4506:A1_N 0.000187012
43 *161:41 *4592:B1 0.000187019
44 *161:41 *976:98 9.25014e-06
45 *161:41 *976:109 0.00016384
46 *161:41 *976:122 0.000406926
47 *161:41 *977:23 0
48 *161:41 *996:100 3.97543e-05
49 *161:41 *998:98 0.000390575
50 *161:52 *4467:A 0
51 *161:52 *4506:A1_N 0.000928453
52 *161:52 *4516:B 0
53 *161:52 *977:23 0
54 *161:52 *978:96 0
55 *161:52 *979:61 4.20528e-05
56 *161:52 *1003:10 0
57 *161:52 *1003:30 0
58 *161:65 *4461:A_N 5.71472e-05
59 *161:65 *979:61 0.000175414
60 *161:65 *1003:30 0
61 *161:65 *1006:14 2.14757e-05
*RES
1 *4145:Y *161:6 13.8 
2 *161:6 *4662:B2 17.6036 
3 *161:6 *161:19 4.375 
4 *161:19 *4631:B2 14.7464 
5 *161:19 *161:30 4.98214 
6 *161:30 *4592:B2 15.1571 
7 *161:30 *161:41 9.83929 
8 *161:41 *4548:B2 14.7464 
9 *161:41 *161:52 12.875 
10 *161:52 *4506:B2 13.8 
11 *161:52 *161:65 11.6429 
12 *161:65 *4460:B2 9.3 
13 *161:65 *4418:B1 32.5143 
*END

*D_NET *162 0.000285994
*CONN
*I *4151:A I *D sky130_fd_sc_hd__or2_1
*I *4146:Y O *D sky130_fd_sc_hd__inv_2
*CAP
1 *4151:A 6.90436e-05
2 *4146:Y 6.90436e-05
3 *4151:A *4153:A 4.88637e-05
4 *4151:A *4153:B 9.90431e-05
*RES
1 *4146:Y *4151:A 20.3679 
*END

*D_NET *163 0.014031
*CONN
*I *4951:A I *D sky130_fd_sc_hd__clkbuf_4
*I *4946:A I *D sky130_fd_sc_hd__buf_2
*I *4147:Y O *D sky130_fd_sc_hd__inv_2
*CAP
1 *4951:A 0.000253963
2 *4946:A 0.000947395
3 *4147:Y 0.000900917
4 *163:19 0.00445879
5 *163:6 0.00605314
6 *4951:A *4950:A 9.77842e-05
7 *4951:A *5010:A 0.000244721
8 *4951:A *5098:A 0.000144732
9 *4951:A *198:10 0
10 *4951:A *849:12 0.000474567
11 *163:19 *4245:A 0.000264154
12 *163:19 *820:36 0.000190838
*RES
1 *4147:Y *163:6 22.9786 
2 *163:6 *4946:A 35.7286 
3 *163:6 *163:19 65.4286 
4 *163:19 *4951:A 25.9429 
*END

*D_NET *164 0.00679327
*CONN
*I *4149:D_N I *D sky130_fd_sc_hd__or4b_1
*I *4148:X O *D sky130_fd_sc_hd__and3_1
*CAP
1 *4149:D_N 1.1624e-05
2 *4148:X 3.65657e-05
3 *164:10 0.00277759
4 *164:8 0.00280253
5 *4149:D_N *4149:C 5.52238e-05
6 *4149:D_N *4154:D 5.52238e-05
7 *164:8 *831:18 5.71472e-05
8 *164:10 *4149:C 6.2589e-06
9 *164:10 *4172:A 0
10 *164:10 *4172:B 7.83587e-05
11 *164:10 *4185:A1 0
12 *164:10 *4188:A1 0
13 *164:10 *4998:A 0
14 *164:10 *5080:A 0.00010597
15 *164:10 *5091:A 0
16 *164:10 *169:26 6.8646e-06
17 *164:10 *181:12 0.000368066
18 *164:10 *831:8 5.57914e-05
19 *164:10 *831:14 5.03787e-05
20 *164:10 *839:40 0
21 *164:10 *839:49 0
22 *164:10 *839:62 0
23 *164:10 *844:35 0
24 *164:10 *926:12 4.35048e-05
25 *164:10 *936:8 0
26 *164:10 *936:21 0
27 *164:10 *950:8 0
28 *164:10 *953:12 4.35048e-05
29 rdata[2] *164:10 0
30 rdata[3] *164:10 0
31 *4848:D *164:10 0.000154762
32 *4849:D *164:10 8.39e-05
33 *4888:D *164:10 0
*RES
1 *4148:X *164:8 14.3357 
2 *164:8 *164:10 55.375 
3 *164:10 *4149:D_N 14.3357 
*END

*D_NET *165 0.00160327
*CONN
*I *4152:B I *D sky130_fd_sc_hd__nor3_1
*I *4149:X O *D sky130_fd_sc_hd__or4b_1
*CAP
1 *4152:B 0.000369673
2 *4149:X 0.000369673
3 *4152:B *4154:D 0.000156548
4 *4152:B *4176:A 0.000177941
5 *4152:B *4176:B 0.000347347
6 *4152:B *168:10 0.000182086
*RES
1 *4149:X *4152:B 36.6893 
*END

*D_NET *166 0.00154807
*CONN
*I *4153:B I *D sky130_fd_sc_hd__or2_1
*I *4151:B I *D sky130_fd_sc_hd__or2_1
*I *4150:X O *D sky130_fd_sc_hd__or4_1
*CAP
1 *4153:B 4.26921e-05
2 *4151:B 0
3 *4150:X 0.000401927
4 *166:12 0.00044462
5 *4153:B *4153:A 0.000232399
6 *4153:B *167:6 5.71472e-05
7 *166:12 *4150:A 0.000270243
8 *4151:A *4153:B 9.90431e-05
9 *4837:D *166:12 0
*RES
1 *4150:X *166:12 25.9429 
2 *166:12 *4151:B 9.3 
3 *166:12 *4153:B 11.4786 
*END

*D_NET *167 0.00078951
*CONN
*I *4152:C I *D sky130_fd_sc_hd__nor3_1
*I *4176:A I *D sky130_fd_sc_hd__nor2_2
*I *4151:X O *D sky130_fd_sc_hd__or2_1
*CAP
1 *4152:C 0
2 *4176:A 5.71738e-05
3 *4151:X 0.000130671
4 *167:6 0.000187845
5 *4176:A *168:10 0.000129868
6 *167:6 *4153:A 4.88637e-05
7 *4152:B *4176:A 0.000177941
8 *4153:B *167:6 5.71472e-05
*RES
1 *4151:X *167:6 11.8893 
2 *167:6 *4176:A 20.55 
3 *167:6 *4152:C 9.3 
*END

*D_NET *168 0.00171764
*CONN
*I *4173:A I *D sky130_fd_sc_hd__nor2_4
*I *4154:D I *D sky130_fd_sc_hd__nor4_1
*I *4153:X O *D sky130_fd_sc_hd__or2_1
*CAP
1 *4173:A 0
2 *4154:D 0.000278285
3 *4153:X 0.000267369
4 *168:10 0.000545654
5 *4154:D *4149:C 7.17235e-05
6 *4154:D *169:26 1.39726e-05
7 *168:10 *4172:A 0
8 *168:10 *4176:B 1.40849e-05
9 *168:10 *179:10 2.8266e-06
10 *168:10 *925:23 0
11 *4149:D_N *4154:D 5.52238e-05
12 *4152:B *4154:D 0.000156548
13 *4152:B *168:10 0.000182086
14 *4176:A *168:10 0.000129868
*RES
1 *4153:X *168:10 24.8 
2 *168:10 *4154:D 14.9071 
3 *168:10 *4173:A 9.3 
*END

*D_NET *169 0.00499328
*CONN
*I *5068:A I *D sky130_fd_sc_hd__clkbuf_2
*I *4187:A2 I *D sky130_fd_sc_hd__a211o_1
*I *4154:Y O *D sky130_fd_sc_hd__nor4_1
*CAP
1 *5068:A 9.49083e-05
2 *4187:A2 6.14216e-05
3 *4154:Y 0.00102478
4 *169:26 0.00118111
5 *4187:A2 *182:80 6.55528e-06
6 *4187:A2 *1001:10 0.000139202
7 *4187:A2 *1001:40 1.00332e-05
8 *4187:A2 *1010:22 9.47456e-05
9 *5068:A *4986:A 0.000143651
10 *5068:A *843:42 0.000400401
11 *5068:A *1001:10 0.000139215
12 *169:26 *4149:C 0.000185643
13 *169:26 *4172:A 0.000101545
14 *169:26 *4172:B 9.25762e-05
15 *169:26 *5096:A 4.27338e-05
16 *169:26 *182:80 1.16122e-05
17 *169:26 *830:25 9.90367e-05
18 *169:26 *839:62 0.000832688
19 *169:26 *1010:22 0.000310583
20 *4154:D *169:26 1.39726e-05
21 *164:10 *169:26 6.8646e-06
*RES
1 *4154:Y *169:26 42.2821 
2 *169:26 *4187:A2 16.05 
3 *169:26 *5068:A 17.6214 
*END

*D_NET *170 0.0160233
*CONN
*I *4156:S I *D sky130_fd_sc_hd__mux2_1
*I *4158:S I *D sky130_fd_sc_hd__mux2_1
*I *4166:S I *D sky130_fd_sc_hd__mux2_1
*I *4170:S I *D sky130_fd_sc_hd__mux2_1
*I *4168:S I *D sky130_fd_sc_hd__mux2_1
*I *4164:S I *D sky130_fd_sc_hd__mux2_1
*I *4162:S I *D sky130_fd_sc_hd__mux2_1
*I *4160:S I *D sky130_fd_sc_hd__mux2_1
*I *4155:X O *D sky130_fd_sc_hd__and3_4
*CAP
1 *4156:S 0
2 *4158:S 0.000431862
3 *4166:S 8.1379e-05
4 *4170:S 0
5 *4168:S 0.000350584
6 *4164:S 4.24443e-05
7 *4162:S 0.0003572
8 *4160:S 5.11135e-05
9 *4155:X 1.645e-05
10 *170:98 0.000730843
11 *170:59 0.000915023
12 *170:55 0.00126345
13 *170:40 0.00145375
14 *170:27 0.00189656
15 *170:12 0.00112146
16 *170:6 0.000640081
17 *4158:S *4156:A1 3.50166e-05
18 *4158:S *4158:A1 0.000490416
19 *4158:S *4199:C1 0.000158794
20 *4158:S *182:10 9.61354e-05
21 *4158:S *224:10 0.000265634
22 *4160:S *4160:A0 7.43578e-06
23 *4160:S *1004:27 4.13496e-05
24 *4162:S *4841:CLK 6.74815e-05
25 *4162:S *4881:CLK 0
26 *4162:S *774:68 0
27 *4162:S *784:17 0
28 *4164:S *4260:S 1.33343e-05
29 *4164:S *998:25 2.44318e-05
30 *4166:S *4981:A 5.33005e-05
31 *4166:S *978:20 0.000276396
32 *4166:S *996:6 0.000103626
33 *4166:S *996:19 0.00010096
34 *4168:S *4168:A1 0.000227539
35 *4168:S *4170:A0 5.70551e-05
36 *4168:S *4170:A1 3.57366e-05
37 *4168:S *4977:A 5.04589e-05
38 *4168:S *4979:A 2.44318e-05
39 *4168:S *992:25 2.24763e-05
40 *170:6 *4155:C 9.90367e-05
41 *170:6 *842:17 9.90367e-05
42 *170:12 *4943:A 0.000148911
43 *170:12 *773:14 0
44 *170:12 *841:43 0.000148109
45 *170:27 *4165:A 0
46 *170:27 *4881:CLK 0
47 *170:27 *4971:A 0
48 *170:27 *4972:A 0.000315172
49 *170:27 *773:14 0
50 *170:27 *784:17 0
51 *170:27 *986:21 0
52 *170:27 *986:31 0.000164618
53 *170:27 *986:48 0
54 *170:27 *1004:27 0.000281006
55 *170:40 *4164:A1 3.32631e-05
56 *170:40 *4165:A 2.59355e-05
57 *170:40 *4165:B 0.000451463
58 *170:40 *895:18 6.95788e-05
59 *170:40 *998:6 3.39935e-05
60 *170:40 *998:25 2.07491e-05
61 *170:55 *4166:A1 0.000266486
62 *170:55 *4260:S 6.44345e-05
63 *170:55 *4981:A 0.00012401
64 *170:55 *841:118 5.84171e-05
65 *170:55 *895:20 0.000209209
66 *170:59 *4167:B 0.000128161
67 *170:59 *4168:A1 0
68 *170:59 *4981:A 3.17148e-05
69 *170:59 *4982:A 0
70 *170:59 *841:118 0.000405866
71 *170:59 *975:105 0
72 *170:59 *992:25 0
73 *170:98 *4155:C 0.000577404
74 *170:98 *4156:A1 9.64329e-05
75 *170:98 *784:17 6.70394e-05
76 *170:98 *842:17 0.000599059
*RES
1 *4155:X *170:6 10.2464 
2 *170:6 *170:12 16.1071 
3 *170:12 *4160:S 10.2464 
4 *170:12 *170:27 20.5357 
5 *170:27 *4162:S 20.3 
6 *170:27 *170:40 15.3036 
7 *170:40 *4164:S 10.5679 
8 *170:40 *170:55 14.0714 
9 *170:55 *170:59 17.0714 
10 *170:59 *4168:S 16.4429 
11 *170:59 *4170:S 9.3 
12 *170:55 *4166:S 17.7821 
13 *170:6 *170:98 18.5536 
14 *170:98 *4158:S 19.3179 
15 *170:98 *4156:S 9.3 
*END

*D_NET *171 0.000688455
*CONN
*I *4157:B I *D sky130_fd_sc_hd__and2_1
*I *4156:X O *D sky130_fd_sc_hd__mux2_1
*CAP
1 *4157:B 0.000191763
2 *4156:X 0.000191763
3 *4157:B *4249:C 3.08664e-05
4 *4157:B *4838:CLK 0.000141734
5 *4157:B *180:67 3.39905e-05
6 *4157:B *986:48 0
7 *4838:D *4157:B 9.83388e-05
*RES
1 *4156:X *4157:B 31.5464 
*END

*D_NET *172 0.000618346
*CONN
*I *4159:B I *D sky130_fd_sc_hd__and2_1
*I *4158:X O *D sky130_fd_sc_hd__mux2_1
*CAP
1 *4159:B 0.000190888
2 *4158:X 0.000190888
3 *4159:B *4975:A 4.79842e-05
4 *4159:B *180:78 0.000188586
5 *4159:B *866:25 0
*RES
1 *4158:X *4159:B 31.0107 
*END

*D_NET *173 0.000454881
*CONN
*I *4161:B I *D sky130_fd_sc_hd__and2_1
*I *4160:X O *D sky130_fd_sc_hd__mux2_1
*CAP
1 *4161:B 0.000177922
2 *4160:X 0.000177922
3 *4161:B *4161:A 9.90367e-05
*RES
1 *4160:X *4161:B 21.9214 
*END

*D_NET *174 0.000785358
*CONN
*I *4163:B I *D sky130_fd_sc_hd__and2_1
*I *4162:X O *D sky130_fd_sc_hd__mux2_1
*CAP
1 *4163:B 0.000311388
2 *4162:X 0.000311388
3 *4163:B *4257:A 0.000152333
4 *4163:B *4881:CLK 0
5 *4163:B *840:14 1.02504e-05
*RES
1 *4162:X *4163:B 32.1357 
*END

*D_NET *175 0.000855062
*CONN
*I *4165:B I *D sky130_fd_sc_hd__and2_1
*I *4164:X O *D sky130_fd_sc_hd__mux2_1
*CAP
1 *4165:B 0.000105363
2 *4164:X 0.000105363
3 *4165:B *4983:A 5.62995e-05
4 *4165:B *895:18 8.42683e-05
5 *4165:B *998:6 5.23057e-05
6 *170:40 *4165:B 0.000451463
*RES
1 *4164:X *4165:B 23.5643 
*END

*D_NET *176 0.000975899
*CONN
*I *4167:B I *D sky130_fd_sc_hd__and2_1
*I *4166:X O *D sky130_fd_sc_hd__mux2_1
*CAP
1 *4167:B 0.000252845
2 *4166:X 0.000252845
3 *4167:B *4167:A 1.82029e-05
4 *4167:B *4843:CLK 5.71472e-05
5 *4167:B *4982:A 0
6 *4167:B *1000:35 0.000167934
7 *4843:D *4167:B 9.87646e-05
8 *170:59 *4167:B 0.000128161
*RES
1 *4166:X *4167:B 34.0464 
*END

*D_NET *177 0.00035475
*CONN
*I *4169:B I *D sky130_fd_sc_hd__and2_1
*I *4168:X O *D sky130_fd_sc_hd__mux2_1
*CAP
1 *4169:B 7.1088e-05
2 *4168:X 7.1088e-05
3 *4169:B *4844:CLK 6.42242e-05
4 *4169:B *984:27 2.89016e-05
5 *4169:B *992:25 0.000119448
*RES
1 *4168:X *4169:B 29.7786 
*END

*D_NET *178 0.000457938
*CONN
*I *4171:B I *D sky130_fd_sc_hd__and2_1
*I *4170:X O *D sky130_fd_sc_hd__mux2_1
*CAP
1 *4171:B 0.00017945
2 *4170:X 0.00017945
3 *4171:B *4170:A1 0
4 *4171:B *4171:A 9.90367e-05
*RES
1 *4170:X *4171:B 21.9214 
*END

*D_NET *179 0.00194335
*CONN
*I *4176:B I *D sky130_fd_sc_hd__nor2_2
*I *4173:B I *D sky130_fd_sc_hd__nor2_4
*I *4172:X O *D sky130_fd_sc_hd__or3b_2
*CAP
1 *4176:B 0.000182822
2 *4173:B 0
3 *4172:X 0.000434314
4 *179:10 0.000617136
5 *4176:B *1010:22 0
6 *179:10 *4172:A 0
7 *179:10 *4172:C_N 9.80173e-05
8 *179:10 *5096:A 0.000118584
9 *179:10 *180:12 0.000128214
10 *179:10 *839:62 0
11 *179:10 *1010:22 0
12 *4152:B *4176:B 0.000347347
13 *168:10 *4176:B 1.40849e-05
14 *168:10 *179:10 2.8266e-06
*RES
1 *4172:X *179:10 21.0857 
2 *179:10 *4173:B 13.8 
3 *179:10 *4176:B 18.7821 
*END

*D_NET *180 0.0221398
*CONN
*I *4186:A2 I *D sky130_fd_sc_hd__a22o_1
*I *4189:B1 I *D sky130_fd_sc_hd__a22o_1
*I *4183:B1 I *D sky130_fd_sc_hd__a22o_1
*I *4180:B1 I *D sky130_fd_sc_hd__a22o_1
*I *4199:B1 I *D sky130_fd_sc_hd__a221o_1
*I *4195:B1 I *D sky130_fd_sc_hd__a22o_1
*I *4192:B1 I *D sky130_fd_sc_hd__a22o_1
*I *4249:C I *D sky130_fd_sc_hd__and3_4
*I *4178:A2 I *D sky130_fd_sc_hd__a211o_1
*I *4173:Y O *D sky130_fd_sc_hd__nor2_4
*CAP
1 *4186:A2 8.18726e-05
2 *4189:B1 0.000779152
3 *4183:B1 0
4 *4180:B1 0
5 *4199:B1 0.000125941
6 *4195:B1 0
7 *4192:B1 0.000138383
8 *4249:C 0.000130305
9 *4178:A2 0.00013798
10 *4173:Y 0.000576419
11 *180:125 0.00101505
12 *180:86 0.00107874
13 *180:78 0.00181627
14 *180:67 0.00139404
15 *180:48 0.000734476
16 *180:44 0.001167
17 *180:22 0.00175562
18 *180:12 0.00140181
19 *4178:A2 *4178:A1 0.000267334
20 *4178:A2 *986:48 5.80217e-05
21 *4186:A2 *4186:B1 0
22 *4186:A2 *4186:B2 0
23 *4186:A2 *4187:C1 5.60453e-06
24 *4186:A2 *182:68 2.68335e-06
25 *4186:A2 *1001:40 5.6766e-05
26 *4189:B1 *4189:A1 2.27416e-05
27 *4189:B1 *4190:B1 3.47797e-05
28 *4189:B1 *973:24 9.90431e-05
29 *4189:B1 *974:14 0.000104227
30 *4189:B1 *1001:40 0
31 *4189:B1 *1010:22 0
32 *4192:B1 *772:48 5.10822e-05
33 *4192:B1 *859:29 0.000103267
34 *4192:B1 *973:24 6.05161e-06
35 *4192:B1 *973:35 4.43256e-05
36 *4199:B1 *4199:B2 1.28809e-05
37 *4199:B1 *4199:C1 2.14658e-05
38 *4199:B1 *5107:A 6.05161e-06
39 *4249:C *182:10 0.000356434
40 *180:12 *4188:B1 0.000227532
41 *180:12 *182:68 0.000151358
42 *180:12 *775:22 0
43 *180:12 *775:26 0
44 *180:12 *839:62 0
45 *180:12 *843:42 0
46 *180:12 *955:10 0
47 *180:12 *1010:22 0
48 *180:22 *182:68 0
49 *180:22 *843:42 0.000173797
50 *180:22 *972:32 0.000250201
51 *180:22 *974:14 0
52 *180:22 *1010:22 0.000233336
53 *180:44 *4177:B1 4.51198e-05
54 *180:44 *4181:B1 4.58194e-05
55 *180:44 *4183:A1 1.55885e-05
56 *180:44 *4183:A2 0.00038557
57 *180:44 *4183:B2 1.97695e-05
58 *180:44 *182:39 5.61411e-05
59 *180:44 *784:17 7.2412e-05
60 *180:44 *841:18 7.54868e-05
61 *180:44 *974:14 2.24646e-05
62 *180:44 *974:24 0.00104089
63 *180:44 *986:48 5.49544e-05
64 *180:44 *986:57 0.000258693
65 *180:48 *4178:A1 0.000215394
66 *180:48 *4180:A1 3.1001e-05
67 *180:48 *4180:A2 9.58181e-05
68 *180:48 *4180:B2 5.38444e-06
69 *180:67 *4155:C 0.000738182
70 *180:67 *4178:A1 3.85567e-05
71 *180:67 *974:26 0.00017335
72 *180:67 *986:48 0
73 *180:78 *4158:A0 0.000186669
74 *180:78 *4199:C1 0.00122299
75 *180:78 *182:10 0.000311761
76 *180:78 *1005:6 8.76257e-05
77 *180:86 *4384:B1 0.000128146
78 *180:86 *4973:A 0.000137437
79 *180:86 *797:12 0
80 *180:86 *859:16 0.0011349
81 *180:86 *979:12 0.000146225
82 *180:86 *987:41 0
83 *180:125 *4187:C1 2.29893e-05
84 *180:125 *4188:B1 8.17274e-05
85 *180:125 *182:68 0.000102518
86 *180:125 *1001:40 0.000182497
87 *4157:B *4249:C 3.08664e-05
88 *4157:B *180:67 3.39905e-05
89 *4159:B *180:78 0.000188586
90 *179:10 *180:12 0.000128214
*RES
1 *4173:Y *180:12 30.6214 
2 *180:12 *180:22 23.75 
3 *180:22 *180:44 42.3393 
4 *180:44 *180:48 2.60714 
5 *180:48 *4178:A2 22.0143 
6 *180:48 *180:67 20.6607 
7 *180:67 *4249:C 12.7107 
8 *180:67 *180:78 18.2143 
9 *180:78 *180:86 31.1429 
10 *180:86 *4192:B1 21.0143 
11 *180:86 *4195:B1 9.3 
12 *180:78 *4199:B1 11.0679 
13 *180:44 *4180:B1 9.3 
14 *180:22 *4183:B1 9.3 
15 *180:12 *180:125 3.82143 
16 *180:125 *4189:B1 30.8357 
17 *180:125 *4186:A2 11.1036 
*END

*D_NET *181 0.0452156
*CONN
*I *4941:A I *D sky130_fd_sc_hd__clkbuf_4
*I *4230:A2 I *D sky130_fd_sc_hd__o221a_1
*I *4232:A2 I *D sky130_fd_sc_hd__o221a_1
*I *4234:A2 I *D sky130_fd_sc_hd__o221a_1
*I *4942:A I *D sky130_fd_sc_hd__clkbuf_4
*I *1013:DIODE I *D sky130_fd_sc_hd__diode_2
*I *4174:X O *D sky130_fd_sc_hd__and2b_4
*CAP
1 *4941:A 0.000702565
2 *4230:A2 0.000207917
3 *4232:A2 0.00155873
4 *4234:A2 0
5 *4942:A 3.49772e-05
6 *1013:DIODE 0
7 *4174:X 0.000551923
8 *181:79 0.00236619
9 *181:71 0.00153789
10 *181:60 0.00284262
11 *181:56 0.00388257
12 *181:54 0.00349561
13 *181:50 0.00420707
14 *181:46 0.00368853
15 *181:38 0.00375562
16 *181:23 0.0017988
17 *181:12 0.000677311
18 *4230:A2 *4228:C1 6.01685e-05
19 *4230:A2 *4229:A 0.000431769
20 *4230:A2 *4229:B 2.89114e-05
21 *4230:A2 *4230:B1 0.000880677
22 *4230:A2 *4230:B2 0.000358927
23 *4230:A2 *847:147 4.50365e-05
24 *4232:A2 *4232:B1 5.46383e-06
25 *4232:A2 *4232:B2 2.85234e-05
26 *4232:A2 *4232:C1 1.24368e-05
27 *4232:A2 *967:64 0.00168681
28 *4941:A *4207:B 6.62783e-05
29 *4941:A *4208:A1 0
30 *4941:A *4208:A2 0.000702273
31 *4941:A *4211:A 0.000230431
32 *4941:A *4212:B2 0.000140856
33 *4941:A *4857:CLK 1.82833e-05
34 *4941:A *838:8 8.59075e-05
35 *4941:A *849:55 0
36 *4941:A *849:102 0
37 *4941:A *971:89 0
38 *4941:A *971:91 0
39 *181:12 *844:35 0
40 *181:38 *4177:B2 2.24195e-05
41 *181:38 *4178:B1 0.000374155
42 *181:38 *4179:B1 0.000268133
43 *181:38 *4266:A1 0.000106121
44 *181:38 *4268:A 2.27416e-05
45 *181:38 *4268:B 8.25843e-06
46 *181:38 *4886:CLK 9.76689e-05
47 *181:38 *1007:42 9.60875e-05
48 *181:46 *4376:A 1.39841e-05
49 *181:46 *4431:A1 2.59355e-05
50 *181:46 *4431:B1 0.00013949
51 *181:46 *385:12 0.000357945
52 *181:46 *391:12 0.000213626
53 *181:46 *441:10 0.000177948
54 *181:46 *984:59 0
55 *181:46 *1008:14 0
56 *181:50 *4414:B 5.33005e-05
57 *181:50 *4414:D 2.28499e-05
58 *181:50 *4419:B 0.00014285
59 *181:50 *379:12 0.000398345
60 *181:50 *392:12 0.00109201
61 *181:50 *979:89 0.000184745
62 *181:50 *1006:45 1.39841e-05
63 *181:54 *4207:A 0.000271052
64 *181:54 *4577:A 0.000122091
65 *181:54 *4577:B 0.000297662
66 *181:54 *4581:A 0.000229456
67 *181:56 *4207:A 0.00030086
68 *181:56 *4207:B 0.000233494
69 *181:60 *4204:B1 7.60306e-05
70 *181:60 *4219:A 0
71 *181:60 *4223:B 0
72 *181:60 *4225:A 9.56968e-05
73 *181:60 *4234:B2 0.000125731
74 *181:60 *4725:A1 0
75 *181:60 *4744:B 0
76 *181:60 *4745:B1 0
77 *181:60 *4745:C1 0
78 *181:60 *4866:CLK 0
79 *181:60 *4901:CLK 0
80 *181:60 *5041:A 0
81 *181:60 *183:69 0
82 *181:60 *777:12 0
83 *181:60 *778:8 0
84 *181:60 *798:59 0.000212831
85 *181:60 *847:62 0
86 *181:60 *847:70 0
87 *181:60 *849:102 0
88 *181:60 *970:52 0.000177307
89 *181:60 *971:70 0.000157578
90 *181:71 *4229:A 3.17148e-05
91 *181:71 *4866:CLK 0
92 *181:71 *183:69 0
93 *181:71 *847:33 0
94 *181:71 *847:35 0
95 *181:71 *847:39 0
96 *181:71 *967:68 0.000986214
97 *181:79 *4229:A 0.000349145
98 *181:79 *847:33 0
99 *181:79 *847:147 2.44318e-05
100 *181:79 *967:64 0.000431198
101 *4869:D *4232:A2 0.000623433
102 *4900:D *181:60 0
103 *4904:D *181:60 0.000177948
104 *164:10 *181:12 0.000368066
*RES
1 *4174:X *181:12 29.1036 
2 *181:12 *1013:DIODE 9.3 
3 *181:12 *181:23 1.91071 
4 *181:23 *4942:A 10.0321 
5 *181:23 *181:38 22.4643 
6 *181:38 *181:46 43.5 
7 *181:46 *181:50 33.6161 
8 *181:50 *181:54 43.6786 
9 *181:54 *181:56 11.8304 
10 *181:56 *181:60 49.8571 
11 *181:60 *4234:A2 13.8 
12 *181:60 *181:71 17.375 
13 *181:71 *181:79 28.2857 
14 *181:79 *4232:A2 33.4071 
15 *181:71 *4230:A2 19.3 
16 *181:56 *4941:A 34.2464 
*END

*D_NET *182 0.0233733
*CONN
*I *4199:C1 I *D sky130_fd_sc_hd__a221o_1
*I *4181:C1 I *D sky130_fd_sc_hd__a211o_1
*I *4187:B1 I *D sky130_fd_sc_hd__a211o_1
*I *4196:C1 I *D sky130_fd_sc_hd__a211o_1
*I *4190:C1 I *D sky130_fd_sc_hd__a211o_1
*I *4193:C1 I *D sky130_fd_sc_hd__a211o_1
*I *4184:C1 I *D sky130_fd_sc_hd__a211o_1
*I *4178:B1 I *D sky130_fd_sc_hd__a211o_1
*I *4175:Y O *D sky130_fd_sc_hd__nand2b_4
*CAP
1 *4199:C1 0.000482196
2 *4181:C1 0
3 *4187:B1 0
4 *4196:C1 5.34251e-05
5 *4190:C1 0.000142925
6 *4193:C1 0
7 *4184:C1 0
8 *4178:B1 0.000158866
9 *4175:Y 0.000309581
10 *182:91 0.000632026
11 *182:80 0.00196662
12 *182:68 0.00253712
13 *182:53 0.00173374
14 *182:39 0.00115898
15 *182:14 0.000806737
16 *182:10 0.00100824
17 *4178:B1 *4177:A1 3.30803e-05
18 *4178:B1 *4177:A2 6.05916e-05
19 *4178:B1 *4177:B2 2.59355e-05
20 *4178:B1 *4178:C1 2.21621e-05
21 *4190:C1 *4190:A1 0.000711397
22 *4190:C1 *183:18 9.90367e-05
23 *4190:C1 *972:99 3.14078e-05
24 *4190:C1 *972:116 4.70078e-05
25 *4190:C1 *1010:131 0.000809581
26 *4196:C1 *972:116 0.000123902
27 *4196:C1 *1010:131 0.000305671
28 *4199:C1 *4158:A1 0.000490416
29 *182:10 *4156:A1 4.50092e-05
30 *182:10 *4249:A 0.000144773
31 *182:10 *4249:B 4.58976e-05
32 *182:10 *224:10 0.000191438
33 *182:14 *784:17 0.000708044
34 *182:14 *1004:43 0.000695865
35 *182:14 *1007:42 4.46186e-06
36 *182:39 *4177:B1 0.000310665
37 *182:39 *4181:B1 0.000266846
38 *182:39 *4268:B 0.000100831
39 *182:39 *234:25 0.000270243
40 *182:39 *784:17 3.56358e-05
41 *182:39 *1004:43 1.22398e-05
42 *182:39 *1007:42 9.62236e-05
43 *182:39 *1007:55 8.98585e-05
44 *182:39 *1007:74 0.000236814
45 *182:53 *4184:A2 1.05524e-05
46 *182:53 *4278:A2 9.92409e-05
47 *182:53 *808:8 8.43535e-06
48 *182:53 *808:21 4.58194e-05
49 *182:53 *844:35 0.00016345
50 *182:53 *972:32 0
51 *182:53 *972:51 0
52 *182:53 *986:48 0.000579302
53 *182:53 *1010:52 0.000588297
54 *182:68 *4187:C1 1.56858e-05
55 *182:68 *775:26 0
56 *182:68 *819:23 0
57 *182:68 *843:42 0
58 *182:68 *972:32 0
59 *182:68 *1010:52 0.000528973
60 *182:80 *4304:A 3.14193e-05
61 *182:80 *4305:A1 9.80173e-05
62 *182:80 *4306:B 5.71472e-05
63 *182:80 *4309:B 0.000122091
64 *182:80 *194:12 0.00034251
65 *182:80 *268:8 0
66 *182:80 *268:23 0
67 *182:80 *843:42 0.000444663
68 *182:80 *1001:10 7.2344e-05
69 *182:80 *1001:40 5.37741e-06
70 *182:91 *4193:A2 0.000281854
71 *182:91 *4332:A 0
72 *182:91 *4334:A_N 0
73 *182:91 *196:14 0
74 *182:91 *268:23 0
75 *182:91 *823:40 0
76 *4158:S *4199:C1 0.000158794
77 *4158:S *182:10 9.61354e-05
78 *4186:A2 *182:68 2.68335e-06
79 *4187:A2 *182:80 6.55528e-06
80 *4199:B1 *4199:C1 2.14658e-05
81 *4249:C *182:10 0.000356434
82 *169:26 *182:80 1.16122e-05
83 *180:12 *182:68 0.000151358
84 *180:22 *182:68 0
85 *180:44 *182:39 5.61411e-05
86 *180:78 *4199:C1 0.00122299
87 *180:78 *182:10 0.000311761
88 *180:125 *182:68 0.000102518
89 *181:38 *4178:B1 0.000374155
*RES
1 *4175:Y *182:10 19.0143 
2 *182:10 *182:14 13.7321 
3 *182:14 *4178:B1 18.6036 
4 *182:14 *182:39 16.625 
5 *182:39 *182:53 31.8571 
6 *182:53 *4184:C1 13.8 
7 *182:53 *182:68 24.5714 
8 *182:68 *182:80 40.1607 
9 *182:80 *4193:C1 13.8 
10 *182:80 *182:91 14.3393 
11 *182:91 *4190:C1 18.05 
12 *182:91 *4196:C1 12.3 
13 *182:68 *4187:B1 9.3 
14 *182:39 *4181:C1 9.3 
15 *182:10 *4199:C1 25.1929 
*END

*D_NET *183 0.035009
*CONN
*I *4961:A I *D sky130_fd_sc_hd__clkbuf_4
*I *4231:B I *D sky130_fd_sc_hd__and2_1
*I *4233:B I *D sky130_fd_sc_hd__and2_1
*I *4223:B I *D sky130_fd_sc_hd__and2_1
*I *4960:A I *D sky130_fd_sc_hd__buf_2
*I *4176:Y O *D sky130_fd_sc_hd__nor2_2
*CAP
1 *4961:A 0
2 *4231:B 0.00087687
3 *4233:B 0
4 *4223:B 0.000738623
5 *4960:A 7.55965e-05
6 *4176:Y 0.000872899
7 *183:69 0.00154888
8 *183:53 0.00395455
9 *183:28 0.00659721
10 *183:18 0.00512708
11 *4223:B *4225:A 0.00014285
12 *4223:B *4234:B2 1.72894e-05
13 *4223:B *846:10 4.93285e-05
14 *4223:B *970:52 0.000351008
15 *4231:B *4231:A 0.000394239
16 *4231:B *4751:A 0.000188415
17 *4231:B *4761:A 0.000439641
18 *4231:B *4778:A2 3.78991e-05
19 *4231:B *4780:A1 0.000174591
20 *4231:B *4780:A4 0.000248486
21 *4231:B *812:19 0.000270063
22 *4231:B *834:60 0.000106238
23 *4231:B *1002:12 0.000175526
24 *4960:A *845:18 1.28585e-05
25 *4960:A *849:12 3.68759e-05
26 *4960:A *970:19 2.92136e-05
27 *183:18 *4190:A1 6.87574e-05
28 *183:18 *4191:B1 6.94555e-05
29 *183:18 *836:8 5.52238e-05
30 *183:18 *843:16 2.84633e-05
31 *183:18 *972:10 1.21289e-05
32 *183:18 *972:16 0.000358977
33 *183:18 *1010:22 0.000110862
34 *183:18 *1010:114 0.00015052
35 *183:18 *1010:131 0.000775563
36 *183:28 *4190:B1 1.31235e-05
37 *183:28 *4337:A1 0
38 *183:28 *4820:A1 0.000114878
39 *183:28 *836:29 0
40 *183:28 *836:46 0
41 *183:28 *844:64 0.00165399
42 *183:28 *1002:30 0.000128795
43 *183:28 *1002:54 0.00134935
44 *183:28 *1009:65 0.000152904
45 *183:28 *1010:146 0.00024212
46 *183:53 *4795:A2 9.60875e-05
47 *183:53 *4795:B1 5.33005e-05
48 *183:53 *4801:A2 0.000614575
49 *183:53 *4932:A 7.32272e-05
50 *183:53 *735:23 6.77968e-05
51 *183:53 *754:12 5.52302e-05
52 *183:53 *835:54 0.00034954
53 *183:53 *835:77 1.38323e-05
54 *183:53 *836:46 0.000172694
55 *183:53 *849:12 8.03051e-05
56 *183:53 *961:35 0.000670467
57 *183:53 *962:34 0.000431224
58 *183:53 *970:19 3.06366e-05
59 *183:53 *970:100 9.24491e-05
60 *183:69 *4234:B2 4.48206e-05
61 *183:69 *4751:A 5.84171e-05
62 *183:69 *4751:B 0.000132473
63 *183:69 *4759:A1 0.00036192
64 *183:69 *4759:A2 5.52238e-05
65 *183:69 *4760:B1 7.84071e-05
66 *183:69 *4782:B1 0
67 *183:69 *5043:A 5.33433e-05
68 *183:69 *671:39 0.000337429
69 *183:69 *704:25 0.000140933
70 *183:69 *809:20 0.000319127
71 *183:69 *837:87 0.00133396
72 *183:69 *847:39 0
73 *183:69 *847:60 0.000217044
74 *183:69 *847:62 0.000225307
75 *183:69 *963:23 0.000998867
76 *4190:C1 *183:18 9.90367e-05
77 *181:60 *4223:B 0
78 *181:60 *183:69 0
79 *181:71 *183:69 0
*RES
1 *4176:Y *183:18 38.4964 
2 *183:18 *183:28 22.6132 
3 *183:28 *4960:A 15.2911 
4 *183:28 *183:53 49.7946 
5 *183:53 *183:69 44.7143 
6 *183:69 *4223:B 32.6214 
7 *183:69 *4233:B 9.3 
8 *183:53 *4231:B 37.8179 
9 *183:18 *4961:A 9.3 
*END

*D_NET *184 0.000194963
*CONN
*I *4178:C1 I *D sky130_fd_sc_hd__a211o_1
*I *4177:X O *D sky130_fd_sc_hd__a22o_1
*CAP
1 *4178:C1 8.44024e-05
2 *4177:X 8.44024e-05
3 *4178:C1 *4177:A1 0
4 *4178:C1 *4177:A2 3.99614e-06
5 *4178:B1 *4178:C1 2.21621e-05
*RES
1 *4177:X *4178:C1 19.8679 
*END

*D_NET *185 0.00116712
*CONN
*I *4179:B1 I *D sky130_fd_sc_hd__o211a_1
*I *4178:X O *D sky130_fd_sc_hd__a211o_1
*CAP
1 *4179:B1 0.000337967
2 *4178:X 0.000337967
3 *4179:B1 *4179:A2 0.000106516
4 *4179:B1 *841:37 0.000112402
5 *4179:B1 *841:39 4.1331e-06
6 *181:38 *4179:B1 0.000268133
*RES
1 *4178:X *4179:B1 34.2607 
*END

*D_NET *186 0.000992065
*CONN
*I *4181:B1 I *D sky130_fd_sc_hd__a211o_1
*I *4180:X O *D sky130_fd_sc_hd__a22o_1
*CAP
1 *4181:B1 0.000200145
2 *4180:X 0.000200145
3 *4181:B1 *4177:B1 0.000153385
4 *4181:B1 *974:24 0.000125724
5 *180:44 *4181:B1 4.58194e-05
6 *182:39 *4181:B1 0.000266846
*RES
1 *4180:X *4181:B1 32.6714 
*END

*D_NET *187 0.000285098
*CONN
*I *4182:B1 I *D sky130_fd_sc_hd__o211a_1
*I *4181:X O *D sky130_fd_sc_hd__a211o_1
*CAP
1 *4182:B1 9.70655e-05
2 *4181:X 9.70655e-05
3 *4182:B1 *4177:B1 0
4 *4182:B1 *839:40 3.57366e-05
5 *4182:B1 *841:37 5.52302e-05
*RES
1 *4181:X *4182:B1 20.3857 
*END

*D_NET *188 0.000251918
*CONN
*I *4184:B1 I *D sky130_fd_sc_hd__a211o_1
*I *4183:X O *D sky130_fd_sc_hd__a22o_1
*CAP
1 *4184:B1 9.16764e-05
2 *4183:X 9.16764e-05
3 *4184:B1 *4183:A2 0
4 *4184:B1 *4184:A1 1.97695e-05
5 *4184:B1 *4184:A2 4.87953e-05
*RES
1 *4183:X *4184:B1 20.4036 
*END

*D_NET *189 0.000305178
*CONN
*I *4185:B1 I *D sky130_fd_sc_hd__o211a_1
*I *4184:X O *D sky130_fd_sc_hd__a211o_1
*CAP
1 *4185:B1 0.000124015
2 *4184:X 0.000124015
3 *4185:B1 *4184:A2 0
4 *4185:B1 *4185:C1 5.71472e-05
*RES
1 *4184:X *4185:B1 20.7964 
*END

*D_NET *190 0.000165558
*CONN
*I *4187:C1 I *D sky130_fd_sc_hd__a211o_1
*I *4186:X O *D sky130_fd_sc_hd__a22o_1
*CAP
1 *4187:C1 5.37887e-05
2 *4186:X 5.37887e-05
3 *4187:C1 *4186:A1 1.3701e-05
4 *4187:C1 *4186:B2 0
5 *4186:A2 *4187:C1 5.60453e-06
6 *180:125 *4187:C1 2.29893e-05
7 *182:68 *4187:C1 1.56858e-05
*RES
1 *4186:X *4187:C1 20.0196 
*END

*D_NET *191 0.00169667
*CONN
*I *4188:B1 I *D sky130_fd_sc_hd__o211a_1
*I *4187:X O *D sky130_fd_sc_hd__a211o_1
*CAP
1 *4188:B1 0.000584943
2 *4187:X 0.000584943
3 *4188:B1 *4849:CLK 2.27416e-05
4 *4188:B1 *775:26 7.4826e-05
5 *4188:B1 *839:49 5.80706e-06
6 *4188:B1 *839:62 8.39e-05
7 *4188:B1 *843:50 9.25014e-06
8 *4849:D *4188:B1 2.09961e-05
9 *180:12 *4188:B1 0.000227532
10 *180:125 *4188:B1 8.17274e-05
*RES
1 *4187:X *4188:B1 36.3679 
*END

*D_NET *192 0.00264723
*CONN
*I *4190:B1 I *D sky130_fd_sc_hd__a211o_1
*I *4189:X O *D sky130_fd_sc_hd__a22o_1
*CAP
1 *4190:B1 0.00112902
2 *4189:X 0.00112902
3 *4190:B1 *4189:A1 1.33343e-05
4 *4190:B1 *4309:A 2.6949e-05
5 *4190:B1 *4309:B 0
6 *4190:B1 *4311:A 0.000121443
7 *4190:B1 *4311:B 0
8 *4190:B1 *4313:A2 0
9 *4190:B1 *4335:A1 7.80051e-05
10 *4190:B1 *4336:B 0
11 *4190:B1 *4337:A1 0
12 *4190:B1 *4929:A 0
13 *4190:B1 *274:10 0
14 *4190:B1 *298:10 0
15 *4190:B1 *844:20 0
16 *4190:B1 *973:10 0.000101545
17 *4189:B1 *4190:B1 3.47797e-05
18 *183:28 *4190:B1 1.31235e-05
*RES
1 *4189:X *4190:B1 47.6 
*END

*D_NET *193 0.00128367
*CONN
*I *4191:B1 I *D sky130_fd_sc_hd__o211a_1
*I *4190:X O *D sky130_fd_sc_hd__a211o_1
*CAP
1 *4191:B1 0.000435893
2 *4190:X 0.000435893
3 *4191:B1 *4939:A 7.54868e-05
4 *4191:B1 *775:70 0
5 *4191:B1 *836:8 5.52238e-05
6 *4191:B1 *839:81 5.69745e-05
7 *4191:B1 *972:16 0.000103004
8 *4191:B1 *1009:16 5.37741e-06
9 *4191:B1 *1009:42 4.6361e-05
10 *183:18 *4191:B1 6.94555e-05
*RES
1 *4190:X *4191:B1 34.1893 
*END

*D_NET *194 0.0050505
*CONN
*I *4193:B1 I *D sky130_fd_sc_hd__a211o_1
*I *4192:X O *D sky130_fd_sc_hd__a22o_1
*CAP
1 *4193:B1 0
2 *4192:X 0.00119525
3 *194:12 0.00119525
4 *194:12 *4186:A1 0.000248486
5 *194:12 *4192:B2 2.89114e-05
6 *194:12 *4193:A2 5.80706e-06
7 *194:12 *4303:A2 0
8 *194:12 *4306:B 8.15939e-05
9 *194:12 *249:29 5.25233e-05
10 *194:12 *267:12 0.000125724
11 *194:12 *285:12 0.000341781
12 *194:12 *772:46 0
13 *194:12 *772:48 0
14 *194:12 *859:29 0
15 *194:12 *973:24 0.00143266
16 *194:12 *1007:136 0
17 *182:80 *194:12 0.00034251
*RES
1 *4192:X *194:12 48.0143 
2 *194:12 *4193:B1 9.3 
*END

*D_NET *195 0.00242259
*CONN
*I *4194:B1 I *D sky130_fd_sc_hd__o211a_1
*I *4193:X O *D sky130_fd_sc_hd__a211o_1
*CAP
1 *4194:B1 0.00101815
2 *4193:X 0.00101815
3 *4194:B1 *4194:A2 3.50166e-05
4 *4194:B1 *4194:C1 5.52302e-05
5 *4194:B1 *4311:B 2.89114e-05
6 *4194:B1 *4312:B 0.000169383
7 *4194:B1 *839:81 9.77423e-05
*RES
1 *4193:X *4194:B1 33.1536 
*END

*D_NET *196 0.00626407
*CONN
*I *4196:B1 I *D sky130_fd_sc_hd__a211o_1
*I *4195:X O *D sky130_fd_sc_hd__a22o_1
*CAP
1 *4196:B1 0
2 *4195:X 5.08126e-05
3 *196:14 0.00146334
4 *196:8 0.00151415
5 *196:8 *4973:A 3.69047e-06
6 *196:14 *4189:A1 0.000352098
7 *196:14 *4303:A1 6.81083e-05
8 *196:14 *4327:A 0.000196269
9 *196:14 *4332:A 0.00015234
10 *196:14 *4333:A1 0.000194299
11 *196:14 *4333:A2 2.49484e-05
12 *196:14 *4346:C 2.49484e-05
13 *196:14 *261:12 6.74911e-05
14 *196:14 *266:10 5.74562e-05
15 *196:14 *266:23 3.55407e-05
16 *196:14 *268:23 5.85228e-05
17 *196:14 *290:12 0.000177941
18 *196:14 *292:12 6.07626e-05
19 *196:14 *293:10 0.000199706
20 *196:14 *772:48 0.0004495
21 *196:14 *823:40 0.000386568
22 *196:14 *825:12 9.25014e-06
23 *196:14 *865:10 0
24 *196:14 *972:116 1.58163e-05
25 *196:14 *984:99 0.000125731
26 *196:14 *988:102 0.000315887
27 *196:14 *997:87 9.33907e-05
28 *196:14 *997:104 8.79872e-05
29 *196:14 *999:73 2.42082e-05
30 *196:14 *1010:131 5.33005e-05
31 *182:91 *196:14 0
*RES
1 *4195:X *196:8 14.3357 
2 *196:8 *196:14 45.5357 
3 *196:14 *4196:B1 9.3 
*END

*D_NET *197 0.00087936
*CONN
*I *4197:B1 I *D sky130_fd_sc_hd__o211a_1
*I *4196:X O *D sky130_fd_sc_hd__a211o_1
*CAP
1 *4197:B1 0.000190603
2 *4196:X 0.000190603
3 *4197:B1 *4196:A2 9.25014e-06
4 *4197:B1 *199:10 0
5 *4197:B1 *839:93 0.000172674
6 *4197:B1 *972:131 0.00030945
7 *4197:B1 *1010:131 6.78055e-06
*RES
1 *4196:X *4197:B1 32.2071 
*END

*D_NET *198 0.00470836
*CONN
*I *4200:B1 I *D sky130_fd_sc_hd__o221a_1
*I *4198:X O *D sky130_fd_sc_hd__and2_1
*CAP
1 *4200:B1 0
2 *4198:X 0.000854283
3 *198:10 0.000854283
4 *198:10 *4200:C1 1.00887e-05
5 *198:10 *4241:A 0.000104076
6 *198:10 *4820:A2 0.000212393
7 *198:10 *817:12 0.000194209
8 *198:10 *845:12 0.00077296
9 *198:10 *845:18 0.00148499
10 *198:10 *849:12 0
11 *198:10 *970:19 3.74936e-05
12 *198:10 *970:100 0.000183587
13 *4951:A *198:10 0
*RES
1 *4198:X *198:10 46.9607 
2 *198:10 *4200:B1 9.3 
*END

*D_NET *199 0.0127585
*CONN
*I *4958:A I *D sky130_fd_sc_hd__clkbuf_4
*I *4199:X O *D sky130_fd_sc_hd__a221o_1
*CAP
1 *4958:A 0
2 *4199:X 0.000354206
3 *199:10 0.00434361
4 *199:8 0.00469781
5 *199:8 *5107:A 0.000181803
6 *199:8 *995:68 5.33005e-05
7 *199:10 *4189:A1 0
8 *199:10 *4196:A2 0
9 *199:10 *4248:B2 0.000127446
10 *199:10 *4303:A1 0
11 *199:10 *4318:B 0
12 *199:10 *4319:B1 2.84398e-05
13 *199:10 *4326:B1 0
14 *199:10 *4333:A1 0
15 *199:10 *4333:A2 0
16 *199:10 *4347:B1 0.000168301
17 *199:10 *4386:C 0
18 *199:10 *4387:A1 0
19 *199:10 *4387:A2 0
20 *199:10 *4387:B1 0
21 *199:10 *4431:B1 0
22 *199:10 *4431:C1 9.1469e-05
23 *199:10 *4990:A 0
24 *199:10 *5097:A 0
25 *199:10 *282:8 0.000338337
26 *199:10 *282:25 9.64387e-05
27 *199:10 *284:14 0.000176096
28 *199:10 *286:10 0
29 *199:10 *288:10 0
30 *199:10 *292:12 0
31 *199:10 *293:10 0
32 *199:10 *295:12 0
33 *199:10 *346:8 8.39e-05
34 *199:10 *387:10 0
35 *199:10 *389:10 0
36 *199:10 *776:8 0.000149911
37 *199:10 *776:17 0.00110775
38 *199:10 *776:56 0.000326402
39 *199:10 *776:71 0
40 *199:10 *824:26 0.000168939
41 *199:10 *839:93 0
42 *199:10 *839:110 0
43 *199:10 *843:131 0
44 *199:10 *865:10 0
45 *199:10 *968:10 0.000118352
46 *199:10 *984:99 0
47 *199:10 *999:29 0
48 *199:10 *999:42 0
49 *199:10 *999:59 0
50 *199:10 *999:65 0
51 *199:10 *1001:46 9.33907e-05
52 *4197:B1 *199:10 0
53 *4852:D *199:10 5.26091e-05
54 *4877:D *199:10 0
*RES
1 *4199:X *199:8 19.675 
2 *199:8 *199:10 85.125 
3 *199:10 *4958:A 13.8 
*END

*D_NET *200 0.00582547
*CONN
*I *4202:B2 I *D sky130_fd_sc_hd__o221a_1
*I *4201:X O *D sky130_fd_sc_hd__and2_1
*CAP
1 *4202:B2 0
2 *4201:X 5.36187e-05
3 *200:16 0.00148742
4 *200:8 0.00154104
5 *200:8 *772:94 3.69047e-06
6 *200:8 *845:43 2.65105e-05
7 *200:16 *4202:A2 2.11693e-05
8 *200:16 *4202:C1 0.000120368
9 *200:16 *4237:A 0.000170532
10 *200:16 *4238:B2 0.000167751
11 *200:16 *4791:A2 0
12 *200:16 *4792:B 0.000512604
13 *200:16 *4794:A 7.17836e-05
14 *200:16 *4799:A2 6.75007e-05
15 *200:16 *4799:C1 0
16 *200:16 *4805:C 0.000101586
17 *200:16 *4872:CLK 4.97967e-05
18 *200:16 *4957:A 1.55327e-05
19 *200:16 *5019:A 0.000175191
20 *200:16 *735:8 5.10992e-05
21 *200:16 *772:94 0.000422992
22 *200:16 *845:103 0
23 *200:16 *966:104 0
24 *200:16 *967:22 1.12578e-05
25 *200:16 *968:97 0.000754027
*RES
1 *4201:X *200:8 14.7464 
2 *200:8 *200:16 43.9464 
3 *200:16 *4202:B2 9.3 
*END

*D_NET *201 0.00461309
*CONN
*I *4204:B2 I *D sky130_fd_sc_hd__o221a_1
*I *4203:X O *D sky130_fd_sc_hd__and2_1
*CAP
1 *4204:B2 0.000903388
2 *4203:X 0.000903388
3 *4204:B2 *4204:C1 0.000143625
4 *4204:B2 *4726:B 1.92905e-05
5 *4204:B2 *4730:A 3.48705e-05
6 *4204:B2 *4730:B 5.33433e-05
7 *4204:B2 *4732:A1 7.66477e-05
8 *4204:B2 *4732:B1_N 5.52238e-05
9 *4204:B2 *681:6 5.62995e-05
10 *4204:B2 *838:103 3.57366e-05
11 *4204:B2 *838:118 0.000418796
12 *4204:B2 *846:62 0.000297662
13 *4204:B2 *1012:51 0.00161482
*RES
1 *4203:X *4204:B2 45.0286 
*END

*D_NET *202 0.000439358
*CONN
*I *4206:B2 I *D sky130_fd_sc_hd__o221a_1
*I *4205:X O *D sky130_fd_sc_hd__and2_1
*CAP
1 *4206:B2 0.000219679
2 *4205:X 0.000219679
*RES
1 *4205:X *4206:B2 22.0107 
*END

*D_NET *203 0.00106408
*CONN
*I *4208:B2 I *D sky130_fd_sc_hd__o221a_1
*I *4207:X O *D sky130_fd_sc_hd__and2_1
*CAP
1 *4208:B2 0.000380747
2 *4207:X 0.000380747
3 *4208:B2 *4207:B 0.000216862
4 *4208:B2 *4208:A1 3.93893e-05
5 *4208:B2 *849:55 2.8266e-06
6 *4208:B2 *849:102 4.35048e-05
*RES
1 *4207:X *4208:B2 33.0643 
*END

*D_NET *204 0.00038976
*CONN
*I *4210:B2 I *D sky130_fd_sc_hd__o221a_1
*I *4209:X O *D sky130_fd_sc_hd__and2_1
*CAP
1 *4210:B2 6.73532e-05
2 *4209:X 6.73532e-05
3 *4210:B2 *4209:B 0.000143652
4 *4210:B2 *4210:B1 5.68713e-05
5 *4210:B2 *4210:C1 5.45307e-05
*RES
1 *4209:X *4210:B2 20.7786 
*END

*D_NET *205 0.00171559
*CONN
*I *4212:B2 I *D sky130_fd_sc_hd__o221a_1
*I *4211:X O *D sky130_fd_sc_hd__and2_1
*CAP
1 *4212:B2 0.000288038
2 *4211:X 0.000288038
3 *4212:B2 *4212:A2 0.000446603
4 *4212:B2 *4212:B1 0.000178883
5 *4212:B2 *4212:C1 5.71472e-05
6 *4212:B2 *838:8 8.84912e-05
7 *4212:B2 *838:42 0.000227532
8 *4941:A *4212:B2 0.000140856
*RES
1 *4211:X *4212:B2 27.7607 
*END

*D_NET *206 0.000527765
*CONN
*I *4214:B2 I *D sky130_fd_sc_hd__o221a_1
*I *4213:X O *D sky130_fd_sc_hd__and2_1
*CAP
1 *4214:B2 0.000162945
2 *4213:X 0.000162945
3 *4214:B2 *4212:C1 7.61932e-05
4 *4214:B2 *4214:C1 1.04232e-05
5 *4214:B2 *849:102 0.000115258
*RES
1 *4213:X *4214:B2 22.5643 
*END

*D_NET *207 0.00040525
*CONN
*I *4216:B2 I *D sky130_fd_sc_hd__o221a_1
*I *4215:X O *D sky130_fd_sc_hd__and2_1
*CAP
1 *4216:B2 0.000114865
2 *4215:X 0.000114865
3 *4216:B2 *4216:B1 3.18676e-05
4 *4216:B2 *846:41 0.000143652
*RES
1 *4215:X *4216:B2 21.1893 
*END

*D_NET *208 0.000974877
*CONN
*I *4218:B2 I *D sky130_fd_sc_hd__o221a_1
*I *4217:X O *D sky130_fd_sc_hd__and2_1
*CAP
1 *4218:B2 0.000366841
2 *4217:X 0.000366841
3 *4218:B2 *4218:C1 9.90431e-05
4 *4218:B2 *971:81 0.000142152
*RES
1 *4217:X *4218:B2 24.8857 
*END

*D_NET *209 0.000472546
*CONN
*I *4220:B2 I *D sky130_fd_sc_hd__o221a_1
*I *4219:X O *D sky130_fd_sc_hd__and2_1
*CAP
1 *4220:B2 0.000147058
2 *4219:X 0.000147058
3 *4220:B2 *4220:B1 5.65955e-05
4 *4220:B2 *4220:C1 4.40586e-05
5 *4220:B2 *970:52 7.77751e-05
*RES
1 *4219:X *4220:B2 21.6 
*END

*D_NET *210 0.000695736
*CONN
*I *4222:B2 I *D sky130_fd_sc_hd__o221a_1
*I *4221:X O *D sky130_fd_sc_hd__and2_1
*CAP
1 *4222:B2 0.000242138
2 *4221:X 0.000242138
3 *4222:B2 *4222:A2 6.74911e-05
4 *4222:B2 *4222:B1 0.000128154
5 *4222:B2 *5100:A 1.58163e-05
*RES
1 *4221:X *4222:B2 31.4214 
*END

*D_NET *211 0.00111509
*CONN
*I *4224:B2 I *D sky130_fd_sc_hd__o221a_1
*I *4223:X O *D sky130_fd_sc_hd__and2_1
*CAP
1 *4224:B2 0.000378218
2 *4223:X 0.000378218
3 *4224:B2 *4224:C1 9.90431e-05
4 *4224:B2 *4865:CLK 0.000259608
*RES
1 *4223:X *4224:B2 25.725 
*END

*D_NET *212 0.000736582
*CONN
*I *4226:B2 I *D sky130_fd_sc_hd__o221a_1
*I *4225:X O *D sky130_fd_sc_hd__and2_1
*CAP
1 *4226:B2 0.0002247
2 *4225:X 0.0002247
3 *4226:B2 *4226:B1 5.71472e-05
4 *4226:B2 *4226:C1 9.90431e-05
5 *4226:B2 *4866:CLK 0.000130991
*RES
1 *4225:X *4226:B2 22.85 
*END

*D_NET *213 0.0014667
*CONN
*I *4228:B2 I *D sky130_fd_sc_hd__o221a_1
*I *4227:X O *D sky130_fd_sc_hd__and2_1
*CAP
1 *4228:B2 0.000687614
2 *4227:X 0.000687614
3 *4228:B2 *4228:A1 4.57352e-05
4 *4228:B2 *4228:C1 4.57352e-05
*RES
1 *4227:X *4228:B2 36.35 
*END

*D_NET *214 0.000802585
*CONN
*I *4230:B2 I *D sky130_fd_sc_hd__o221a_1
*I *4229:X O *D sky130_fd_sc_hd__and2_1
*CAP
1 *4230:B2 5.06583e-05
2 *4229:X 5.06583e-05
3 *4230:B2 *4228:C1 0.000111909
4 *4230:B2 *847:147 0.000230432
5 *4230:A2 *4230:B2 0.000358927
*RES
1 *4229:X *4230:B2 22.0107 
*END

*D_NET *215 0.000832955
*CONN
*I *4232:B2 I *D sky130_fd_sc_hd__o221a_1
*I *4231:X O *D sky130_fd_sc_hd__and2_1
*CAP
1 *4232:B2 0.000244114
2 *4231:X 0.000244114
3 *4232:B2 *4232:A1 0.000125542
4 *4232:B2 *4232:C1 9.2194e-05
5 *4232:B2 *967:64 9.84673e-05
6 *4232:B2 *1002:12 0
7 *4232:A2 *4232:B2 2.85234e-05
*RES
1 *4231:X *4232:B2 32.9214 
*END

*D_NET *216 0.000369182
*CONN
*I *4234:B2 I *D sky130_fd_sc_hd__o221a_1
*I *4233:X O *D sky130_fd_sc_hd__and2_1
*CAP
1 *4234:B2 9.067e-05
2 *4233:X 9.067e-05
3 *4223:B *4234:B2 1.72894e-05
4 *181:60 *4234:B2 0.000125731
5 *183:69 *4234:B2 4.48206e-05
*RES
1 *4233:X *4234:B2 29.7786 
*END

*D_NET *217 0.000682683
*CONN
*I *4236:B2 I *D sky130_fd_sc_hd__o221a_1
*I *4235:X O *D sky130_fd_sc_hd__and2_1
*CAP
1 *4236:B2 0.000154606
2 *4235:X 0.000154606
3 *4236:B2 *4236:A2 5.51716e-05
4 *4236:B2 *779:65 0
5 *4236:B2 *779:80 0
6 *4236:B2 *966:104 0.000318298
*RES
1 *4235:X *4236:B2 31.6714 
*END

*D_NET *218 0.00123876
*CONN
*I *4238:B2 I *D sky130_fd_sc_hd__o221a_1
*I *4237:X O *D sky130_fd_sc_hd__and2_1
*CAP
1 *4238:B2 0.000165051
2 *4237:X 0.000165051
3 *4238:B2 *4949:A 7.15503e-05
4 *4238:B2 *4957:A 0.000318891
5 *4238:B2 *837:73 0.000167666
6 *4238:B2 *848:44 0.000182804
7 *200:16 *4238:B2 0.000167751
*RES
1 *4237:X *4238:B2 34.6714 
*END

*D_NET *219 0.000883676
*CONN
*I *4240:B2 I *D sky130_fd_sc_hd__o221a_1
*I *4239:X O *D sky130_fd_sc_hd__and2_1
*CAP
1 *4240:B2 0.000272016
2 *4239:X 0.000272016
3 *4240:B2 *4239:B 0.000295844
4 *4240:B2 *4815:C1 4.37999e-05
5 *4240:B2 *838:124 0
*RES
1 *4239:X *4240:B2 33.0286 
*END

*D_NET *220 0.00180606
*CONN
*I *4242:B2 I *D sky130_fd_sc_hd__o221a_1
*I *4241:X O *D sky130_fd_sc_hd__and2_1
*CAP
1 *4242:B2 0.000377722
2 *4241:X 0.000377722
3 *4242:B2 *4242:A2 0.000245651
4 *4242:B2 *4242:B1 0.000197385
5 *4242:B2 *838:124 0.000135859
6 *4242:B2 *968:80 0.000372406
7 *4242:B2 *970:108 9.93135e-05
*RES
1 *4241:X *4242:B2 37.1 
*END

*D_NET *221 0.00122335
*CONN
*I *4244:B2 I *D sky130_fd_sc_hd__o221a_1
*I *4243:X O *D sky130_fd_sc_hd__and2_1
*CAP
1 *4244:B2 0.00029265
2 *4243:X 0.00029265
3 *4244:B2 *4244:A2 0.000361187
4 *4244:B2 *4916:CLK 0.000221634
5 *4244:B2 *820:10 5.52302e-05
6 *4244:B2 *844:81 0
*RES
1 *4243:X *4244:B2 34.4571 
*END

*D_NET *222 0.00100197
*CONN
*I *4246:B2 I *D sky130_fd_sc_hd__o221a_1
*I *4245:X O *D sky130_fd_sc_hd__and2_1
*CAP
1 *4246:B2 0.000464219
2 *4245:X 0.000464219
3 *4246:B2 *5025:A 0
4 *4246:B2 *951:8 5.39629e-06
5 *4876:D *4246:B2 6.81335e-05
*RES
1 *4245:X *4246:B2 33.725 
*END

*D_NET *223 0.000460125
*CONN
*I *4248:B2 I *D sky130_fd_sc_hd__o221a_1
*I *4247:X O *D sky130_fd_sc_hd__and2_1
*CAP
1 *4248:B2 0.000112448
2 *4247:X 0.000112448
3 *4248:B2 *843:131 3.15739e-05
4 *4248:B2 *968:10 1.99099e-05
5 *4248:B2 *972:131 5.62995e-05
6 *199:10 *4248:B2 0.000127446
*RES
1 *4247:X *4248:B2 30.1893 
*END

*D_NET *224 0.0167565
*CONN
*I *4252:S I *D sky130_fd_sc_hd__mux2_1
*I *4260:S I *D sky130_fd_sc_hd__mux2_1
*I *4258:S I *D sky130_fd_sc_hd__mux2_1
*I *4256:S I *D sky130_fd_sc_hd__mux2_1
*I *4262:S I *D sky130_fd_sc_hd__mux2_1
*I *4264:S I *D sky130_fd_sc_hd__mux2_1
*I *4250:S I *D sky130_fd_sc_hd__mux2_1
*I *4254:S I *D sky130_fd_sc_hd__mux2_1
*I *4249:X O *D sky130_fd_sc_hd__and3_4
*CAP
1 *4252:S 4.17347e-05
2 *4260:S 0.00026833
3 *4258:S 1.5079e-05
4 *4256:S 0.000542476
5 *4262:S 8.94675e-05
6 *4264:S 0.000123165
7 *4250:S 7.21885e-05
8 *4254:S 0.000563857
9 *4249:X 0.000778722
10 *224:56 0.00110444
11 *224:46 0.0018426
12 *224:44 0.000894531
13 *224:42 0.00134293
14 *224:34 0.000718069
15 *224:23 0.000145059
16 *224:10 0.00134258
17 *4250:S *4250:A0 2.36643e-05
18 *4250:S *986:31 0.000223885
19 *4250:S *1004:27 0.000138606
20 *4250:S *1004:137 4.18895e-05
21 *4252:S *986:31 0.000130419
22 *4252:S *1004:137 0.00010986
23 *4254:S *4254:A0 2.14757e-05
24 *4254:S *4971:A 0.000529115
25 *4254:S *774:64 0.000193165
26 *4254:S *985:21 0.000109074
27 *4258:S *4258:A1 6.05161e-06
28 *4258:S *792:25 5.52302e-05
29 *4258:S *981:21 1.56e-05
30 *4260:S *4166:A1 3.3283e-05
31 *4260:S *895:20 0.000397911
32 *4260:S *998:25 0.00061493
33 *4262:S *774:113 0.000259907
34 *4262:S *796:12 2.89114e-05
35 *4264:S *4168:A1 0
36 *4264:S *4170:A1 0.000217526
37 *4264:S *917:10 1.00887e-05
38 *224:10 *4156:A1 5.49544e-05
39 *224:10 *4252:A1 0
40 *224:10 *774:64 6.37408e-06
41 *224:10 *841:77 0.000307042
42 *224:10 *1004:43 0.00071967
43 *224:34 *986:31 0.000566624
44 *224:34 *1004:137 0.000579061
45 *224:42 *4261:B 0
46 *224:42 *4983:A 0
47 *224:42 *985:21 0
48 *224:44 *4164:A1 0.000221371
49 *224:44 *4258:A1 3.34783e-05
50 *224:44 *4967:A 0
51 *224:44 *774:100 0
52 *224:44 *895:18 0
53 *224:44 *981:12 0.000266092
54 *224:46 *774:100 0
55 *224:46 *774:104 0
56 *224:56 *774:104 0
57 *224:56 *774:113 0.000395187
58 *224:56 *796:12 2.59355e-05
59 *4158:S *224:10 0.000265634
60 *4164:S *4260:S 1.33343e-05
61 *4883:D *224:42 0
62 *170:55 *4260:S 6.44345e-05
63 *182:10 *224:10 0.000191438
*RES
1 *4249:X *224:10 30.0321 
2 *224:10 *4254:S 25.9964 
3 *224:10 *224:23 4.5 
4 *224:23 *4250:S 11.9071 
5 *224:23 *224:34 5.46429 
6 *224:34 *224:42 14.3929 
7 *224:42 *224:44 10.1429 
8 *224:44 *224:46 7.10714 
9 *224:46 *224:56 18.4821 
10 *224:56 *4264:S 21.1571 
11 *224:56 *4262:S 11.8893 
12 *224:46 *4256:S 22.55 
13 *224:44 *4258:S 14.3357 
14 *224:42 *4260:S 21.4607 
15 *224:34 *4252:S 11.0857 
*END

*D_NET *225 0.000603678
*CONN
*I *4251:B I *D sky130_fd_sc_hd__and2_1
*I *4250:X O *D sky130_fd_sc_hd__mux2_1
*CAP
1 *4251:B 0.000196886
2 *4250:X 0.000196886
3 *4251:B *986:48 6.65302e-05
4 *4251:B *1004:27 0.000143375
*RES
1 *4250:X *4251:B 30.6 
*END

*D_NET *226 0.000353503
*CONN
*I *4253:B I *D sky130_fd_sc_hd__and2_1
*I *4252:X O *D sky130_fd_sc_hd__mux2_1
*CAP
1 *4253:B 0.000134689
2 *4252:X 0.000134689
3 *4253:B *4250:A0 0
4 *4253:B *4252:A1 0
5 *4253:B *774:42 5.52238e-05
6 *4253:B *841:118 2.89016e-05
*RES
1 *4252:X *4253:B 29.7786 
*END

*D_NET *227 0.000251469
*CONN
*I *4255:B I *D sky130_fd_sc_hd__and2_1
*I *4254:X O *D sky130_fd_sc_hd__mux2_1
*CAP
1 *4255:B 8.54133e-05
2 *4254:X 8.54133e-05
3 *4255:B *840:10 6.30388e-05
4 *4255:B *840:12 1.76039e-05
*RES
1 *4254:X *4255:B 29.5464 
*END

*D_NET *228 0.00135521
*CONN
*I *4257:B I *D sky130_fd_sc_hd__and2_1
*I *4256:X O *D sky130_fd_sc_hd__mux2_1
*CAP
1 *4257:B 0.000452683
2 *4256:X 0.000452683
3 *4257:B *4256:A0 5.30637e-06
4 *4257:B *4256:A1 0.000151333
5 *4257:B *4881:CLK 0
6 *4257:B *873:8 0.000158702
7 *4881:D *4257:B 0.000134504
*RES
1 *4256:X *4257:B 36.9393 
*END

*D_NET *229 0.000791984
*CONN
*I *4259:B I *D sky130_fd_sc_hd__and2_1
*I *4258:X O *D sky130_fd_sc_hd__mux2_1
*CAP
1 *4259:B 0.000346168
2 *4258:X 0.000346168
3 *4259:B *4162:A0 2.8266e-06
4 *4259:B *4258:A1 0
5 *4259:B *792:25 9.68208e-05
*RES
1 *4258:X *4259:B 32.2429 
*END

*D_NET *230 0.000529489
*CONN
*I *4261:B I *D sky130_fd_sc_hd__and2_1
*I *4260:X O *D sky130_fd_sc_hd__mux2_1
*CAP
1 *4261:B 0.000187733
2 *4260:X 0.000187733
3 *4261:B *4261:A 0
4 *4261:B *895:18 9.25014e-06
5 *4261:B *998:25 0.000144773
6 *224:42 *4261:B 0
*RES
1 *4260:X *4261:B 30.6 
*END

*D_NET *231 0.00025768
*CONN
*I *4263:B I *D sky130_fd_sc_hd__and2_1
*I *4262:X O *D sky130_fd_sc_hd__mux2_1
*CAP
1 *4263:B 7.25304e-05
2 *4262:X 7.25304e-05
3 *4263:B *906:10 3.52053e-05
4 *4263:B *975:31 7.74135e-05
*RES
1 *4262:X *4263:B 29.2429 
*END

*D_NET *232 0.000281732
*CONN
*I *4265:B I *D sky130_fd_sc_hd__and2_1
*I *4264:X O *D sky130_fd_sc_hd__mux2_1
*CAP
1 *4265:B 0.000108248
2 *4264:X 0.000108248
3 *4265:B *4263:A 6.52353e-05
*RES
1 *4264:X *4265:B 20.6893 
*END

*D_NET *233 0.000872868
*CONN
*I *4269:B I *D sky130_fd_sc_hd__and3_1
*I *4266:X O *D sky130_fd_sc_hd__a31o_1
*CAP
1 *4269:B 0.000314447
2 *4266:X 0.000314447
3 *4269:B *4180:B2 1.88048e-05
4 *4269:B *4266:A1 0
5 *4269:B *4266:A3 5.62995e-05
6 *4269:B *4269:A 7.29187e-05
7 *4269:B *4886:CLK 4.25716e-05
8 *4269:B *1005:17 0
9 *4269:B *1010:80 0
10 *4886:D *4269:B 5.33786e-05
*RES
1 *4266:X *4269:B 33.5286 
*END

*D_NET *234 0.0035106
*CONN
*I *4290:A1 I *D sky130_fd_sc_hd__a21oi_1
*I *4276:A I *D sky130_fd_sc_hd__xnor2_1
*I *4268:B I *D sky130_fd_sc_hd__nand2_1
*I *4267:X O *D sky130_fd_sc_hd__and3_1
*CAP
1 *4290:A1 0
2 *4276:A 0.000162165
3 *4268:B 0.000172419
4 *4267:X 0
5 *234:25 0.000495487
6 *234:6 0.00050574
7 *4268:B *4177:A1 9.41642e-05
8 *4268:B *4177:B2 0.000177815
9 *4268:B *784:17 9.91224e-05
10 *4276:A *4276:B 5.79009e-05
11 *4276:A *241:8 6.80703e-05
12 *4276:A *1010:80 4.3275e-05
13 *234:25 *241:8 0.000169387
14 *234:25 *784:17 0.000674431
15 *234:25 *1004:43 0.000389847
16 *234:25 *1007:74 2.14474e-05
17 *181:38 *4268:B 8.25843e-06
18 *182:39 *4268:B 0.000100831
19 *182:39 *234:25 0.000270243
*RES
1 *4267:X *234:6 13.8 
2 *234:6 *4268:B 17.7464 
3 *234:6 *234:25 15.1964 
4 *234:25 *4276:A 12.05 
5 *234:25 *4290:A1 9.3 
*END

*D_NET *235 0.000926665
*CONN
*I *4269:C I *D sky130_fd_sc_hd__and3_1
*I *4268:Y O *D sky130_fd_sc_hd__nand2_1
*CAP
1 *4269:C 0.000258489
2 *4268:Y 0.000258489
3 *4269:C *4178:A1 7.83587e-05
4 *4269:C *797:24 0.000252969
5 *4269:C *1010:80 7.83587e-05
*RES
1 *4268:Y *4269:C 31.7071 
*END

*D_NET *236 0.0010342
*CONN
*I *4273:B I *D sky130_fd_sc_hd__and3_1
*I *4274:A1 I *D sky130_fd_sc_hd__a21oi_1
*I *4270:X O *D sky130_fd_sc_hd__a22o_1
*CAP
1 *4273:B 0.000159097
2 *4274:A1 0.00010374
3 *4270:X 0
4 *236:4 0.000262837
5 *4273:B *4273:C 0.000175512
6 *4273:B *4274:A2 4.08637e-05
7 *4273:B *238:10 5.33005e-05
8 *4273:B *989:33 5.41794e-05
9 *4273:B *1005:48 1.08359e-05
10 *4273:B *1007:74 7.38652e-05
11 *4274:A1 *4274:A2 9.90367e-05
12 *4274:A1 *1010:80 9.33978e-07
*RES
1 *4270:X *236:4 9.3 
2 *236:4 *4274:A1 10.6571 
3 *236:4 *4273:B 21.8 
*END

*D_NET *237 0.00248444
*CONN
*I *4285:B1 I *D sky130_fd_sc_hd__a21oi_1
*I *4284:A I *D sky130_fd_sc_hd__and3_1
*I *4271:X O *D sky130_fd_sc_hd__and4_1
*CAP
1 *4285:B1 0.000286724
2 *4284:A 0
3 *4271:X 0.000460722
4 *237:12 0.000747445
5 *4285:B1 *4284:C 2.67201e-05
6 *4285:B1 *4285:A1 1.02504e-05
7 *4285:B1 *4285:A2 3.5597e-05
8 *4285:B1 *4286:B 1.33343e-05
9 *4285:B1 *248:12 3.98559e-05
10 *4285:B1 *249:16 0.000203027
11 *4285:B1 *251:12 2.54632e-05
12 *237:12 *248:12 0.000137983
13 *237:12 *251:12 0.000117621
14 *237:12 *844:20 0
15 *237:12 *972:32 0.0003797
*RES
1 *4271:X *237:12 28.8179 
2 *237:12 *4284:A 9.3 
3 *237:12 *4285:B1 22.9964 
*END

*D_NET *238 0.00160249
*CONN
*I *4273:C I *D sky130_fd_sc_hd__and3_1
*I *4274:A2 I *D sky130_fd_sc_hd__a21oi_1
*I *4272:Y O *D sky130_fd_sc_hd__nand4_1
*CAP
1 *4273:C 0.000183382
2 *4274:A2 6.74403e-05
3 *4272:Y 0.00018843
4 *238:10 0.000439252
5 *4273:C *4273:A 3.9991e-05
6 *4273:C *989:23 0
7 *4273:C *1005:48 3.17148e-05
8 *4273:C *1007:74 7.80714e-06
9 *4273:C *1010:80 0
10 *4274:A2 *4275:B 0
11 *4274:A2 *1005:40 0
12 *4274:A2 *1005:48 5.33005e-05
13 *238:10 *4272:D 0.000139907
14 *238:10 *989:27 2.6269e-05
15 *238:10 *1005:40 1.5424e-05
16 *238:10 *1005:48 4.08637e-05
17 *4273:B *4273:C 0.000175512
18 *4273:B *4274:A2 4.08637e-05
19 *4273:B *238:10 5.33005e-05
20 *4274:A1 *4274:A2 9.90367e-05
*RES
1 *4272:Y *238:10 12.4429 
2 *238:10 *4274:A2 11.0857 
3 *238:10 *4273:C 22.1571 
*END

*D_NET *239 0.0015457
*CONN
*I *4275:A I *D sky130_fd_sc_hd__nor2_1
*I *4290:B1 I *D sky130_fd_sc_hd__a21oi_1
*I *4273:X O *D sky130_fd_sc_hd__and3_1
*CAP
1 *4275:A 0
2 *4290:B1 7.44723e-05
3 *4273:X 0.000307134
4 *239:12 0.000381606
5 *4290:B1 *241:8 0.000221359
6 *4290:B1 *255:10 7.20217e-06
7 *4290:B1 *1010:80 6.7279e-05
8 *239:12 *4273:A 5.03694e-05
9 *239:12 *1004:43 7.8327e-05
10 *239:12 *1007:74 0.000357952
*RES
1 *4273:X *239:12 23.6571 
2 *239:12 *4290:B1 11.4786 
3 *239:12 *4275:A 9.3 
*END

*D_NET *240 0.000159359
*CONN
*I *4275:B I *D sky130_fd_sc_hd__nor2_1
*I *4274:Y O *D sky130_fd_sc_hd__a21oi_1
*CAP
1 *4275:B 6.5229e-05
2 *4274:Y 6.5229e-05
3 *4275:B *1005:40 0
4 *4275:B *1010:80 2.89016e-05
5 *4274:A2 *4275:B 0
*RES
1 *4274:Y *4275:B 19.9929 
*END

*D_NET *241 0.00102474
*CONN
*I *4290:A2 I *D sky130_fd_sc_hd__a21oi_1
*I *4276:B I *D sky130_fd_sc_hd__xnor2_1
*I *4275:Y O *D sky130_fd_sc_hd__nor2_1
*CAP
1 *4290:A2 0
2 *4276:B 4.71006e-05
3 *4275:Y 0.000152192
4 *241:8 0.000199293
5 *4276:B *255:10 2.84109e-05
6 *4276:B *1010:80 2.65396e-05
7 *241:8 *255:10 4.29615e-05
8 *241:8 *1010:80 1.15281e-05
9 *4276:A *4276:B 5.79009e-05
10 *4276:A *241:8 6.80703e-05
11 *4290:B1 *241:8 0.000221359
12 *234:25 *241:8 0.000169387
*RES
1 *4275:Y *241:8 13.55 
2 *241:8 *4276:B 10.675 
3 *241:8 *4290:A2 9.3 
*END

*D_NET *242 0.000354282
*CONN
*I *4277:B I *D sky130_fd_sc_hd__nand2_1
*I *4276:Y O *D sky130_fd_sc_hd__xnor2_1
*CAP
1 *4277:B 9.75353e-05
2 *4276:Y 9.75353e-05
3 *4277:B *4277:A 0
4 *4277:B *4278:C1 0
5 *4277:B *1010:80 0.000159211
*RES
1 *4276:Y *4277:B 20.6893 
*END

*D_NET *243 0.000206476
*CONN
*I *4278:C1 I *D sky130_fd_sc_hd__o211a_1
*I *4277:Y O *D sky130_fd_sc_hd__nand2_1
*CAP
1 *4278:C1 7.36337e-05
2 *4277:Y 7.36337e-05
3 *4278:C1 *4277:A 1.04232e-05
4 *4278:C1 *1010:61 2.89016e-05
5 *4278:C1 *1010:80 1.98839e-05
6 *4277:B *4278:C1 0
*RES
1 *4277:Y *4278:C1 19.975 
*END

*D_NET *244 0.00132545
*CONN
*I *4282:A I *D sky130_fd_sc_hd__or3_1
*I *4283:B1 I *D sky130_fd_sc_hd__o21ai_1
*I *4299:A1 I *D sky130_fd_sc_hd__o21bai_1
*I *4279:Y O *D sky130_fd_sc_hd__nand2_1
*CAP
1 *4282:A 0
2 *4283:B1 2.24238e-05
3 *4299:A1 0
4 *4279:Y 0.000161199
5 *244:18 0.000128106
6 *244:12 0.000266881
7 *4283:B1 *4299:A2 1.97695e-05
8 *4283:B1 *246:21 6.42774e-05
9 *4283:B1 *1001:40 1.55885e-05
10 *244:12 *844:20 0
11 *244:12 *1001:40 0
12 *244:12 *1005:93 0.000105093
13 *244:12 *1007:109 6.35819e-05
14 *244:12 *1007:136 3.24989e-05
15 *244:18 *4282:C 0.00011263
16 *244:18 *4299:A2 5.7661e-06
17 *244:18 *246:21 2.98783e-05
18 *244:18 *263:16 0.000186662
19 *244:18 *1001:40 9.71197e-05
20 *244:18 *1001:46 1.39726e-05
*RES
1 *4279:Y *244:12 20.8893 
2 *244:12 *244:18 3.85714 
3 *244:18 *4299:A1 9.3 
4 *244:18 *4283:B1 10.2643 
5 *244:12 *4282:A 9.3 
*END

*D_NET *245 0.00168226
*CONN
*I *4282:B I *D sky130_fd_sc_hd__or3_1
*I *4299:B1_N I *D sky130_fd_sc_hd__o21bai_1
*I *4283:A1 I *D sky130_fd_sc_hd__o21ai_1
*I *4280:X O *D sky130_fd_sc_hd__and4_1
*CAP
1 *4282:B 3.41341e-05
2 *4299:B1_N 0
3 *4283:A1 0
4 *4280:X 0.000184657
5 *245:27 0.000361431
6 *245:10 0.000511954
7 *4282:B *1001:46 4.38128e-05
8 *245:10 *4271:C 4.57473e-05
9 *245:10 *4280:D 2.89016e-05
10 *245:10 *246:10 0.000122689
11 *245:10 *986:57 3.30352e-05
12 *245:27 *4282:C 1.5424e-05
13 *245:27 *4986:A 0
14 *245:27 *246:10 1.02504e-05
15 *245:27 *246:21 0.000137983
16 *245:27 *248:12 1.02504e-05
17 *245:27 *844:20 4.29471e-05
18 *245:27 *1001:46 9.90431e-05
*RES
1 *4280:X *245:10 16.8 
2 *245:10 *4283:A1 13.8 
3 *245:10 *245:27 9.60714 
4 *245:27 *4299:B1_N 9.3 
5 *245:27 *4282:B 9.83571 
*END

*D_NET *246 0.00158233
*CONN
*I *4282:C I *D sky130_fd_sc_hd__or3_1
*I *4299:A2 I *D sky130_fd_sc_hd__o21bai_1
*I *4283:A2 I *D sky130_fd_sc_hd__o21ai_1
*I *4281:Y O *D sky130_fd_sc_hd__a22oi_2
*CAP
1 *4282:C 4.28124e-05
2 *4299:A2 1.62283e-05
3 *4283:A2 0
4 *4281:Y 0.000154808
5 *246:21 0.000185554
6 *246:10 0.000281322
7 *4282:C *1001:46 0.000144773
8 *246:10 *4271:C 1.69115e-05
9 *246:10 *844:20 0.000111103
10 *246:10 *987:64 5.33882e-05
11 *246:10 *1005:56 1.37292e-05
12 *246:21 *1001:40 4.3032e-05
13 *4283:B1 *4299:A2 1.97695e-05
14 *4283:B1 *246:21 6.42774e-05
15 *244:18 *4282:C 0.00011263
16 *244:18 *4299:A2 5.7661e-06
17 *244:18 *246:21 2.98783e-05
18 *245:10 *246:10 0.000122689
19 *245:27 *4282:C 1.5424e-05
20 *245:27 *246:10 1.02504e-05
21 *245:27 *246:21 0.000137983
*RES
1 *4281:Y *246:10 22.3714 
2 *246:10 *4283:A2 9.3 
3 *246:10 *246:21 3.33929 
4 *246:21 *4299:A2 9.72857 
5 *246:21 *4282:C 11.4964 
*END

*D_NET *247 0.00156951
*CONN
*I *4285:A1 I *D sky130_fd_sc_hd__a21oi_1
*I *4284:B I *D sky130_fd_sc_hd__and3_1
*I *4282:X O *D sky130_fd_sc_hd__or3_1
*CAP
1 *4285:A1 4.71809e-05
2 *4284:B 0.000109261
3 *4282:X 0.000439305
4 *247:10 0.000595747
5 *4284:B *251:12 0.00018372
6 *4285:A1 *249:16 2.16719e-05
7 *247:10 *249:16 1.76039e-05
8 *247:10 *844:20 0
9 *247:10 *1001:46 0.000144773
10 *4285:B1 *4285:A1 1.02504e-05
*RES
1 *4282:X *247:10 21.3536 
2 *247:10 *4284:B 15.9964 
3 *247:10 *4285:A1 14.5321 
*END

*D_NET *248 0.00170008
*CONN
*I *4285:A2 I *D sky130_fd_sc_hd__a21oi_1
*I *4284:C I *D sky130_fd_sc_hd__and3_1
*I *4283:Y O *D sky130_fd_sc_hd__o21ai_1
*CAP
1 *4285:A2 2.55352e-05
2 *4284:C 2.14981e-05
3 *4283:Y 0.000332721
4 *248:12 0.000379754
5 *4284:C *4286:B 0
6 *4285:A2 *249:16 5.52302e-05
7 *4285:A2 *251:12 0.000128496
8 *248:12 *251:12 0.00022459
9 *248:12 *844:20 0.00028185
10 *4285:B1 *4284:C 2.67201e-05
11 *4285:B1 *4285:A2 3.5597e-05
12 *4285:B1 *248:12 3.98559e-05
13 *237:12 *248:12 0.000137983
14 *245:27 *248:12 1.02504e-05
*RES
1 *4283:Y *248:12 27.2821 
2 *248:12 *4284:C 9.925 
3 *248:12 *4285:A2 10.6571 
*END

*D_NET *249 0.00274467
*CONN
*I *4304:A I *D sky130_fd_sc_hd__and3_1
*I *4305:B1 I *D sky130_fd_sc_hd__a21oi_1
*I *4286:A I *D sky130_fd_sc_hd__nor2_1
*I *4284:X O *D sky130_fd_sc_hd__and3_1
*CAP
1 *4304:A 0.00014083
2 *4305:B1 0
3 *4286:A 0
4 *4284:X 0.000235418
5 *249:29 0.000728959
6 *249:16 0.000823547
7 *4304:A *4304:C 8.66063e-05
8 *4304:A *4305:A1 2.28499e-05
9 *4304:A *4305:A2 5.33005e-05
10 *249:16 *4286:B 3.4855e-05
11 *249:16 *251:12 3.68898e-05
12 *249:16 *274:10 0
13 *249:29 *4186:A1 0.000134748
14 *249:29 *4929:A 0
15 *249:29 *973:24 6.5185e-05
16 *4285:A1 *249:16 2.16719e-05
17 *4285:A2 *249:16 5.52302e-05
18 *4285:B1 *249:16 0.000203027
19 *182:80 *4304:A 3.14193e-05
20 *194:12 *249:29 5.25233e-05
21 *247:10 *249:16 1.76039e-05
*RES
1 *4284:X *249:16 23.1929 
2 *249:16 *4286:A 9.3 
3 *249:16 *249:29 20.4464 
4 *249:29 *4305:B1 9.3 
5 *249:29 *4304:A 11.8893 
*END

*D_NET *250 0.000190205
*CONN
*I *4286:B I *D sky130_fd_sc_hd__nor2_1
*I *4285:Y O *D sky130_fd_sc_hd__a21oi_1
*CAP
1 *4286:B 3.72055e-05
2 *4285:Y 3.72055e-05
3 *4286:B *251:12 6.76043e-05
4 *4284:C *4286:B 0
5 *4285:B1 *4286:B 1.33343e-05
6 *249:16 *4286:B 3.4855e-05
*RES
1 *4285:Y *4286:B 19.9929 
*END

*D_NET *251 0.00250068
*CONN
*I *4288:B I *D sky130_fd_sc_hd__or2_1
*I *4287:B I *D sky130_fd_sc_hd__nand2_1
*I *4286:Y O *D sky130_fd_sc_hd__nor2_1
*CAP
1 *4288:B 0.000303145
2 *4287:B 0
3 *4286:Y 0.000370319
4 *251:12 0.000673464
5 *4288:B *4289:A 6.19177e-05
6 *4288:B *252:6 3.29284e-05
7 *4288:B *274:10 2.54304e-06
8 *251:12 *274:10 0.000271976
9 *4284:B *251:12 0.00018372
10 *4285:A2 *251:12 0.000128496
11 *4285:B1 *251:12 2.54632e-05
12 *4286:B *251:12 6.76043e-05
13 *237:12 *251:12 0.000117621
14 *248:12 *251:12 0.00022459
15 *249:16 *251:12 3.68898e-05
*RES
1 *4286:Y *251:12 19.3357 
2 *251:12 *4287:B 9.3 
3 *251:12 *4288:B 13.7643 
*END

*D_NET *252 0.000939663
*CONN
*I *4310:B1 I *D sky130_fd_sc_hd__o21ai_1
*I *4289:A I *D sky130_fd_sc_hd__nand2_1
*I *4287:Y O *D sky130_fd_sc_hd__nand2_1
*CAP
1 *4310:B1 0
2 *4289:A 0.000165672
3 *4287:Y 2.66004e-05
4 *252:6 0.000192272
5 *4289:A *4287:A 0.000266859
6 *4289:A *4289:B 5.65955e-05
7 *4289:A *819:34 7.1411e-05
8 *252:6 *4287:A 4.17433e-05
9 *252:6 *274:10 2.36643e-05
10 *4288:B *4289:A 6.19177e-05
11 *4288:B *252:6 3.29284e-05
*RES
1 *4287:Y *252:6 10.2464 
2 *252:6 *4289:A 13.675 
3 *252:6 *4310:B1 9.3 
*END

*D_NET *253 0.000325803
*CONN
*I *4289:B I *D sky130_fd_sc_hd__nand2_1
*I *4288:X O *D sky130_fd_sc_hd__or2_1
*CAP
1 *4289:B 6.37368e-05
2 *4288:X 6.37368e-05
3 *4289:B *819:34 0.000141734
4 *4289:A *4289:B 5.65955e-05
*RES
1 *4288:X *4289:B 20.3857 
*END

*D_NET *254 0.00137824
*CONN
*I *4310:A1 I *D sky130_fd_sc_hd__o21ai_1
*I *4291:A I *D sky130_fd_sc_hd__xnor2_1
*I *4289:Y O *D sky130_fd_sc_hd__nand2_1
*CAP
1 *4310:A1 0.000268127
2 *4291:A 0.000161523
3 *4289:Y 0
4 *254:4 0.00042965
5 *4291:A *1010:22 0.000153054
6 *4310:A1 *4287:A 8.47854e-05
7 *4310:A1 *4288:A 2.6304e-05
8 *4310:A1 *819:34 0.000183977
9 *4310:A1 *974:14 7.08227e-05
10 *4310:A1 *1010:22 0
*RES
1 *4289:Y *254:4 9.3 
2 *254:4 *4291:A 21.6036 
3 *254:4 *4310:A1 22.4607 
*END

*D_NET *255 0.00373544
*CONN
*I *4310:A2 I *D sky130_fd_sc_hd__o21ai_1
*I *4291:B I *D sky130_fd_sc_hd__xnor2_1
*I *4290:Y O *D sky130_fd_sc_hd__a21oi_1
*CAP
1 *4310:A2 6.61355e-05
2 *4291:B 0.000119007
3 *4290:Y 0.000787541
4 *255:10 0.000972684
5 *4310:A2 *974:14 0.00011891
6 *255:10 *974:14 0.000657134
7 *255:10 *974:24 0.000748693
8 *255:10 *1010:80 0.000186765
9 *4276:B *255:10 2.84109e-05
10 *4290:B1 *255:10 7.20217e-06
11 *241:8 *255:10 4.29615e-05
*RES
1 *4290:Y *255:10 33.3 
2 *255:10 *4291:B 15.5679 
3 *255:10 *4310:A2 15.4429 
*END

*D_NET *256 0.000739051
*CONN
*I *4292:B I *D sky130_fd_sc_hd__nand2_1
*I *4291:Y O *D sky130_fd_sc_hd__xnor2_1
*CAP
1 *4292:B 0.000186771
2 *4291:Y 0.000186771
3 *4292:B *1010:22 0.000310286
4 *4292:B *1010:24 5.52238e-05
*RES
1 *4291:Y *4292:B 22.7429 
*END

*D_NET *257 0.000358306
*CONN
*I *4293:C1 I *D sky130_fd_sc_hd__o211a_1
*I *4292:Y O *D sky130_fd_sc_hd__nand2_1
*CAP
1 *4293:C1 8.70707e-05
2 *4292:Y 8.70707e-05
3 *4293:C1 *4184:A1 0.000128161
4 *4293:C1 *819:23 1.02504e-05
5 *4293:C1 *1010:52 4.57538e-05
*RES
1 *4292:Y *4293:C1 29.7786 
*END

*D_NET *258 0.00161308
*CONN
*I *4322:A1 I *D sky130_fd_sc_hd__o21bai_1
*I *4297:A I *D sky130_fd_sc_hd__or3_1
*I *4298:B1 I *D sky130_fd_sc_hd__o21ai_1
*I *4294:Y O *D sky130_fd_sc_hd__nand2_1
*CAP
1 *4322:A1 0
2 *4297:A 8.88227e-05
3 *4298:B1 1.40568e-05
4 *4294:Y 0.000127027
5 *258:12 0.000121061
6 *258:10 0.000145208
7 *4297:A *4297:B 5.52238e-05
8 *4297:A *4297:C 0.000184745
9 *4297:A *259:14 0.000212147
10 *4297:A *260:23 3.97677e-05
11 *4298:B1 *259:14 5.52238e-05
12 *4298:B1 *260:23 2.89016e-05
13 *258:10 *4298:A1 3.17163e-05
14 *258:10 *259:10 0.000153172
15 *258:10 *973:24 0.000339366
16 *258:12 *260:23 1.66446e-05
*RES
1 *4294:Y *258:10 22.675 
2 *258:10 *258:12 0.428571 
3 *258:12 *4298:B1 9.83571 
4 *258:12 *4297:A 12.3 
5 *258:10 *4322:A1 9.3 
*END

*D_NET *259 0.00240576
*CONN
*I *4298:A1 I *D sky130_fd_sc_hd__o21ai_1
*I *4297:B I *D sky130_fd_sc_hd__or3_1
*I *4322:B1_N I *D sky130_fd_sc_hd__o21bai_1
*I *4295:X O *D sky130_fd_sc_hd__and4_1
*CAP
1 *4298:A1 9.12927e-05
2 *4297:B 4.61196e-05
3 *4322:B1_N 0
4 *4295:X 0.000340166
5 *259:14 0.000209131
6 *259:10 0.00059447
7 *4298:A1 *263:16 0
8 *259:10 *260:12 0.00024968
9 *259:10 *263:16 0
10 *259:10 *973:24 7.81658e-05
11 *259:10 *986:78 7.73758e-05
12 *259:10 *987:114 1.50181e-05
13 *259:10 *989:77 5.71472e-05
14 *259:10 *1004:90 0.000125724
15 *259:14 *260:23 1.39841e-05
16 *4297:A *4297:B 5.52238e-05
17 *4297:A *259:14 0.000212147
18 *4298:B1 *259:14 5.52238e-05
19 *258:10 *4298:A1 3.17163e-05
20 *258:10 *259:10 0.000153172
*RES
1 *4295:X *259:10 22.9607 
2 *259:10 *259:14 7.5 
3 *259:14 *4322:B1_N 9.3 
4 *259:14 *4297:B 10.2643 
5 *259:10 *4298:A1 15.4786 
*END

*D_NET *260 0.00186732
*CONN
*I *4297:C I *D sky130_fd_sc_hd__or3_1
*I *4322:A2 I *D sky130_fd_sc_hd__o21bai_1
*I *4298:A2 I *D sky130_fd_sc_hd__o21ai_1
*I *4296:Y O *D sky130_fd_sc_hd__a22oi_2
*CAP
1 *4297:C 7.23407e-05
2 *4322:A2 0
3 *4298:A2 0
4 *4296:Y 0.000273652
5 *260:23 0.000289877
6 *260:12 0.000491189
7 *260:12 *263:16 0.000103285
8 *260:12 *987:114 0.000103253
9 *4297:A *4297:C 0.000184745
10 *4297:A *260:23 3.97677e-05
11 *4298:B1 *260:23 2.89016e-05
12 *258:12 *260:23 1.66446e-05
13 *259:10 *260:12 0.00024968
14 *259:14 *260:23 1.39841e-05
*RES
1 *4296:Y *260:12 25.0321 
2 *260:12 *4298:A2 9.3 
3 *260:12 *260:23 3.94643 
4 *260:23 *4322:A2 9.3 
5 *260:23 *4297:C 11.0679 
*END

*D_NET *261 0.00166461
*CONN
*I *4301:A1 I *D sky130_fd_sc_hd__a21o_1
*I *4300:A I *D sky130_fd_sc_hd__nand3_1
*I *4297:X O *D sky130_fd_sc_hd__or3_1
*CAP
1 *4301:A1 0.000256887
2 *4300:A 0
3 *4297:X 0.000110193
4 *261:12 0.000367079
5 *4301:A1 *4300:B 0.000342054
6 *4301:A1 *262:12 5.41794e-05
7 *4301:A1 *263:16 5.33005e-05
8 *4301:A1 *265:10 0.000183726
9 *4301:A1 *973:24 0.000101545
10 *261:12 *772:48 0.000128154
11 *196:14 *261:12 6.74911e-05
*RES
1 *4297:X *261:12 20.8893 
2 *261:12 *4300:A 9.3 
3 *261:12 *4301:A1 24.3179 
*END

*D_NET *262 0.00121938
*CONN
*I *4300:B I *D sky130_fd_sc_hd__nand3_1
*I *4301:A2 I *D sky130_fd_sc_hd__a21o_1
*I *4298:Y O *D sky130_fd_sc_hd__o21ai_1
*CAP
1 *4300:B 0.000164912
2 *4301:A2 0
3 *4298:Y 9.23998e-05
4 *262:12 0.000257312
5 *4300:B *4300:C 0.00018077
6 *4300:B *263:16 3.77123e-05
7 *262:12 *263:16 5.52238e-05
8 *262:12 *973:24 3.48139e-05
9 *4301:A1 *4300:B 0.000342054
10 *4301:A1 *262:12 5.41794e-05
*RES
1 *4298:Y *262:12 20.4786 
2 *262:12 *4301:A2 9.3 
3 *262:12 *4300:B 13.9786 
*END

*D_NET *263 0.00303023
*CONN
*I *4300:C I *D sky130_fd_sc_hd__nand3_1
*I *4301:B1 I *D sky130_fd_sc_hd__a21o_1
*I *4299:Y O *D sky130_fd_sc_hd__o21bai_1
*CAP
1 *4300:C 8.30679e-05
2 *4301:B1 0
3 *4299:Y 0.000896886
4 *263:16 0.000979954
5 *263:16 *973:24 0
6 *263:16 *1001:46 5.74499e-06
7 *263:16 *1007:136 0.000447622
8 *4298:A1 *263:16 0
9 *4300:B *4300:C 0.00018077
10 *4300:B *263:16 3.77123e-05
11 *4301:A1 *263:16 5.33005e-05
12 *244:18 *263:16 0.000186662
13 *259:10 *263:16 0
14 *260:12 *263:16 0.000103285
15 *262:12 *263:16 5.52238e-05
*RES
1 *4299:Y *263:16 33.3 
2 *263:16 *4301:B1 9.3 
3 *263:16 *4300:C 11.0679 
*END

*D_NET *264 0.00264975
*CONN
*I *4303:B1 I *D sky130_fd_sc_hd__a22o_1
*I *4327:A I *D sky130_fd_sc_hd__nand2_1
*I *4302:C I *D sky130_fd_sc_hd__nand4_1
*I *4300:Y O *D sky130_fd_sc_hd__nand3_1
*CAP
1 *4303:B1 6.82053e-05
2 *4327:A 9.81535e-05
3 *4302:C 0
4 *4300:Y 7.65076e-05
5 *264:21 0.000294594
6 *264:8 0.000204743
7 *4303:B1 *4303:A2 5.33005e-05
8 *4303:B1 *4303:B2 0.000145316
9 *4327:A *266:10 0.000195555
10 *4327:A *266:23 1.02504e-05
11 *4327:A *772:46 2.59355e-05
12 *264:8 *265:10 0.000268521
13 *264:8 *772:48 0.000271958
14 *264:21 *4303:A2 0.000149131
15 *264:21 *4303:B2 0.000308333
16 *264:21 *265:10 4.49293e-05
17 *264:21 *772:48 0.000238047
18 *196:14 *4327:A 0.000196269
*RES
1 *4300:Y *264:8 17.2643 
2 *264:8 *4302:C 13.8 
3 *264:8 *264:21 9.01786 
4 *264:21 *4327:A 21.3893 
5 *264:21 *4303:B1 11.0857 
*END

*D_NET *265 0.00285365
*CONN
*I *4303:B2 I *D sky130_fd_sc_hd__a22o_1
*I *4302:D I *D sky130_fd_sc_hd__nand4_1
*I *4301:X O *D sky130_fd_sc_hd__a21o_1
*CAP
1 *4303:B2 0.000273414
2 *4302:D 2.99504e-05
3 *4301:X 0.000228028
4 *265:10 0.000531392
5 *4302:D *4189:B2 9.41642e-05
6 *4302:D *984:99 9.41642e-05
7 *4303:B2 *4303:A2 0.000184438
8 *4303:B2 *984:93 0.000142856
9 *265:10 *4303:A2 5.59013e-05
10 *265:10 *1007:136 0.000268521
11 *4301:A1 *265:10 0.000183726
12 *4303:B1 *4303:B2 0.000145316
13 *264:8 *265:10 0.000268521
14 *264:21 *4303:B2 0.000308333
15 *264:21 *265:10 4.49293e-05
*RES
1 *4301:X *265:10 19.6393 
2 *265:10 *4302:D 14.7464 
3 *265:10 *4303:B2 20.6036 
*END

*D_NET *266 0.00206583
*CONN
*I *4304:B I *D sky130_fd_sc_hd__and3_1
*I *4305:A1 I *D sky130_fd_sc_hd__a21oi_1
*I *4327:B I *D sky130_fd_sc_hd__nand2_1
*I *4302:Y O *D sky130_fd_sc_hd__nand4_1
*CAP
1 *4304:B 0
2 *4305:A1 0.000143922
3 *4327:B 0
4 *4302:Y 0.000206526
5 *266:23 0.000297979
6 *266:10 0.000360583
7 *4305:A1 *4304:C 0.000167288
8 *4305:A1 *4305:A2 5.33005e-05
9 *266:10 *4189:A1 9.60939e-05
10 *266:10 *267:12 0
11 *266:10 *772:46 0.000100823
12 *266:10 *772:48 0.000170661
13 *266:23 *4304:C 2.30526e-06
14 *266:23 *268:8 3.34295e-05
15 *266:23 *290:12 9.25014e-06
16 *266:23 *772:46 4.00276e-06
17 *4304:A *4305:A1 2.28499e-05
18 *4327:A *266:10 0.000195555
19 *4327:A *266:23 1.02504e-05
20 *182:80 *4305:A1 9.80173e-05
21 *196:14 *266:10 5.74562e-05
22 *196:14 *266:23 3.55407e-05
*RES
1 *4302:Y *266:10 18.8179 
2 *266:10 *4327:B 13.8 
3 *266:10 *266:23 6.89286 
4 *266:23 *4305:A1 13.05 
5 *266:23 *4304:B 9.3 
*END

*D_NET *267 0.00141249
*CONN
*I *4304:C I *D sky130_fd_sc_hd__and3_1
*I *4305:A2 I *D sky130_fd_sc_hd__a21oi_1
*I *4303:X O *D sky130_fd_sc_hd__a22o_1
*CAP
1 *4304:C 7.64922e-05
2 *4305:A2 1.69531e-05
3 *4303:X 0.000321189
4 *267:12 0.000414635
5 *267:12 *4303:A2 9.46929e-05
6 *267:12 *772:46 0
7 *4304:A *4304:C 8.66063e-05
8 *4304:A *4305:A2 5.33005e-05
9 *4305:A1 *4304:C 0.000167288
10 *4305:A1 *4305:A2 5.33005e-05
11 *194:12 *267:12 0.000125724
12 *266:10 *267:12 0
13 *266:23 *4304:C 2.30526e-06
*RES
1 *4303:X *267:12 22.9429 
2 *267:12 *4305:A2 9.83571 
3 *267:12 *4304:C 11.6929 
*END

*D_NET *268 0.00229671
*CONN
*I *4331:B1_N I *D sky130_fd_sc_hd__o21bai_1
*I *4330:C_N I *D sky130_fd_sc_hd__or3b_2
*I *4306:A I *D sky130_fd_sc_hd__nor2_1
*I *4304:X O *D sky130_fd_sc_hd__and3_1
*CAP
1 *4331:B1_N 0.000105584
2 *4330:C_N 0
3 *4306:A 0.000197616
4 *4304:X 9.78843e-05
5 *268:23 0.000386786
6 *268:8 0.000576702
7 *4331:B1_N *4330:A 4.53889e-05
8 *4331:B1_N *4331:A2 0.00012747
9 *4331:B1_N *291:21 3.69047e-06
10 *4331:B1_N *292:12 0.000186662
11 *4331:B1_N *293:28 5.74499e-06
12 *4331:B1_N *824:26 4.8843e-05
13 *268:8 *290:12 7.4826e-05
14 *268:23 *290:12 1.76135e-05
15 *268:23 *292:12 9.47712e-05
16 *268:23 *824:26 0.000235174
17 *182:80 *268:8 0
18 *182:80 *268:23 0
19 *182:91 *268:23 0
20 *196:14 *268:23 5.85228e-05
21 *266:23 *268:8 3.34295e-05
*RES
1 *4304:X *268:8 16.05 
2 *268:8 *4306:A 16.8 
3 *268:8 *268:23 11.2857 
4 *268:23 *4330:C_N 9.3 
5 *268:23 *4331:B1_N 12.7286 
*END

*D_NET *269 0.000378477
*CONN
*I *4306:B I *D sky130_fd_sc_hd__nor2_1
*I *4305:Y O *D sky130_fd_sc_hd__a21oi_1
*CAP
1 *4306:B 0.000119868
2 *4305:Y 0.000119868
3 *182:80 *4306:B 5.71472e-05
4 *194:12 *4306:B 8.15939e-05
*RES
1 *4305:Y *4306:B 30.0821 
*END

*D_NET *270 0.00168341
*CONN
*I *4308:B I *D sky130_fd_sc_hd__or2_1
*I *4307:B I *D sky130_fd_sc_hd__nand2_1
*I *4306:Y O *D sky130_fd_sc_hd__nor2_1
*CAP
1 *4308:B 0
2 *4307:B 0.000487395
3 *4306:Y 0.000334404
4 *270:6 0.000821799
5 *4307:B *822:10 1.28585e-05
6 *4307:B *822:12 5.80706e-06
7 *4307:B *844:20 2.11419e-05
*RES
1 *4306:Y *270:6 14.3536 
2 *270:6 *4307:B 26.7295 
3 *270:6 *4308:B 9.3 
*END

*D_NET *271 0.000845098
*CONN
*I *4309:A I *D sky130_fd_sc_hd__nand2_1
*I *4335:B1_N I *D sky130_fd_sc_hd__a21bo_1
*I *4307:Y O *D sky130_fd_sc_hd__nand2_1
*CAP
1 *4309:A 8.28838e-05
2 *4335:B1_N 0
3 *4307:Y 5.79612e-05
4 *271:6 0.000140845
5 *4309:A *4308:A 4.08637e-05
6 *4309:A *4311:A 0.000125724
7 *4309:A *4335:A2 2.59355e-05
8 *4309:A *274:10 0.000197984
9 *271:6 *4308:A 0.0001399
10 *271:6 *4335:A2 6.05161e-06
11 *4190:B1 *4309:A 2.6949e-05
*RES
1 *4307:Y *271:6 10.6571 
2 *271:6 *4335:B1_N 9.3 
3 *271:6 *4309:A 21.3893 
*END

*D_NET *272 0.00138977
*CONN
*I *4309:B I *D sky130_fd_sc_hd__nand2_1
*I *4335:A1 I *D sky130_fd_sc_hd__a21bo_1
*I *4308:X O *D sky130_fd_sc_hd__or2_1
*CAP
1 *4309:B 0.000223969
2 *4335:A1 0.000214158
3 *4308:X 0
4 *272:4 0.000438127
5 *4335:A1 *4308:A 0.00017881
6 *4335:A1 *4311:A 8.13056e-05
7 *4335:A1 *4335:A2 5.33005e-05
8 *4190:B1 *4309:B 0
9 *4190:B1 *4335:A1 7.80051e-05
10 *182:80 *4309:B 0.000122091
*RES
1 *4308:X *272:4 9.3 
2 *272:4 *4335:A1 22.05 
3 *272:4 *4309:B 22.425 
*END

*D_NET *273 0.000674815
*CONN
*I *4311:A I *D sky130_fd_sc_hd__xor2_1
*I *4309:Y O *D sky130_fd_sc_hd__nand2_1
*CAP
1 *4311:A 0.00012306
2 *4309:Y 0.00012306
3 *4311:A *4311:B 7.99213e-05
4 *4311:A *274:10 2.03008e-05
5 *4190:B1 *4311:A 0.000121443
6 *4309:A *4311:A 0.000125724
7 *4335:A1 *4311:A 8.13056e-05
*RES
1 *4309:Y *4311:A 31.6714 
*END

*D_NET *274 0.00427101
*CONN
*I *4311:B I *D sky130_fd_sc_hd__xor2_1
*I *4335:A2 I *D sky130_fd_sc_hd__a21bo_1
*I *4310:Y O *D sky130_fd_sc_hd__o21ai_1
*CAP
1 *4311:B 8.62168e-05
2 *4335:A2 0.000162971
3 *4310:Y 0.000905279
4 *274:10 0.00115447
5 *4311:B *844:20 0.000167194
6 *4335:A2 *4308:A 4.3421e-05
7 *274:10 *4287:A 9.99853e-05
8 *274:10 *844:20 0.000858156
9 *274:10 *973:10 6.16864e-05
10 *274:10 *973:24 2.10446e-05
11 *4190:B1 *4311:B 0
12 *4190:B1 *274:10 0
13 *4194:B1 *4311:B 2.89114e-05
14 *4288:B *274:10 2.54304e-06
15 *4309:A *4335:A2 2.59355e-05
16 *4309:A *274:10 0.000197984
17 *4311:A *4311:B 7.99213e-05
18 *4311:A *274:10 2.03008e-05
19 *4335:A1 *4335:A2 5.33005e-05
20 *249:16 *274:10 0
21 *251:12 *274:10 0.000271976
22 *252:6 *274:10 2.36643e-05
23 *271:6 *4335:A2 6.05161e-06
*RES
1 *4310:Y *274:10 31.55 
2 *274:10 *4335:A2 16.4071 
3 *274:10 *4311:B 16.5857 
*END

*D_NET *275 0.00129203
*CONN
*I *4312:B I *D sky130_fd_sc_hd__nand2_1
*I *4311:X O *D sky130_fd_sc_hd__xor2_1
*CAP
1 *4312:B 0.000313554
2 *4311:X 0.000313554
3 *4312:B *839:81 0.000321745
4 *4312:B *972:16 0.00017379
5 *4194:B1 *4312:B 0.000169383
*RES
1 *4311:X *4312:B 34.6714 
*END

*D_NET *276 0.000204804
*CONN
*I *4313:C1 I *D sky130_fd_sc_hd__o211a_1
*I *4312:Y O *D sky130_fd_sc_hd__nand2_1
*CAP
1 *4313:C1 6.67541e-05
2 *4312:Y 6.67541e-05
3 *4313:C1 *4313:A2 5.28345e-05
4 *4313:C1 *4313:B1 1.8461e-05
*RES
1 *4312:Y *4313:C1 19.975 
*END

*D_NET *277 0.000553012
*CONN
*I *4316:A I *D sky130_fd_sc_hd__nor2_1
*I *4314:Y O *D sky130_fd_sc_hd__a22oi_1
*CAP
1 *4316:A 0.000177463
2 *4314:Y 0.000177463
3 *4316:A *4326:A2 0
4 *4316:A *278:12 0
5 *4316:A *279:10 9.90431e-05
6 *4316:A *287:8 0
7 *4316:A *317:8 9.90431e-05
8 *4316:A *984:93 0
*RES
1 *4314:Y *4316:A 31.1 
*END

*D_NET *278 0.00211244
*CONN
*I *4358:A I *D sky130_fd_sc_hd__nand3_2
*I *4359:B1 I *D sky130_fd_sc_hd__a21o_1
*I *4316:B I *D sky130_fd_sc_hd__nor2_1
*I *4315:X O *D sky130_fd_sc_hd__and4_1
*CAP
1 *4358:A 0.000139956
2 *4359:B1 0
3 *4316:B 0
4 *4315:X 0.000150407
5 *278:23 0.000466797
6 *278:12 0.000477248
7 *278:12 *982:83 5.71472e-05
8 *278:12 *984:93 2.34204e-05
9 *278:23 *317:8 0.000666687
10 *278:23 *318:12 0
11 *278:23 *319:14 8.00806e-05
12 *278:23 *984:93 5.06983e-05
13 *4316:A *278:12 0
*RES
1 *4315:X *278:12 20.7821 
2 *278:12 *4316:B 9.3 
3 *278:12 *278:23 13.0357 
4 *278:23 *4359:B1 13.8 
5 *278:23 *4358:A 15.5679 
*END

*D_NET *279 0.00264479
*CONN
*I *4355:A1 I *D sky130_fd_sc_hd__a21bo_1
*I *4325:A I *D sky130_fd_sc_hd__nand3_1
*I *4326:B1 I *D sky130_fd_sc_hd__a21o_1
*I *4316:Y O *D sky130_fd_sc_hd__nor2_1
*CAP
1 *4355:A1 0
2 *4325:A 0
3 *4326:B1 0.000296617
4 *4316:Y 0.000136376
5 *279:12 0.000396803
6 *279:10 0.000236562
7 *4326:B1 *4326:A1 0
8 *4326:B1 *4326:A2 0
9 *4326:B1 *286:10 1.02504e-05
10 *4326:B1 *288:10 0.000341781
11 *4326:B1 *824:26 0.000186669
12 *279:10 *4325:C 0
13 *279:10 *4355:A2 4.38128e-05
14 *279:10 *317:8 0.000145009
15 *279:10 *984:93 0.000231415
16 *279:12 *4325:C 0.000169441
17 *279:12 *4326:A1 2.44318e-05
18 *279:12 *4355:A2 9.60939e-05
19 *279:12 *286:21 0.000230482
20 *4316:A *279:10 9.90431e-05
21 *199:10 *4326:B1 0
*RES
1 *4316:Y *279:10 14.4964 
2 *279:10 *279:12 3.82143 
3 *279:12 *4326:B1 25.05 
4 *279:12 *4325:A 9.3 
5 *279:10 *4355:A1 9.3 
*END

*D_NET *280 0.00140335
*CONN
*I *4320:A I *D sky130_fd_sc_hd__or3_1
*I *4350:A1 I *D sky130_fd_sc_hd__o21bai_1
*I *4321:B1 I *D sky130_fd_sc_hd__o21ai_1
*I *4317:Y O *D sky130_fd_sc_hd__nand2_1
*CAP
1 *4320:A 0
2 *4350:A1 2.03441e-05
3 *4321:B1 7.67105e-06
4 *4317:Y 0.000196637
5 *280:12 9.33572e-05
6 *280:10 0.000261979
7 *4321:B1 *4321:A1 5.71472e-05
8 *4321:B1 *282:25 3.18676e-05
9 *4350:A1 *4321:A1 0
10 *4350:A1 *282:25 5.7661e-06
11 *280:10 *281:10 0.000109671
12 *280:10 *282:25 0
13 *280:12 *4320:B 9.90431e-05
14 *280:12 *4320:C 0.000232399
15 *280:12 *4321:A1 0.000217141
16 *280:12 *282:25 4.88637e-05
17 *280:12 *312:10 2.14658e-05
*RES
1 *4317:Y *280:10 22.3714 
2 *280:10 *280:12 3.41071 
3 *280:12 *4321:B1 9.83571 
4 *280:12 *4350:A1 9.72857 
5 *280:10 *4320:A 9.3 
*END

*D_NET *281 0.00149171
*CONN
*I *4320:B I *D sky130_fd_sc_hd__or3_1
*I *4350:B1_N I *D sky130_fd_sc_hd__o21bai_1
*I *4321:A1 I *D sky130_fd_sc_hd__o21ai_1
*I *4318:X O *D sky130_fd_sc_hd__and4_1
*CAP
1 *4320:B 6.31558e-05
2 *4350:B1_N 0
3 *4321:A1 0.000231411
4 *4318:X 0.000173913
5 *281:10 0.000468479
6 *4321:A1 *4321:A2 5.33005e-05
7 *4321:A1 *282:25 1.39841e-05
8 *281:10 *282:8 0
9 *281:10 *1001:71 4.46186e-06
10 *4321:B1 *4321:A1 5.71472e-05
11 *4350:A1 *4321:A1 0
12 *280:10 *281:10 0.000109671
13 *280:12 *4320:B 9.90431e-05
14 *280:12 *4321:A1 0.000217141
*RES
1 *4318:X *281:10 22.0679 
2 *281:10 *4321:A1 13.8536 
3 *281:10 *4350:B1_N 9.3 
4 *281:10 *4320:B 10.675 
*END

*D_NET *282 0.0018717
*CONN
*I *4320:C I *D sky130_fd_sc_hd__or3_1
*I *4350:A2 I *D sky130_fd_sc_hd__o21bai_1
*I *4321:A2 I *D sky130_fd_sc_hd__o21ai_1
*I *4319:Y O *D sky130_fd_sc_hd__a22oi_2
*CAP
1 *4320:C 3.29258e-05
2 *4350:A2 0
3 *4321:A2 4.36033e-05
4 *4319:Y 0.000178524
5 *282:25 0.000197775
6 *282:8 0.000386977
7 *4320:C *312:10 0.000188586
8 *282:8 *4318:B 1.19309e-05
9 *282:25 *312:10 1.04232e-05
10 *4321:A1 *4321:A2 5.33005e-05
11 *4321:A1 *282:25 1.39841e-05
12 *4321:B1 *282:25 3.18676e-05
13 *4350:A1 *282:25 5.7661e-06
14 *199:10 *282:8 0.000338337
15 *199:10 *282:25 9.64387e-05
16 *280:10 *282:25 0
17 *280:12 *4320:C 0.000232399
18 *280:12 *282:25 4.88637e-05
19 *281:10 *282:8 0
*RES
1 *4319:Y *282:8 18.175 
2 *282:8 *4321:A2 14.3357 
3 *282:8 *282:25 8.03571 
4 *282:25 *4350:A2 9.3 
5 *282:25 *4320:C 11.4786 
*END

*D_NET *283 0.00125621
*CONN
*I *4324:A1 I *D sky130_fd_sc_hd__a21o_1
*I *4323:A I *D sky130_fd_sc_hd__nand3_1
*I *4320:X O *D sky130_fd_sc_hd__or3_1
*CAP
1 *4324:A1 0
2 *4323:A 4.53638e-05
3 *4320:X 0.000357079
4 *283:12 0.000402443
5 *4323:A *4324:A2 0.000108191
6 *4323:A *4324:B1 0.000162619
7 *4323:A *284:14 3.57366e-05
8 *283:12 *284:14 0
9 *283:12 *312:10 0.000144773
*RES
1 *4320:X *283:12 24.0321 
2 *283:12 *4323:A 11.5143 
3 *283:12 *4324:A1 9.3 
*END

*D_NET *284 0.00134427
*CONN
*I *4324:A2 I *D sky130_fd_sc_hd__a21o_1
*I *4323:B I *D sky130_fd_sc_hd__nand3_1
*I *4321:Y O *D sky130_fd_sc_hd__o21ai_1
*CAP
1 *4324:A2 8.11571e-05
2 *4323:B 0
3 *4321:Y 0.000238232
4 *284:14 0.000319389
5 *4324:A2 *4324:B1 1.21289e-05
6 *284:14 *4323:C 0.000142856
7 *284:14 *4324:B1 0.000230482
8 *4323:A *4324:A2 0.000108191
9 *4323:A *284:14 3.57366e-05
10 *199:10 *284:14 0.000176096
11 *283:12 *284:14 0
*RES
1 *4321:Y *284:14 24.9786 
2 *284:14 *4323:B 9.3 
3 *284:14 *4324:A2 11.6393 
*END

*D_NET *285 0.00321544
*CONN
*I *4323:C I *D sky130_fd_sc_hd__nand3_1
*I *4324:B1 I *D sky130_fd_sc_hd__a21o_1
*I *4322:Y O *D sky130_fd_sc_hd__o21bai_1
*CAP
1 *4323:C 6.79445e-05
2 *4324:B1 0.000325702
3 *4322:Y 0.000710613
4 *285:12 0.00110426
5 *285:12 *1007:136 0.000117054
6 *4323:A *4324:B1 0.000162619
7 *4324:A2 *4324:B1 1.21289e-05
8 *194:12 *285:12 0.000341781
9 *284:14 *4323:C 0.000142856
10 *284:14 *4324:B1 0.000230482
*RES
1 *4322:Y *285:12 31.425 
2 *285:12 *4324:B1 15.8179 
3 *285:12 *4323:C 11.0679 
*END

*D_NET *286 0.00180665
*CONN
*I *4326:A1 I *D sky130_fd_sc_hd__a21o_1
*I *4355:B1_N I *D sky130_fd_sc_hd__a21bo_1
*I *4325:B I *D sky130_fd_sc_hd__nand3_1
*I *4323:Y O *D sky130_fd_sc_hd__nand3_1
*CAP
1 *4326:A1 0.000236283
2 *4355:B1_N 0
3 *4325:B 0
4 *4323:Y 0.000272248
5 *286:21 0.000397937
6 *286:10 0.000433901
7 *4326:A1 *4326:A2 0.000181368
8 *286:10 *4326:A2 0
9 *286:10 *287:8 0
10 *286:10 *287:12 0
11 *286:21 *4325:C 1.97502e-05
12 *4326:B1 *4326:A1 0
13 *4326:B1 *286:10 1.02504e-05
14 *199:10 *286:10 0
15 *279:12 *4326:A1 2.44318e-05
16 *279:12 *286:21 0.000230482
*RES
1 *4323:Y *286:10 22.675 
2 *286:10 *4325:B 9.3 
3 *286:10 *286:21 3.44643 
4 *286:21 *4355:B1_N 9.3 
5 *286:21 *4326:A1 23.2107 
*END

*D_NET *287 0.00264376
*CONN
*I *4326:A2 I *D sky130_fd_sc_hd__a21o_1
*I *4355:A2 I *D sky130_fd_sc_hd__a21bo_1
*I *4325:C I *D sky130_fd_sc_hd__nand3_1
*I *4324:X O *D sky130_fd_sc_hd__a21o_1
*CAP
1 *4326:A2 0.000349429
2 *4355:A2 2.80803e-05
3 *4325:C 0.000155336
4 *4324:X 0.000234886
5 *287:12 0.00019556
6 *287:8 0.000596458
7 *4325:C *984:93 0.000446597
8 *4326:A2 *824:26 5.52238e-05
9 *4355:A2 *984:93 7.17235e-05
10 *4316:A *4326:A2 0
11 *4316:A *287:8 0
12 *4326:A1 *4326:A2 0.000181368
13 *4326:B1 *4326:A2 0
14 *279:10 *4325:C 0
15 *279:10 *4355:A2 4.38128e-05
16 *279:12 *4325:C 0.000169441
17 *279:12 *4355:A2 9.60939e-05
18 *286:10 *4326:A2 0
19 *286:10 *287:8 0
20 *286:10 *287:12 0
21 *286:21 *4325:C 1.97502e-05
*RES
1 *4324:X *287:8 17.7196 
2 *287:8 *287:12 4.77679 
3 *287:12 *4325:C 14.6929 
4 *287:12 *4355:A2 10.6571 
5 *287:8 *4326:A2 20.3089 
*END

*D_NET *288 0.00209558
*CONN
*I *4329:A1 I *D sky130_fd_sc_hd__a21oi_1
*I *4328:A I *D sky130_fd_sc_hd__and3_1
*I *4325:Y O *D sky130_fd_sc_hd__nand3_1
*CAP
1 *4329:A1 0.000413319
2 *4328:A 0
3 *4325:Y 0.000210719
4 *288:10 0.000624038
5 *4329:A1 *4328:C 0.000468253
6 *4329:A1 *824:26 3.74722e-05
7 *288:10 *291:10 0
8 *288:10 *776:8 0
9 *4326:B1 *288:10 0.000341781
10 *199:10 *288:10 0
*RES
1 *4325:Y *288:10 22.9786 
2 *288:10 *4328:A 9.3 
3 *288:10 *4329:A1 15.1929 
*END

*D_NET *289 0.00132302
*CONN
*I *4328:B I *D sky130_fd_sc_hd__and3_1
*I *4329:A2 I *D sky130_fd_sc_hd__a21oi_1
*I *4326:X O *D sky130_fd_sc_hd__a21o_1
*CAP
1 *4328:B 2.23854e-05
2 *4329:A2 0.000251073
3 *4326:X 0.000106238
4 *289:6 0.000379697
5 *4329:A2 *4328:C 6.97409e-05
6 *4329:A2 *824:26 0.000267377
7 *289:6 *824:26 0.000226507
*RES
1 *4326:X *289:6 11.4786 
2 *289:6 *4329:A2 14.2643 
3 *289:6 *4328:B 9.72857 
*END

*D_NET *290 0.00165013
*CONN
*I *4328:C I *D sky130_fd_sc_hd__and3_1
*I *4329:B1 I *D sky130_fd_sc_hd__a21oi_1
*I *4327:Y O *D sky130_fd_sc_hd__nand2_1
*CAP
1 *4328:C 0.0001642
2 *4329:B1 0
3 *4327:Y 0.000187585
4 *290:12 0.000351785
5 *4328:C *824:26 0.000128939
6 *4329:A1 *4328:C 0.000468253
7 *4329:A2 *4328:C 6.97409e-05
8 *196:14 *290:12 0.000177941
9 *266:23 *290:12 9.25014e-06
10 *268:8 *290:12 7.4826e-05
11 *268:23 *290:12 1.76135e-05
*RES
1 *4327:Y *290:12 22.3179 
2 *290:12 *4329:B1 9.3 
3 *290:12 *4328:C 14.6214 
*END

*D_NET *291 0.00390497
*CONN
*I *4362:A_N I *D sky130_fd_sc_hd__nand3b_1
*I *4361:A I *D sky130_fd_sc_hd__nand3_1
*I *4331:A1 I *D sky130_fd_sc_hd__o21bai_1
*I *4330:A I *D sky130_fd_sc_hd__or3b_2
*I *4328:X O *D sky130_fd_sc_hd__and3_1
*CAP
1 *4362:A_N 0
2 *4361:A 0.000353412
3 *4331:A1 2.23854e-05
4 *4330:A 6.87622e-05
5 *4328:X 0.000150451
6 *291:32 0.00068793
7 *291:21 0.000406848
8 *291:10 0.000269157
9 *4330:A *4331:A2 0
10 *4330:A *293:28 0.000137983
11 *4331:A1 *4331:A2 0
12 *4361:A *4364:A 5.59013e-05
13 *4361:A *323:20 1.24368e-05
14 *4361:A *323:44 0
15 *4361:A *824:26 0.000174797
16 *291:10 *776:8 4.15914e-05
17 *291:10 *776:17 7.17836e-05
18 *291:21 *4331:A2 0.000108454
19 *291:21 *293:28 0.000218045
20 *291:32 *4362:C 3.63587e-05
21 *291:32 *293:28 0.000918146
22 *291:32 *293:41 9.41642e-05
23 *291:32 *324:12 2.72859e-05
24 *4331:B1_N *4330:A 4.53889e-05
25 *4331:B1_N *291:21 3.69047e-06
26 *288:10 *291:10 0
*RES
1 *4328:X *291:10 21.1571 
2 *291:10 *4330:A 11.0857 
3 *291:10 *291:21 2.17857 
4 *291:21 *4331:A1 9.72857 
5 *291:21 *291:32 10 
6 *291:32 *4361:A 24.7821 
7 *291:32 *4362:A_N 9.3 
*END

*D_NET *292 0.00188585
*CONN
*I *4331:A2 I *D sky130_fd_sc_hd__o21bai_1
*I *4330:B I *D sky130_fd_sc_hd__or3b_2
*I *4329:Y O *D sky130_fd_sc_hd__a21oi_1
*CAP
1 *4331:A2 0.000211438
2 *4330:B 0
3 *4329:Y 0.000408676
4 *292:12 0.000620115
5 *292:12 *293:10 6.75007e-05
6 *292:12 *824:26 0
7 *4330:A *4331:A2 0
8 *4331:A1 *4331:A2 0
9 *4331:B1_N *4331:A2 0.00012747
10 *4331:B1_N *292:12 0.000186662
11 *196:14 *292:12 6.07626e-05
12 *199:10 *292:12 0
13 *268:23 *292:12 9.47712e-05
14 *291:21 *4331:A2 0.000108454
*RES
1 *4329:Y *292:12 25.4786 
2 *292:12 *4330:B 9.3 
3 *292:12 *4331:A2 13.05 
*END

*D_NET *293 0.00689991
*CONN
*I *4363:A I *D sky130_fd_sc_hd__nor2_1
*I *4364:A I *D sky130_fd_sc_hd__or2_1
*I *4362:B I *D sky130_fd_sc_hd__nand3b_1
*I *4333:A1 I *D sky130_fd_sc_hd__a21o_1
*I *4332:B I *D sky130_fd_sc_hd__and3_1
*I *4330:X O *D sky130_fd_sc_hd__or3b_2
*CAP
1 *4363:A 0.000364865
2 *4364:A 0.000197924
3 *4362:B 3.30094e-05
4 *4333:A1 6.45667e-05
5 *4332:B 0
6 *4330:X 0
7 *293:41 0.000666695
8 *293:28 0.000999458
9 *293:10 0.000376629
10 *293:4 0.00117461
11 *4333:A1 *4333:A2 0.000104974
12 *4362:B *824:26 5.59013e-05
13 *4363:A *4362:C 3.67257e-05
14 *4363:A *322:21 0.000157385
15 *4364:A *4364:B 0.000171568
16 *4364:A *323:44 0
17 *4364:A *824:10 9.44259e-05
18 *4364:A *824:26 8.33559e-05
19 *293:10 *824:26 0.000358977
20 *293:28 *824:26 5.52238e-05
21 *293:41 *4362:C 1.21258e-05
22 *4330:A *293:28 0.000137983
23 *4331:B1_N *293:28 5.74499e-06
24 *4361:A *4364:A 5.59013e-05
25 *196:14 *4333:A1 0.000194299
26 *196:14 *293:10 0.000199706
27 *199:10 *4333:A1 0
28 *199:10 *293:10 0
29 *291:21 *293:28 0.000218045
30 *291:32 *293:28 0.000918146
31 *291:32 *293:41 9.41642e-05
32 *292:12 *293:10 6.75007e-05
*RES
1 *4330:X *293:4 9.3 
2 *293:4 *293:10 10.4643 
3 *293:10 *4332:B 13.8 
4 *293:10 *4333:A1 16.3536 
5 *293:4 *293:28 12.8571 
6 *293:28 *4362:B 19.0321 
7 *293:28 *293:41 1.35714 
8 *293:41 *4364:A 23.5857 
9 *293:41 *4363:A 14.675 
*END

*D_NET *294 0.00153053
*CONN
*I *4333:A2 I *D sky130_fd_sc_hd__a21o_1
*I *4332:C I *D sky130_fd_sc_hd__and3_1
*I *4331:Y O *D sky130_fd_sc_hd__o21bai_1
*CAP
1 *4333:A2 6.70019e-05
2 *4332:C 3.01718e-05
3 *4331:Y 0.000530239
4 *294:12 0.000627413
5 *4333:A2 *295:12 4.48206e-05
6 *294:12 *295:12 0.00010096
7 *294:12 *776:17 0
8 *4333:A1 *4333:A2 0.000104974
9 *196:14 *4333:A2 2.49484e-05
10 *199:10 *4333:A2 0
*RES
1 *4331:Y *294:12 26.8357 
2 *294:12 *4332:C 9.69286 
3 *294:12 *4333:A2 20.2464 
*END

*D_NET *295 0.00196671
*CONN
*I *4368:B1 I *D sky130_fd_sc_hd__a21o_1
*I *4334:A_N I *D sky130_fd_sc_hd__nand2b_1
*I *4332:X O *D sky130_fd_sc_hd__and3_1
*CAP
1 *4368:B1 3.21518e-05
2 *4334:A_N 0.000307421
3 *4332:X 0.000146388
4 *295:12 0.000485961
5 *4334:A_N *4332:A 2.8266e-06
6 *4334:A_N *4334:B 0.000230482
7 *4334:A_N *4368:A1 2.54632e-05
8 *4334:A_N *4368:A2 0.00057651
9 *4334:A_N *823:40 1.37292e-05
10 *4333:A2 *295:12 4.48206e-05
11 *182:91 *4334:A_N 0
12 *199:10 *295:12 0
13 *294:12 *295:12 0.00010096
*RES
1 *4332:X *295:12 20.8893 
2 *295:12 *4334:A_N 25.8893 
3 *295:12 *4368:B1 9.83571 
*END

*D_NET *296 0.00111294
*CONN
*I *4368:A1 I *D sky130_fd_sc_hd__a21o_1
*I *4334:B I *D sky130_fd_sc_hd__nand2b_1
*I *4333:X O *D sky130_fd_sc_hd__a21o_1
*CAP
1 *4368:A1 0.00016614
2 *4334:B 0.000165328
3 *4333:X 0
4 *296:4 0.000331468
5 *4334:B *4368:A2 5.36566e-05
6 *4368:A1 *4368:A2 0.000140403
7 *4334:A_N *4334:B 0.000230482
8 *4334:A_N *4368:A1 2.54632e-05
*RES
1 *4333:X *296:4 9.3 
2 *296:4 *4334:B 12.858 
3 *296:4 *4368:A1 12.3 
*END

*D_NET *297 0.000961288
*CONN
*I *4336:A I *D sky130_fd_sc_hd__xnor2_1
*I *4334:Y O *D sky130_fd_sc_hd__nand2b_1
*CAP
1 *4336:A 0.000391673
2 *4334:Y 0.000391673
3 *4336:A *4193:A2 0.000177941
*RES
1 *4334:Y *4336:A 34.9036 
*END

*D_NET *298 0.003153
*CONN
*I *4336:B I *D sky130_fd_sc_hd__xnor2_1
*I *4368:A2 I *D sky130_fd_sc_hd__a21o_1
*I *4335:X O *D sky130_fd_sc_hd__a21bo_1
*CAP
1 *4336:B 0.000125379
2 *4368:A2 0.000595773
3 *4335:X 0.000449977
4 *298:10 0.00117113
5 *298:10 *4308:A 4.01768e-05
6 *4190:B1 *4336:B 0
7 *4190:B1 *298:10 0
8 *4334:A_N *4368:A2 0.00057651
9 *4334:B *4368:A2 5.36566e-05
10 *4368:A1 *4368:A2 0.000140403
*RES
1 *4335:X *298:10 21.55 
2 *298:10 *4368:A2 26.2643 
3 *298:10 *4336:B 16.05 
*END

*D_NET *299 0.000796627
*CONN
*I *4337:A1 I *D sky130_fd_sc_hd__mux2_1
*I *4336:Y O *D sky130_fd_sc_hd__xnor2_1
*CAP
1 *4337:A1 0.00029927
2 *4336:Y 0.00029927
3 *4337:A1 *4190:A1 0
4 *4337:A1 *4193:A2 0
5 *4337:A1 *839:93 9.90431e-05
6 *4337:A1 *1009:42 9.90431e-05
7 *4190:B1 *4337:A1 0
8 *183:28 *4337:A1 0
*RES
1 *4336:Y *4337:A1 32.6179 
*END

*D_NET *300 0.000466906
*CONN
*I *4338:B I *D sky130_fd_sc_hd__and2_1
*I *4337:X O *D sky130_fd_sc_hd__mux2_1
*CAP
1 *4338:B 0.000204647
2 *4337:X 0.000204647
3 *4338:B *839:93 5.76121e-05
4 *4338:B *844:12 0
*RES
1 *4337:X *4338:B 30.6 
*END

*D_NET *301 0.0028007
*CONN
*I *4373:B1 I *D sky130_fd_sc_hd__a211oi_1
*I *4372:A1 I *D sky130_fd_sc_hd__o211a_1
*I *4341:A I *D sky130_fd_sc_hd__or2_1
*I *4339:X O *D sky130_fd_sc_hd__and4_1
*CAP
1 *4373:B1 0
2 *4372:A1 0.000347834
3 *4341:A 0
4 *4339:X 0.000314208
5 *301:19 0.000499622
6 *301:8 0.000465996
7 *4372:A1 *4372:A2 0.000222405
8 *4372:A1 *333:10 4.0342e-06
9 *4372:A1 *1008:31 0
10 *301:8 *4340:A1 0.000182694
11 *301:8 *4340:A2 7.13226e-06
12 *301:8 *4341:B 5.33005e-05
13 *301:8 *4343:B 1.39841e-05
14 *301:8 *4375:B 9.83024e-06
15 *301:19 *4343:A 5.55712e-05
16 *301:19 *4343:B 0.000106579
17 *301:19 *4372:C1 0.000142856
18 *301:19 *305:10 0.000167516
19 *301:19 *977:117 0.000207134
*RES
1 *4339:X *301:8 13.55 
2 *301:8 *4341:A 9.3 
3 *301:8 *301:19 5.60714 
4 *301:19 *4372:A1 23.3 
5 *301:19 *4373:B1 9.3 
*END

*D_NET *302 0.000412376
*CONN
*I *4341:B I *D sky130_fd_sc_hd__or2_1
*I *4340:Y O *D sky130_fd_sc_hd__a22oi_1
*CAP
1 *4341:B 0.000122386
2 *4340:Y 0.000122386
3 *4341:B *4340:A2 1.94945e-05
4 *4341:B *4344:B 5.76705e-05
5 *4341:B *4375:B 1.40306e-05
6 *4341:B *304:14 1.02504e-05
7 *4341:B *1006:67 1.28585e-05
8 *301:8 *4341:B 5.33005e-05
*RES
1 *4340:Y *4341:B 30.2429 
*END

*D_NET *303 0.0013565
*CONN
*I *4344:A I *D sky130_fd_sc_hd__xor2_1
*I *4343:A I *D sky130_fd_sc_hd__nor2_1
*I *4341:X O *D sky130_fd_sc_hd__or2_1
*CAP
1 *4344:A 0.00032406
2 *4343:A 7.00956e-05
3 *4341:X 0
4 *303:6 0.000394156
5 *4343:A *4343:B 5.96842e-05
6 *4343:A *4344:B 0
7 *4343:A *977:117 5.59013e-05
8 *4344:A *4344:B 9.90367e-05
9 *4344:A *306:10 0.000158147
10 *4344:A *313:10 0.000129595
11 *4344:A *977:117 1.02504e-05
12 *4344:A *1006:73 0
13 *4344:A *1008:55 0
14 *301:19 *4343:A 5.55712e-05
*RES
1 *4341:X *303:6 13.8 
2 *303:6 *4343:A 15.3446 
3 *303:6 *4344:A 21.175 
*END

*D_NET *304 0.00199927
*CONN
*I *4343:B I *D sky130_fd_sc_hd__nor2_1
*I *4344:B I *D sky130_fd_sc_hd__xor2_1
*I *4342:Y O *D sky130_fd_sc_hd__nand2_1
*CAP
1 *4343:B 0.000114112
2 *4344:B 0.000314239
3 *4342:Y 0.000251666
4 *304:14 0.000680017
5 *4343:B *4375:B 0.000142053
6 *4343:B *305:10 1.33343e-05
7 *4343:B *977:117 0
8 *4344:B *977:117 0
9 *4344:B *1006:73 0
10 *304:14 *4342:A 0.00010096
11 *304:14 *977:117 0
12 *304:14 *1006:67 6.19965e-06
13 *304:14 *1008:31 2.94854e-05
14 *4341:B *4344:B 5.76705e-05
15 *4341:B *304:14 1.02504e-05
16 *4343:A *4343:B 5.96842e-05
17 *4343:A *4344:B 0
18 *4344:A *4344:B 9.90367e-05
19 *301:8 *4343:B 1.39841e-05
20 *301:19 *4343:B 0.000106579
*RES
1 *4342:Y *304:14 18.3268 
2 *304:14 *4344:B 19.8804 
3 *304:14 *4343:B 17.6304 
*END

*D_NET *305 0.001296
*CONN
*I *4372:A2 I *D sky130_fd_sc_hd__o211a_1
*I *4373:C1 I *D sky130_fd_sc_hd__a211oi_1
*I *4343:Y O *D sky130_fd_sc_hd__nor2_1
*CAP
1 *4372:A2 7.03101e-05
2 *4373:C1 0
3 *4343:Y 8.2349e-05
4 *305:10 0.000152659
5 *4372:A2 *4372:B1 2.78584e-05
6 *4372:A2 *4372:C1 0.00014183
7 *4372:A2 *4374:B 2.44318e-05
8 *4372:A2 *4375:B 2.14658e-05
9 *305:10 *4372:C1 3.03304e-05
10 *305:10 *4375:B 0.000341513
11 *4343:B *305:10 1.33343e-05
12 *4372:A1 *4372:A2 0.000222405
13 *301:19 *305:10 0.000167516
*RES
1 *4343:Y *305:10 13.2643 
2 *305:10 *4373:C1 9.3 
3 *305:10 *4372:A2 12.3179 
*END

*D_NET *306 0.00150505
*CONN
*I *4353:A I *D sky130_fd_sc_hd__nand3_1
*I *4354:B1 I *D sky130_fd_sc_hd__a21o_1
*I *4393:A1 I *D sky130_fd_sc_hd__a21bo_1
*I *4344:X O *D sky130_fd_sc_hd__xor2_1
*CAP
1 *4353:A 3.68413e-05
2 *4354:B1 5.45161e-05
3 *4393:A1 0
4 *4344:X 0.000269577
5 *306:23 0.000189202
6 *306:10 0.000367421
7 *4353:A *4353:B 5.47488e-05
8 *4353:A *4353:C 6.49351e-05
9 *4353:A *4354:A1 1.73305e-05
10 *4354:B1 *4354:A1 6.75704e-05
11 *4354:B1 *313:27 3.4855e-05
12 *306:10 *313:10 0
13 *306:10 *313:27 0
14 *306:10 *314:18 1.02504e-05
15 *306:10 *1008:55 0
16 *306:23 *4353:C 0
17 *306:23 *313:27 0
18 *306:23 *314:18 0.000179656
19 *4344:A *306:10 0.000158147
*RES
1 *4344:X *306:10 18.5321 
2 *306:10 *4393:A1 13.8 
3 *306:10 *306:23 7.17857 
4 *306:23 *4354:B1 10.675 
5 *306:23 *4353:A 10.675 
*END

*D_NET *307 0.00160922
*CONN
*I *4349:B1 I *D sky130_fd_sc_hd__o21ai_1
*I *4348:A I *D sky130_fd_sc_hd__or3_1
*I *4388:A1 I *D sky130_fd_sc_hd__o21bai_1
*I *4345:Y O *D sky130_fd_sc_hd__nand2_1
*CAP
1 *4349:B1 0.000103596
2 *4348:A 0
3 *4388:A1 0.000112788
4 *4345:Y 5.41667e-05
5 *307:21 0.000125491
6 *307:6 0.00018885
7 *4349:B1 *4349:A2 0.00022266
8 *4349:B1 *4381:A 1.98839e-05
9 *4349:B1 *311:12 0.000100625
10 *4349:B1 *1000:97 1.21258e-05
11 *4388:A1 *4349:A2 3.17148e-05
12 *4388:A1 *4381:A 6.8646e-06
13 *4388:A1 *308:21 0.00013882
14 *4388:A1 *309:14 0.000168939
15 *307:6 *4348:C 5.33005e-05
16 *307:6 *4349:A2 5.33005e-05
17 *307:6 *4381:A 2.28499e-05
18 *307:6 *986:84 3.18676e-05
19 *307:21 *4348:C 4.27935e-05
20 *307:21 *4349:A2 9.71197e-05
21 *307:21 *4381:A 2.14658e-05
*RES
1 *4345:Y *307:6 10.6571 
2 *307:6 *4388:A1 21.3893 
3 *307:6 *307:21 0.946429 
4 *307:21 *4348:A 9.3 
5 *307:21 *4349:B1 12.3 
*END

*D_NET *308 0.0022782
*CONN
*I *4349:A1 I *D sky130_fd_sc_hd__o21ai_1
*I *4348:B I *D sky130_fd_sc_hd__or3_1
*I *4388:B1_N I *D sky130_fd_sc_hd__o21bai_1
*I *4346:X O *D sky130_fd_sc_hd__and4_1
*CAP
1 *4349:A1 0.000159492
2 *4348:B 0
3 *4388:B1_N 0
4 *4346:X 9.23203e-05
5 *308:21 0.000461811
6 *308:6 0.000394639
7 *4349:A1 *4349:A2 0.000181796
8 *4349:A1 *310:12 7.83587e-05
9 *4349:A1 *311:12 7.83587e-05
10 *308:6 *309:10 0.000315158
11 *308:6 *999:59 5.33334e-05
12 *308:21 *4349:A2 6.8646e-06
13 *308:21 *4381:A 0.00012401
14 *308:21 *309:10 0.000167581
15 *308:21 *310:12 0
16 *308:21 *311:12 2.56601e-05
17 *308:21 *1001:71 0
18 *4388:A1 *308:21 0.00013882
*RES
1 *4346:X *308:6 12.3 
2 *308:6 *4388:B1_N 9.3 
3 *308:6 *308:21 15.4821 
4 *308:21 *4348:B 9.3 
5 *308:21 *4349:A1 21.1036 
*END

*D_NET *309 0.00321264
*CONN
*I *4388:A2 I *D sky130_fd_sc_hd__o21bai_1
*I *4349:A2 I *D sky130_fd_sc_hd__o21ai_1
*I *4348:C I *D sky130_fd_sc_hd__or3_1
*I *4347:Y O *D sky130_fd_sc_hd__a22oi_2
*CAP
1 *4388:A2 0
2 *4349:A2 0.000155431
3 *4348:C 2.46036e-05
4 *4347:Y 0.000527931
5 *309:14 0.000274232
6 *309:10 0.000622128
7 *4348:C *4381:A 9.60939e-05
8 *4349:A2 *1001:71 2.00751e-05
9 *309:10 *4346:A 1.56e-05
10 *309:10 *4346:B 2.65105e-05
11 *309:10 *4346:C 5.19842e-06
12 *309:10 *988:102 6.05161e-06
13 *309:10 *999:59 3.48705e-05
14 *309:14 *1001:71 4.1331e-06
15 *309:14 *1001:77 5.85498e-05
16 *4349:A1 *4349:A2 0.000181796
17 *4349:B1 *4349:A2 0.00022266
18 *4388:A1 *4349:A2 3.17148e-05
19 *4388:A1 *309:14 0.000168939
20 *307:6 *4348:C 5.33005e-05
21 *307:6 *4349:A2 5.33005e-05
22 *307:21 *4348:C 4.27935e-05
23 *307:21 *4349:A2 9.71197e-05
24 *308:6 *309:10 0.000315158
25 *308:21 *4349:A2 6.8646e-06
26 *308:21 *309:10 0.000167581
*RES
1 *4347:Y *309:10 17.5679 
2 *309:10 *309:14 6.75 
3 *309:14 *4348:C 14.7464 
4 *309:14 *4349:A2 17.9429 
5 *309:10 *4388:A2 9.3 
*END

*D_NET *310 0.00201858
*CONN
*I *4351:A I *D sky130_fd_sc_hd__nand3_1
*I *4352:A1 I *D sky130_fd_sc_hd__a21o_1
*I *4348:X O *D sky130_fd_sc_hd__or3_1
*CAP
1 *4351:A 0.000177438
2 *4352:A1 1.98341e-05
3 *4348:X 0.000445443
4 *310:12 0.000642715
5 *4351:A *4351:B 3.30352e-05
6 *4351:A *4351:C 0.00014285
7 *4351:A *312:10 2.58472e-05
8 *4351:A *313:10 3.69047e-06
9 *4352:A1 *312:10 5.52238e-05
10 *310:12 *4314:A1 0
11 *310:12 *4351:B 5.80706e-06
12 *310:12 *311:12 0.000385509
13 *310:12 *1000:97 2.8266e-06
14 *4349:A1 *310:12 7.83587e-05
15 *308:21 *310:12 0
*RES
1 *4348:X *310:12 27.5679 
2 *310:12 *4352:A1 9.83571 
3 *310:12 *4351:A 13.1571 
*END

*D_NET *311 0.00225497
*CONN
*I *4351:B I *D sky130_fd_sc_hd__nand3_1
*I *4352:A2 I *D sky130_fd_sc_hd__a21o_1
*I *4349:Y O *D sky130_fd_sc_hd__o21ai_1
*CAP
1 *4351:B 0.00031151
2 *4352:A2 0
3 *4349:Y 0.000394884
4 *311:12 0.000706394
5 *4351:B *4314:A1 0
6 *4351:B *4351:C 7.03295e-05
7 *4351:B *312:10 0.000142856
8 *311:12 *4345:A 0
9 *311:12 *1001:71 0
10 *4349:A1 *311:12 7.83587e-05
11 *4349:B1 *311:12 0.000100625
12 *4351:A *4351:B 3.30352e-05
13 *308:21 *311:12 2.56601e-05
14 *310:12 *4351:B 5.80706e-06
15 *310:12 *311:12 0.000385509
*RES
1 *4349:Y *311:12 23.7107 
2 *311:12 *4352:A2 13.8 
3 *311:12 *4351:B 18.3714 
*END

*D_NET *312 0.00174825
*CONN
*I *4351:C I *D sky130_fd_sc_hd__nand3_1
*I *4352:B1 I *D sky130_fd_sc_hd__a21o_1
*I *4350:Y O *D sky130_fd_sc_hd__o21bai_1
*CAP
1 *4351:C 2.5498e-05
2 *4352:B1 0
3 *4350:Y 0.000447452
4 *312:10 0.00047295
5 *4320:C *312:10 0.000188586
6 *4351:A *4351:C 0.00014285
7 *4351:A *312:10 2.58472e-05
8 *4351:B *4351:C 7.03295e-05
9 *4351:B *312:10 0.000142856
10 *4352:A1 *312:10 5.52238e-05
11 *280:12 *312:10 2.14658e-05
12 *282:25 *312:10 1.04232e-05
13 *283:12 *312:10 0.000144773
*RES
1 *4350:Y *312:10 18.4964 
2 *312:10 *4352:B1 9.3 
3 *312:10 *4351:C 10.6571 
*END

*D_NET *313 0.00253276
*CONN
*I *4353:B I *D sky130_fd_sc_hd__nand3_1
*I *4354:A1 I *D sky130_fd_sc_hd__a21o_1
*I *4393:B1_N I *D sky130_fd_sc_hd__a21bo_1
*I *4351:Y O *D sky130_fd_sc_hd__nand3_1
*CAP
1 *4353:B 9.43827e-05
2 *4354:A1 1.73126e-05
3 *4393:B1_N 0
4 *4351:Y 0.000691126
5 *313:27 0.000409759
6 *313:10 0.000989189
7 *4353:B *4353:C 2.32013e-05
8 *313:10 *1006:73 0
9 *313:27 *4354:A2 0
10 *313:27 *1006:73 0
11 *4344:A *313:10 0.000129595
12 *4351:A *313:10 3.69047e-06
13 *4353:A *4353:B 5.47488e-05
14 *4353:A *4354:A1 1.73305e-05
15 *4354:B1 *4354:A1 6.75704e-05
16 *4354:B1 *313:27 3.4855e-05
17 *306:10 *313:10 0
18 *306:10 *313:27 0
19 *306:23 *313:27 0
*RES
1 *4351:Y *313:10 22.3536 
2 *313:10 *4393:B1_N 13.8 
3 *313:10 *313:27 9.875 
4 *313:27 *4354:A1 10.2643 
5 *313:27 *4353:B 11.4964 
*END

*D_NET *314 0.00274239
*CONN
*I *4393:A2 I *D sky130_fd_sc_hd__a21bo_1
*I *4354:A2 I *D sky130_fd_sc_hd__a21o_1
*I *4353:C I *D sky130_fd_sc_hd__nand3_1
*I *4352:X O *D sky130_fd_sc_hd__a21o_1
*CAP
1 *4393:A2 0
2 *4354:A2 6.04065e-05
3 *4353:C 0.000138852
4 *4352:X 0.000880493
5 *314:18 0.00028882
6 *314:14 0.000970055
7 *4354:A2 *1008:55 0
8 *314:14 *4314:A1 0.000125724
9 *314:18 *1008:55 0
10 *4353:A *4353:C 6.49351e-05
11 *4353:B *4353:C 2.32013e-05
12 *306:10 *314:18 1.02504e-05
13 *306:23 *4353:C 0
14 *306:23 *314:18 0.000179656
15 *313:27 *4354:A2 0
*RES
1 *4352:X *314:14 31.5857 
2 *314:14 *314:18 6.75 
3 *314:18 *4353:C 16.3 
4 *314:18 *4354:A2 14.5321 
5 *314:14 *4393:A2 9.3 
*END

*D_NET *315 0.00145458
*CONN
*I *4357:A1 I *D sky130_fd_sc_hd__a21o_1
*I *4356:A I *D sky130_fd_sc_hd__nand3_2
*I *4353:Y O *D sky130_fd_sc_hd__nand3_1
*CAP
1 *4357:A1 0.000308497
2 *4356:A 0
3 *4353:Y 0.00023435
4 *315:10 0.000542848
5 *4357:A1 *4356:B 0.000185643
6 *4357:A1 *4356:C 1.55885e-05
7 *4357:A1 *318:12 5.23057e-05
8 *4357:A1 *318:34 2.5045e-05
9 *315:10 *316:10 0
10 *315:10 *318:12 0
11 *315:10 *320:38 1.19402e-05
12 *315:10 *1008:55 7.83587e-05
*RES
1 *4353:Y *315:10 22.675 
2 *315:10 *4356:A 9.3 
3 *315:10 *4357:A1 13.8536 
*END

*D_NET *316 0.000965302
*CONN
*I *4356:B I *D sky130_fd_sc_hd__nand3_2
*I *4357:A2 I *D sky130_fd_sc_hd__a21o_1
*I *4354:X O *D sky130_fd_sc_hd__a21o_1
*CAP
1 *4356:B 7.00738e-05
2 *4357:A2 0
3 *4354:X 0.000253763
4 *316:10 0.000323837
5 *4356:B *4356:C 4.73269e-05
6 *4356:B *317:8 1.3701e-05
7 *4356:B *318:12 5.33433e-05
8 *316:10 *318:12 1.76135e-05
9 *316:10 *1006:73 0
10 *4357:A1 *4356:B 0.000185643
11 *315:10 *316:10 0
*RES
1 *4354:X *316:10 22.675 
2 *316:10 *4357:A2 9.3 
3 *316:10 *4356:B 11.925 
*END

*D_NET *317 0.00235931
*CONN
*I *4357:B1 I *D sky130_fd_sc_hd__a21o_1
*I *4356:C I *D sky130_fd_sc_hd__nand3_2
*I *4355:X O *D sky130_fd_sc_hd__a21bo_1
*CAP
1 *4357:B1 0
2 *4356:C 0.000125757
3 *4355:X 0.000556478
4 *317:8 0.000682235
5 *317:8 *984:93 7.48301e-06
6 *4316:A *317:8 9.90431e-05
7 *4356:B *4356:C 4.73269e-05
8 *4356:B *317:8 1.3701e-05
9 *4357:A1 *4356:C 1.55885e-05
10 *278:23 *317:8 0.000666687
11 *279:10 *317:8 0.000145009
*RES
1 *4355:X *317:8 20.9429 
2 *317:8 *4356:C 11.925 
3 *317:8 *4357:B1 9.3 
*END

*D_NET *318 0.00283062
*CONN
*I *4399:A1 I *D sky130_fd_sc_hd__a211oi_2
*I *4400:B1 I *D sky130_fd_sc_hd__o211a_1
*I *4358:B I *D sky130_fd_sc_hd__nand3_2
*I *4359:A1 I *D sky130_fd_sc_hd__a21o_1
*I *4356:Y O *D sky130_fd_sc_hd__nand3_2
*CAP
1 *4399:A1 3.2426e-05
2 *4400:B1 9.5335e-05
3 *4358:B 0
4 *4359:A1 0.00013671
5 *4356:Y 0
6 *318:34 0.000481889
7 *318:12 0.000395044
8 *318:4 0.000612462
9 *4359:A1 *4358:C 0.000188467
10 *4359:A1 *319:14 5.71472e-05
11 *4400:B1 *4399:B1 0
12 *4400:B1 *4400:C1 0.0001098
13 *4400:B1 *357:10 0
14 *4400:B1 *361:10 8.15939e-05
15 *318:12 *319:14 0
16 *318:12 *320:38 0
17 *318:34 *320:38 0.000491435
18 *4356:B *318:12 5.33433e-05
19 *4357:A1 *318:12 5.23057e-05
20 *4357:A1 *318:34 2.5045e-05
21 *278:23 *318:12 0
22 *315:10 *318:12 0
23 *316:10 *318:12 1.76135e-05
*RES
1 *4356:Y *318:4 9.3 
2 *318:4 *318:12 13.7321 
3 *318:12 *4359:A1 12.4429 
4 *318:12 *4358:B 9.3 
5 *318:4 *318:34 7.66071 
6 *318:34 *4400:B1 21.1571 
7 *318:34 *4399:A1 9.83571 
*END

*D_NET *319 0.00103855
*CONN
*I *4358:C I *D sky130_fd_sc_hd__nand3_2
*I *4359:A2 I *D sky130_fd_sc_hd__a21o_1
*I *4357:X O *D sky130_fd_sc_hd__a21o_1
*CAP
1 *4358:C 8.10507e-05
2 *4359:A2 0
3 *4357:X 0.000112838
4 *319:14 0.000193889
5 *4358:C *772:38 0.000276211
6 *319:14 *772:38 4.88637e-05
7 *4359:A1 *4358:C 0.000188467
8 *4359:A1 *319:14 5.71472e-05
9 *278:23 *319:14 8.00806e-05
10 *318:12 *319:14 0
*RES
1 *4357:X *319:14 21.0143 
2 *319:14 *4359:A2 9.3 
3 *319:14 *4358:C 12.7464 
*END

*D_NET *320 0.00376905
*CONN
*I *4399:A2 I *D sky130_fd_sc_hd__a211oi_2
*I *4400:C1 I *D sky130_fd_sc_hd__o211a_1
*I *4361:B I *D sky130_fd_sc_hd__nand3_1
*I *4360:A I *D sky130_fd_sc_hd__nand2_1
*I *4358:Y O *D sky130_fd_sc_hd__nand3_2
*CAP
1 *4399:A2 0
2 *4400:C1 0.000103151
3 *4361:B 0.0001137
4 *4360:A 0
5 *4358:Y 3.65713e-05
6 *320:38 0.000804185
7 *320:14 0.000274723
8 *320:6 0.000898629
9 *4361:B *4360:B 9.90431e-05
10 *4361:B *322:12 0.00010096
11 *4361:B *323:20 8.87097e-05
12 *320:6 *772:38 5.71472e-05
13 *320:14 *321:12 0
14 *320:14 *323:20 9.90367e-05
15 *320:38 *772:38 0.000480018
16 *4400:B1 *4400:C1 0.0001098
17 *315:10 *320:38 1.19402e-05
18 *318:12 *320:38 0
19 *318:34 *320:38 0.000491435
*RES
1 *4358:Y *320:6 9.83571 
2 *320:6 *320:14 11.8929 
3 *320:14 *4360:A 9.3 
4 *320:14 *4361:B 12.3179 
5 *320:6 *320:38 21.75 
6 *320:38 *4400:C1 20.8536 
7 *320:38 *4399:A2 9.3 
*END

*D_NET *321 0.000707605
*CONN
*I *4360:B I *D sky130_fd_sc_hd__nand2_1
*I *4361:C I *D sky130_fd_sc_hd__nand3_1
*I *4359:X O *D sky130_fd_sc_hd__a21o_1
*CAP
1 *4360:B 1.64323e-05
2 *4361:C 0
3 *4359:X 0.000178449
4 *321:12 0.000194882
5 *4360:B *323:20 9.90431e-05
6 *321:12 *323:20 1.87955e-05
7 *321:12 *772:38 0.00010096
8 *4361:B *4360:B 9.90431e-05
9 *320:14 *321:12 0
*RES
1 *4359:X *321:12 21.1929 
2 *321:12 *4361:C 9.3 
3 *321:12 *4360:B 10.2464 
*END

*D_NET *322 0.0020171
*CONN
*I *4364:B I *D sky130_fd_sc_hd__or2_1
*I *4362:C I *D sky130_fd_sc_hd__nand3b_1
*I *4363:B I *D sky130_fd_sc_hd__nor2_1
*I *4360:Y O *D sky130_fd_sc_hd__nand2_1
*CAP
1 *4364:B 0.00021032
2 *4362:C 0.00012132
3 *4363:B 0
4 *4360:Y 0.000171032
5 *322:21 0.000565503
6 *322:12 0.000404895
7 *4364:B *323:44 0
8 *322:12 *323:20 0
9 *322:12 *323:44 0
10 *322:21 *325:8 2.89016e-05
11 *4361:B *322:12 0.00010096
12 *4363:A *4362:C 3.67257e-05
13 *4363:A *322:21 0.000157385
14 *4364:A *4364:B 0.000171568
15 *291:32 *4362:C 3.63587e-05
16 *293:41 *4362:C 1.21258e-05
*RES
1 *4360:Y *322:12 20.8893 
2 *322:12 *4363:B 9.3 
3 *322:12 *322:21 5.07143 
4 *322:21 *4362:C 11.4964 
5 *322:21 *4364:B 22.675 
*END

*D_NET *323 0.00487019
*CONN
*I *4365:B I *D sky130_fd_sc_hd__and4_1
*I *4366:A1 I *D sky130_fd_sc_hd__a31o_1
*I *4402:B1 I *D sky130_fd_sc_hd__o21ai_1
*I *4401:A I *D sky130_fd_sc_hd__or3_1
*I *4361:Y O *D sky130_fd_sc_hd__nand3_1
*CAP
1 *4365:B 0.000247011
2 *4366:A1 0
3 *4402:B1 4.74998e-05
4 *4401:A 0.000126057
5 *4361:Y 0
6 *323:44 0.000602588
7 *323:20 0.00116199
8 *323:6 0.00134401
9 *4365:B *4366:A2 1.74352e-05
10 *4365:B *4366:A3 0.000244366
11 *4365:B *4366:B1 9.22103e-06
12 *4401:A *4402:A1 0
13 *4401:A *4402:A2 3.57844e-05
14 *4401:A *360:32 0
15 *4401:A *361:10 5.80706e-06
16 *4401:A *362:10 0.00012401
17 *4401:A *362:21 9.25014e-06
18 *4402:B1 *4402:A2 0.000274294
19 *4402:B1 *4412:A1 5.71472e-05
20 *4402:B1 *4412:A2 5.71472e-05
21 *4402:B1 *363:8 8.76257e-05
22 *323:20 *4402:A2 1.38323e-05
23 *323:20 *4412:B1_N 5.52238e-05
24 *323:20 *363:8 0
25 *323:44 *4366:B1 3.18676e-05
26 *4360:B *323:20 9.90431e-05
27 *4361:A *323:20 1.24368e-05
28 *4361:A *323:44 0
29 *4361:B *323:20 8.87097e-05
30 *4364:A *323:44 0
31 *4364:B *323:44 0
32 *320:14 *323:20 9.90367e-05
33 *321:12 *323:20 1.87955e-05
34 *322:12 *323:20 0
35 *322:12 *323:44 0
*RES
1 *4361:Y *323:6 13.8 
2 *323:6 *323:20 22.5714 
3 *323:20 *4401:A 20.8536 
4 *323:20 *4402:B1 11.8893 
5 *323:6 *323:44 10.6429 
6 *323:44 *4366:A1 9.3 
7 *323:44 *4365:B 13.0321 
*END

*D_NET *324 0.00120304
*CONN
*I *4365:C I *D sky130_fd_sc_hd__and4_1
*I *4366:A2 I *D sky130_fd_sc_hd__a31o_1
*I *4362:Y O *D sky130_fd_sc_hd__nand3b_1
*CAP
1 *4365:C 0
2 *4366:A2 0.000106452
3 *4362:Y 0.000163514
4 *324:12 0.000269966
5 *4366:A2 *4366:A3 0.000137447
6 *4366:A2 *4366:B1 0.000183726
7 *4366:A2 *328:14 1.98839e-05
8 *4366:A2 *824:35 9.71197e-05
9 *324:12 *328:14 3.20153e-05
10 *324:12 *824:10 4.73656e-05
11 *324:12 *824:26 0.000100831
12 *4365:B *4366:A2 1.74352e-05
13 *291:32 *324:12 2.72859e-05
*RES
1 *4362:Y *324:12 21.1929 
2 *324:12 *4366:A2 12.7286 
3 *324:12 *4365:C 9.3 
*END

*D_NET *325 0.0025709
*CONN
*I *4404:A I *D sky130_fd_sc_hd__nand3_1
*I *4412:A1 I *D sky130_fd_sc_hd__a21bo_1
*I *4403:B1 I *D sky130_fd_sc_hd__a21o_1
*I *4363:Y O *D sky130_fd_sc_hd__nor2_1
*CAP
1 *4404:A 0
2 *4412:A1 0.000121756
3 *4403:B1 0
4 *4363:Y 0.000832176
5 *325:19 0.000226821
6 *325:8 0.000937242
7 *4412:A1 *4404:B 3.40128e-05
8 *4412:A1 *362:21 6.75007e-05
9 *4412:A1 *363:21 5.26184e-05
10 *325:8 *4403:A2 1.3701e-05
11 *325:8 *364:10 3.05446e-05
12 *325:19 *4403:A2 3.36983e-05
13 *325:19 *4404:B 0.00013478
14 *4402:B1 *4412:A1 5.71472e-05
15 *322:21 *325:8 2.89016e-05
*RES
1 *4363:Y *325:8 22.5857 
2 *325:8 *4403:B1 9.3 
3 *325:8 *325:19 2.625 
4 *325:19 *4412:A1 21.0857 
5 *325:19 *4404:A 9.3 
*END

*D_NET *326 0.00110878
*CONN
*I *4365:D I *D sky130_fd_sc_hd__and4_1
*I *4366:A3 I *D sky130_fd_sc_hd__a31o_1
*I *4364:X O *D sky130_fd_sc_hd__or2_1
*CAP
1 *4365:D 0
2 *4366:A3 0.000140618
3 *4364:X 0.000109725
4 *326:12 0.000250343
5 *4366:A3 *328:14 1.15172e-05
6 *326:12 *327:12 7.83659e-05
7 *326:12 *369:10 9.71197e-05
8 *326:12 *824:10 3.92757e-05
9 *4365:B *4366:A3 0.000244366
10 *4366:A2 *4366:A3 0.000137447
*RES
1 *4364:X *326:12 20.2821 
2 *326:12 *4366:A3 13.1571 
3 *326:12 *4365:D 9.3 
*END

*D_NET *327 0.00104215
*CONN
*I *4408:B1 I *D sky130_fd_sc_hd__a21o_1
*I *4367:A_N I *D sky130_fd_sc_hd__nand2b_1
*I *4365:X O *D sky130_fd_sc_hd__and4_1
*CAP
1 *4408:B1 0.000159082
2 *4367:A_N 0
3 *4365:X 0.000100828
4 *327:12 0.00025991
5 *4408:B1 *4408:A1 0.000264886
6 *4408:B1 *328:14 1.28809e-05
7 *4408:B1 *369:10 1.98839e-05
8 *327:12 *328:14 0.000129406
9 *327:12 *824:10 1.69115e-05
10 *326:12 *327:12 7.83659e-05
*RES
1 *4365:X *327:12 20.4786 
2 *327:12 *4367:A_N 9.3 
3 *327:12 *4408:B1 13.1571 
*END

*D_NET *328 0.00183784
*CONN
*I *4367:B I *D sky130_fd_sc_hd__nand2b_1
*I *4408:A1 I *D sky130_fd_sc_hd__a21o_1
*I *4366:X O *D sky130_fd_sc_hd__a31o_1
*CAP
1 *4367:B 0
2 *4408:A1 0.000135248
3 *4366:X 0.000385092
4 *328:14 0.000520339
5 *4408:A1 *369:10 0.000186218
6 *328:14 *4366:B1 4.27935e-05
7 *328:14 *369:10 4.44171e-07
8 *328:14 *824:10 0
9 *328:14 *824:35 9.71197e-05
10 *4366:A2 *328:14 1.98839e-05
11 *4366:A3 *328:14 1.15172e-05
12 *4408:B1 *4408:A1 0.000264886
13 *4408:B1 *328:14 1.28809e-05
14 *324:12 *328:14 3.20153e-05
15 *327:12 *328:14 0.000129406
*RES
1 *4366:X *328:14 24.5902 
2 *328:14 *4408:A1 13.2598 
3 *328:14 *4367:B 9.3 
*END

*D_NET *329 0.00113002
*CONN
*I *4369:A I *D sky130_fd_sc_hd__xor2_1
*I *4367:Y O *D sky130_fd_sc_hd__nand2b_1
*CAP
1 *4369:A 0.000287346
2 *4367:Y 0.000287346
3 *4369:A *4370:B 0.000196354
4 *4369:A *824:10 0
5 *4369:A *1009:65 0.000358971
*RES
1 *4367:Y *4369:A 34.4929 
*END

*D_NET *330 0.00164199
*CONN
*I *4369:B I *D sky130_fd_sc_hd__xor2_1
*I *4408:A2 I *D sky130_fd_sc_hd__a21o_1
*I *4368:X O *D sky130_fd_sc_hd__a21o_1
*CAP
1 *4369:B 9.34165e-05
2 *4408:A2 0.000211236
3 *4368:X 0.000516344
4 *330:8 0.000820997
5 *4369:B *4370:B 0
6 *4369:B *776:17 0
7 *4408:A2 *776:17 0
*RES
1 *4368:X *330:8 19.675 
2 *330:8 *4408:A2 17.425 
3 *330:8 *4369:B 15.4429 
*END

*D_NET *331 0.000685702
*CONN
*I *4370:B I *D sky130_fd_sc_hd__nand2_1
*I *4369:X O *D sky130_fd_sc_hd__xor2_1
*CAP
1 *4370:B 0.000240121
2 *4369:X 0.000240121
3 *4370:B *824:10 0
4 *4370:B *844:52 2.83284e-06
5 *4370:B *844:64 6.27272e-06
6 *4370:B *1009:65 0
7 *4369:A *4370:B 0.000196354
8 *4369:B *4370:B 0
*RES
1 *4369:X *4370:B 31.9214 
*END

*D_NET *332 0.000245295
*CONN
*I *4371:C1 I *D sky130_fd_sc_hd__o211a_1
*I *4370:Y O *D sky130_fd_sc_hd__nand2_1
*CAP
1 *4371:C1 4.04733e-05
2 *4370:Y 4.04733e-05
3 *4371:C1 *4370:A 1.05731e-05
4 *4371:C1 *4371:A2 5.57575e-05
5 *4371:C1 *1010:131 9.80173e-05
*RES
1 *4370:Y *4371:C1 19.975 
*END

*D_NET *333 0.00433748
*CONN
*I *4444:A I *D sky130_fd_sc_hd__nand3_1
*I *4443:A I *D sky130_fd_sc_hd__and3_1
*I *4445:B1 I *D sky130_fd_sc_hd__a21o_1
*I *4374:A I *D sky130_fd_sc_hd__nor2_1
*I *4372:X O *D sky130_fd_sc_hd__o211a_1
*CAP
1 *4444:A 6.39138e-05
2 *4443:A 0.000395393
3 *4445:B1 0
4 *4374:A 0
5 *4372:X 0.000312453
6 *333:32 0.000529162
7 *333:23 0.00109469
8 *333:10 0.00133728
9 *4443:A *4442:A1 1.41706e-05
10 *4443:A *4445:A2 2.26973e-05
11 *4443:A *400:10 0
12 *4443:A *400:23 0
13 *4443:A *402:8 5.33433e-05
14 *4443:A *402:27 0
15 *4443:A *849:16 0
16 *4444:A *4445:A1 4.42909e-05
17 *4444:A *4445:A2 5.49656e-06
18 *4444:A *400:23 6.92003e-06
19 *4444:A *404:12 9.90431e-05
20 *333:10 *4374:B 0.000127506
21 *333:10 *353:10 0
22 *333:10 *354:12 4.1331e-06
23 *333:23 *354:12 0.000120544
24 *333:32 *4445:A1 2.51343e-06
25 *333:32 *4445:A2 8.56315e-07
26 *333:32 *404:12 9.90367e-05
27 *4372:A1 *333:10 4.0342e-06
*RES
1 *4372:X *333:10 19.5321 
2 *333:10 *4374:A 13.8 
3 *333:10 *333:23 22.0714 
4 *333:23 *4445:B1 9.3 
5 *333:23 *333:32 1.67857 
6 *333:32 *4443:A 25.1393 
7 *333:32 *4444:A 11.8089 
*END

*D_NET *334 0.000972418
*CONN
*I *4374:B I *D sky130_fd_sc_hd__nor2_1
*I *4373:Y O *D sky130_fd_sc_hd__a211oi_1
*CAP
1 *4374:B 0.000287153
2 *4373:Y 0.000287153
3 *4374:B *4372:B1 0.00014285
4 *4374:B *4372:C1 9.80173e-05
5 *4374:B *335:6 5.30637e-06
6 *4374:B *1008:55 0
7 *4372:A2 *4374:B 2.44318e-05
8 *333:10 *4374:B 0.000127506
*RES
1 *4373:Y *4374:B 34.1714 
*END

*D_NET *335 0.00306469
*CONN
*I *4397:A I *D sky130_fd_sc_hd__nand3_1
*I *4398:B1 I *D sky130_fd_sc_hd__a21oi_1
*I *4396:A I *D sky130_fd_sc_hd__and3_1
*I *4374:Y O *D sky130_fd_sc_hd__nor2_1
*CAP
1 *4397:A 0.000251051
2 *4398:B1 3.41077e-05
3 *4396:A 1.66049e-05
4 *4374:Y 0.00039544
5 *335:12 0.000336035
6 *335:6 0.000931813
7 *4396:A *4396:C 1.1671e-05
8 *4397:A *355:32 3.7213e-05
9 *4397:A *356:8 0.000209198
10 *4397:A *358:10 7.43578e-06
11 *4398:B1 *4396:C 1.98839e-05
12 *335:6 *356:8 0.000446597
13 *335:12 *4398:A1 7.34455e-06
14 *335:12 *352:10 8.07951e-05
15 *335:12 *353:10 4.02462e-05
16 *335:12 *354:12 0
17 *335:12 *355:8 0.000153153
18 *335:12 *356:14 0
19 *335:12 *359:8 8.07951e-05
20 *4374:B *335:6 5.30637e-06
*RES
1 *4374:Y *335:6 14.7643 
2 *335:6 *335:12 15.1964 
3 *335:12 *4396:A 9.54107 
4 *335:12 *4398:B1 9.83571 
5 *335:6 *4397:A 13.5857 
*END

*D_NET *336 0.000566901
*CONN
*I *4380:A I *D sky130_fd_sc_hd__xnor2_1
*I *4375:Y O *D sky130_fd_sc_hd__nand2_1
*CAP
1 *4380:A 7.80772e-05
2 *4375:Y 7.80772e-05
3 *4380:A *4375:A 9.90431e-05
4 *4380:A *341:10 0.00010096
5 *4380:A *373:12 6.78942e-05
6 *4380:A *979:106 0.00014285
7 *4380:A *1006:59 0
*RES
1 *4375:Y *4380:A 21.6179 
*END

*D_NET *337 0.000908923
*CONN
*I *4425:A I *D sky130_fd_sc_hd__xor2_1
*I *4459:A1 I *D sky130_fd_sc_hd__o21ai_1
*I *4376:Y O *D sky130_fd_sc_hd__nand2_1
*CAP
1 *4425:A 9.51579e-05
2 *4459:A1 0
3 *4376:Y 0.000181439
4 *337:8 0.000276597
5 *4425:A *4376:A 1.00375e-05
6 *4425:A *4425:B 0.000116481
7 *4425:A *4459:A2 3.69047e-06
8 *4425:A *384:8 8.15095e-05
9 *4425:A *997:55 8.49707e-05
10 *337:8 *4459:A2 3.80953e-06
11 *337:8 *418:14 5.52302e-05
*RES
1 *4376:Y *337:8 11.8 
2 *337:8 *4459:A1 9.3 
3 *337:8 *4425:A 21.6929 
*END

*D_NET *338 0.00077781
*CONN
*I *4413:B1 I *D sky130_fd_sc_hd__a31o_1
*I *4379:A_N I *D sky130_fd_sc_hd__and2b_1
*I *4377:X O *D sky130_fd_sc_hd__and4_1
*CAP
1 *4413:B1 0
2 *4379:A_N 0.000171386
3 *4377:X 3.62996e-05
4 *338:6 0.000207685
5 *4379:A_N *977:106 9.90431e-05
6 *4379:A_N *1003:73 5.62995e-05
7 *4379:A_N *1006:67 3.17148e-05
8 *338:6 *339:14 7.32173e-05
9 *338:6 *350:14 4.88637e-05
10 *338:6 *1006:67 5.33005e-05
*RES
1 *4377:X *338:6 10.6571 
2 *338:6 *4379:A_N 21.4964 
3 *338:6 *4413:B1 9.3 
*END

*D_NET *339 0.00180523
*CONN
*I *4379:B I *D sky130_fd_sc_hd__and2b_1
*I *4413:A3 I *D sky130_fd_sc_hd__a31o_1
*I *4378:X O *D sky130_fd_sc_hd__a22o_1
*CAP
1 *4379:B 0.000137903
2 *4413:A3 0
3 *4378:X 0.000287141
4 *339:14 0.000425043
5 *4379:B *4413:A1 0
6 *4379:B *979:106 4.58976e-05
7 *4379:B *1006:59 9.90367e-05
8 *4379:B *1006:67 0
9 *4379:B *1008:14 0.000168217
10 *339:14 *4377:A 3.34295e-05
11 *339:14 *4377:C 0.000180777
12 *339:14 *4378:B1 0.000119135
13 *339:14 *350:14 2.07491e-05
14 *339:14 *792:33 3.5707e-05
15 *339:14 *979:106 9.90431e-05
16 *339:14 *984:59 2.37761e-05
17 *339:14 *1006:59 2.8428e-05
18 *339:14 *1006:67 2.77289e-05
19 *338:6 *339:14 7.32173e-05
*RES
1 *4378:X *339:14 25.5321 
2 *339:14 *4413:A3 9.3 
3 *339:14 *4379:B 21.4964 
*END

*D_NET *340 0.000799563
*CONN
*I *4380:B I *D sky130_fd_sc_hd__xnor2_1
*I *4379:X O *D sky130_fd_sc_hd__and2b_1
*CAP
1 *4380:B 0.000110717
2 *4379:X 0.000110717
3 *4380:B *373:12 0.00022459
4 *4380:B *977:117 6.09476e-05
5 *4380:B *979:106 3.30352e-05
6 *4380:B *1006:59 0.000137983
7 *4380:B *1008:14 0.000121573
*RES
1 *4379:X *4380:B 31.4214 
*END

*D_NET *341 0.00238164
*CONN
*I *4391:A I *D sky130_fd_sc_hd__nand3_1
*I *4392:B1 I *D sky130_fd_sc_hd__a21o_1
*I *4434:A1 I *D sky130_fd_sc_hd__a21bo_1
*I *4380:Y O *D sky130_fd_sc_hd__xnor2_1
*CAP
1 *4391:A 2.07753e-05
2 *4392:B1 0
3 *4434:A1 0
4 *4380:Y 0.000528337
5 *341:23 0.000259381
6 *341:10 0.000766943
7 *4391:A *4391:B 5.71472e-05
8 *4391:A *4391:C 0.000111909
9 *4391:A *4392:A1 3.9846e-05
10 *341:10 *350:14 2.56694e-05
11 *341:10 *350:27 2.00751e-05
12 *341:10 *351:20 0
13 *341:10 *373:12 0.000211053
14 *341:10 *394:8 2.56694e-05
15 *341:23 *4391:C 5.52302e-05
16 *341:23 *4392:A1 2.89114e-05
17 *341:23 *350:27 0.000129736
18 *341:23 *351:35 0
19 *4380:A *341:10 0.00010096
*RES
1 *4380:Y *341:10 21.7286 
2 *341:10 *4434:A1 13.8 
3 *341:10 *341:23 10.0179 
4 *341:23 *4392:B1 9.3 
5 *341:23 *4391:A 10.6571 
*END

*D_NET *342 0.00309129
*CONN
*I *4387:B1 I *D sky130_fd_sc_hd__o21ai_1
*I *4386:A I *D sky130_fd_sc_hd__or3_1
*I *4385:A I *D sky130_fd_sc_hd__nor3_1
*I *4381:Y O *D sky130_fd_sc_hd__nand2_1
*CAP
1 *4387:B1 5.62738e-05
2 *4386:A 0.000140859
3 *4385:A 0.000135946
4 *4381:Y 0.000355312
5 *342:17 0.000197132
6 *342:6 0.000491258
7 *4385:A *4387:A1 9.80173e-05
8 *4385:A *344:22 4.43256e-05
9 *4385:A *345:17 0.000230475
10 *4386:A *4386:C 0.000201293
11 *4386:A *4387:A2 2.61337e-05
12 *4386:A *390:12 0.000139907
13 *4386:A *857:12 2.44318e-05
14 *4386:A *999:42 0.00022117
15 *4386:A *999:59 2.24646e-05
16 *4387:B1 *4387:A2 5.97623e-05
17 *4387:B1 *999:59 0.000150618
18 *342:6 *4381:B 0.000487473
19 *342:6 *344:22 8.43535e-06
20 *199:10 *4387:B1 0
*RES
1 *4381:Y *342:6 14.3536 
2 *342:6 *4385:A 12.7286 
3 *342:6 *342:17 4.5 
4 *342:17 *4386:A 18.3179 
5 *342:17 *4387:B1 15.7464 
*END

*D_NET *343 0.00157674
*CONN
*I *4429:B1 I *D sky130_fd_sc_hd__o21ai_1
*I *4428:A I *D sky130_fd_sc_hd__or3_4
*I *4477:A1 I *D sky130_fd_sc_hd__o21bai_1
*I *4382:Y O *D sky130_fd_sc_hd__nand2_1
*CAP
1 *4429:B1 4.61125e-05
2 *4428:A 1.73466e-05
3 *4477:A1 0.000132007
4 *4382:Y 0
5 *343:21 0.000193317
6 *343:4 0.000261864
7 *4428:A *4428:C 3.99614e-06
8 *4429:B1 *4429:A1 0.000259934
9 *4429:B1 *4429:A2 0.000149489
10 *4477:A1 *4919:A 1.65169e-05
11 *4477:A1 *4920:A 2.23987e-05
12 *4477:A1 *386:12 1.02504e-05
13 *4477:A1 *988:55 0.000100823
14 *4477:A1 *995:68 0.000152333
15 *343:21 *4382:B 1.21258e-05
16 *343:21 *4428:C 5.33334e-05
17 *343:21 *4429:A1 9.60939e-05
18 *343:21 *4429:A2 2.28598e-05
19 *343:21 *4919:A 6.05161e-06
20 *343:21 *781:33 1.98839e-05
*RES
1 *4382:Y *343:4 9.3 
2 *343:4 *4477:A1 21.1929 
3 *343:4 *343:21 2.91071 
4 *343:21 *4428:A 9.72857 
5 *343:21 *4429:B1 11.8893 
*END

*D_NET *344 0.00161216
*CONN
*I *5114:A I *D sky130_fd_sc_hd__dlymetal6s2s_1
*I *4386:B I *D sky130_fd_sc_hd__or3_1
*I *5115:A I *D sky130_fd_sc_hd__dlygate4sd1_1
*I *4385:B I *D sky130_fd_sc_hd__nor3_1
*I *4383:X O *D sky130_fd_sc_hd__and4_1
*CAP
1 *5114:A 0
2 *4386:B 4.65372e-05
3 *5115:A 0
4 *4385:B 0
5 *4383:X 0.000126071
6 *344:22 0.000209364
7 *344:15 0.000252521
8 *344:6 0.000215765
9 *4386:B *857:12 4.57445e-05
10 *4386:B *999:42 0.000128154
11 *344:6 *345:8 0.000229456
12 *344:6 *345:17 2.44318e-05
13 *344:15 *345:8 0
14 *344:15 *345:17 6.87574e-05
15 *344:22 *4381:B 2.59355e-05
16 *344:22 *345:17 0.000186662
17 *4385:A *344:22 4.43256e-05
18 *342:6 *344:22 8.43535e-06
*RES
1 *4383:X *344:6 11.8893 
2 *344:6 *4385:B 9.3 
3 *344:6 *344:15 1.78571 
4 *344:15 *5115:A 9.3 
5 *344:15 *344:22 3.41071 
6 *344:22 *4386:B 19.9429 
7 *344:22 *5114:A 9.3 
*END

*D_NET *345 0.00326705
*CONN
*I *4387:A2 I *D sky130_fd_sc_hd__o21ai_1
*I *4386:C I *D sky130_fd_sc_hd__or3_1
*I *4385:C I *D sky130_fd_sc_hd__nor3_1
*I *4384:Y O *D sky130_fd_sc_hd__a22oi_2
*CAP
1 *4387:A2 7.55468e-05
2 *4386:C 0.00016599
3 *4385:C 0
4 *4384:Y 0.000283468
5 *345:17 0.000332318
6 *345:8 0.000374249
7 *4386:C *390:12 4.59075e-05
8 *4386:C *857:12 0.000185643
9 *4386:C *999:42 7.80714e-06
10 *4387:A2 *4387:A1 0.000125724
11 *345:8 *4383:A 0.000263524
12 *345:8 *4383:C 0.000265447
13 *345:8 *4384:B2 1.54142e-05
14 *345:8 *859:16 5.52302e-05
15 *345:8 *859:29 4.38128e-05
16 *4385:A *345:17 0.000230475
17 *4386:A *4386:C 0.000201293
18 *4386:A *4387:A2 2.61337e-05
19 *4387:B1 *4387:A2 5.97623e-05
20 *199:10 *4386:C 0
21 *199:10 *4387:A2 0
22 *344:6 *345:8 0.000229456
23 *344:6 *345:17 2.44318e-05
24 *344:15 *345:8 0
25 *344:15 *345:17 6.87574e-05
26 *344:22 *345:17 0.000186662
*RES
1 *4384:Y *345:8 16.8357 
2 *345:8 *4385:C 9.3 
3 *345:8 *345:17 7.91071 
4 *345:17 *4386:C 18.425 
5 *345:17 *4387:A2 16.05 
*END

*D_NET *346 0.000611666
*CONN
*I *4430:A2 I *D sky130_fd_sc_hd__o211ai_2
*I *4431:C1 I *D sky130_fd_sc_hd__a211o_1
*I *4385:Y O *D sky130_fd_sc_hd__nor3_1
*CAP
1 *4430:A2 0
2 *4431:C1 8.6041e-05
3 *4385:Y 5.42619e-05
4 *346:8 0.000140303
5 *4431:C1 *4430:C1 9.24395e-05
6 *4431:C1 *389:10 4.46186e-06
7 *346:8 *4430:C1 2.58997e-05
8 *346:8 *865:10 3.28897e-05
9 *199:10 *4431:C1 9.1469e-05
10 *199:10 *346:8 8.39e-05
*RES
1 *4385:Y *346:8 15.7464 
2 *346:8 *4431:C1 16.05 
3 *346:8 *4430:A2 13.8 
*END

*D_NET *347 0.0018892
*CONN
*I *4390:A1 I *D sky130_fd_sc_hd__a21o_1
*I *4389:A I *D sky130_fd_sc_hd__nand3_1
*I *4386:X O *D sky130_fd_sc_hd__or3_1
*CAP
1 *4390:A1 0
2 *4389:A 0.000185513
3 *4386:X 0.000399803
4 *347:12 0.000585316
5 *4389:A *4389:B 0.000100961
6 *4389:A *4389:C 0.000129515
7 *4389:A *349:12 5.71472e-05
8 *4389:A *350:14 7.43578e-06
9 *4389:A *1001:77 2.44318e-05
10 *347:12 *4381:A 0
11 *347:12 *348:12 0.000153047
12 *347:12 *349:12 1.02504e-05
13 *347:12 *351:18 0
14 *347:12 *390:12 9.90431e-05
15 *347:12 *997:55 0.000136735
16 *347:12 *999:59 0
17 *347:12 *1000:97 0
*RES
1 *4386:X *347:12 26.05 
2 *347:12 *4389:A 13.6929 
3 *347:12 *4390:A1 9.3 
*END

*D_NET *348 0.00199967
*CONN
*I *4389:B I *D sky130_fd_sc_hd__nand3_1
*I *4390:A2 I *D sky130_fd_sc_hd__a21o_1
*I *4387:Y O *D sky130_fd_sc_hd__o21ai_1
*CAP
1 *4389:B 0.000103742
2 *4390:A2 0
3 *4387:Y 0.000312103
4 *348:12 0.000415845
5 *4389:B *4389:C 0.00014285
6 *4389:B *349:12 5.52302e-05
7 *4389:B *1001:77 0.000355002
8 *348:12 *977:106 0.000360894
9 *348:12 *999:59 0
10 *4389:A *4389:B 0.000100961
11 *347:12 *348:12 0.000153047
*RES
1 *4387:Y *348:12 23.6571 
2 *348:12 *4390:A2 9.3 
3 *348:12 *4389:B 13.1393 
*END

*D_NET *349 0.000951453
*CONN
*I *4389:C I *D sky130_fd_sc_hd__nand3_1
*I *4390:B1 I *D sky130_fd_sc_hd__a21o_1
*I *4388:Y O *D sky130_fd_sc_hd__o21bai_1
*CAP
1 *4389:C 2.05417e-05
2 *4390:B1 0
3 *4388:Y 0.000208996
4 *349:12 0.000229538
5 *349:12 *4381:A 0
6 *349:12 *999:59 0
7 *349:12 *1001:77 9.73841e-05
8 *4389:A *4389:C 0.000129515
9 *4389:A *349:12 5.71472e-05
10 *4389:B *4389:C 0.00014285
11 *4389:B *349:12 5.52302e-05
12 *347:12 *349:12 1.02504e-05
*RES
1 *4388:Y *349:12 22.9071 
2 *349:12 *4390:B1 9.3 
3 *349:12 *4389:C 10.6571 
*END

*D_NET *350 0.00635387
*CONN
*I *4391:B I *D sky130_fd_sc_hd__nand3_1
*I *4392:A1 I *D sky130_fd_sc_hd__a21o_1
*I *4434:B1_N I *D sky130_fd_sc_hd__a21bo_1
*I *4389:Y O *D sky130_fd_sc_hd__nand3_1
*CAP
1 *4391:B 6.25442e-05
2 *4392:A1 0.000132572
3 *4434:B1_N 5.05799e-05
4 *4389:Y 0.00165902
5 *350:27 0.000410264
6 *350:14 0.00192475
7 *4391:B *4391:C 2.44318e-05
8 *4392:A1 *4391:C 1.55885e-05
9 *350:14 *4314:A1 1.74352e-05
10 *350:14 *4378:B1 0.000396898
11 *350:14 *373:12 0.00101799
12 *350:14 *379:12 0
13 *350:14 *394:8 0
14 *350:14 *1001:77 5.7256e-05
15 *350:14 *1006:59 6.42778e-05
16 *350:14 *1006:67 0.00014183
17 *4389:A *350:14 7.43578e-06
18 *4391:A *4391:B 5.71472e-05
19 *4391:A *4392:A1 3.9846e-05
20 *338:6 *350:14 4.88637e-05
21 *339:14 *350:14 2.07491e-05
22 *341:10 *350:14 2.56694e-05
23 *341:10 *350:27 2.00751e-05
24 *341:23 *4392:A1 2.89114e-05
25 *341:23 *350:27 0.000129736
*RES
1 *4389:Y *350:14 39.6214 
2 *350:14 *4434:B1_N 14.3357 
3 *350:14 *350:27 9.48214 
4 *350:27 *4392:A1 11.0679 
5 *350:27 *4391:B 10.675 
*END

*D_NET *351 0.00702247
*CONN
*I *4391:C I *D sky130_fd_sc_hd__nand3_1
*I *4392:A2 I *D sky130_fd_sc_hd__a21o_1
*I *4434:A2 I *D sky130_fd_sc_hd__a21bo_1
*I *4390:X O *D sky130_fd_sc_hd__a21o_1
*CAP
1 *4391:C 0.000251215
2 *4392:A2 0
3 *4434:A2 9.00239e-05
4 *4390:X 0.00138524
5 *351:35 0.000581152
6 *351:20 0.000615098
7 *351:18 0.00158037
8 *351:18 *4381:A 7.83659e-05
9 *351:18 *4435:B 0.000188586
10 *351:18 *393:14 0.000348384
11 *351:18 *977:106 0.00140659
12 *351:20 *4375:B 0
13 *351:20 *4436:B1 9.25014e-06
14 *351:20 *394:8 0.000281036
15 *351:35 *4375:B 0
16 *4391:A *4391:C 0.000111909
17 *4391:B *4391:C 2.44318e-05
18 *4392:A1 *4391:C 1.55885e-05
19 *341:10 *351:20 0
20 *341:23 *4391:C 5.52302e-05
21 *341:23 *351:35 0
22 *347:12 *351:18 0
*RES
1 *4390:X *351:18 45.8714 
2 *351:18 *351:20 4.375 
3 *351:20 *4434:A2 15.1571 
4 *351:20 *351:35 10.4286 
5 *351:35 *4392:A2 9.3 
6 *351:35 *4391:C 15.0857 
*END

*D_NET *352 0.0017163
*CONN
*I *4394:A I *D sky130_fd_sc_hd__nand3_2
*I *4395:A1 I *D sky130_fd_sc_hd__a21o_1
*I *4391:Y O *D sky130_fd_sc_hd__nand3_1
*CAP
1 *4394:A 2.6588e-05
2 *4395:A1 0.000247246
3 *4391:Y 0.000292628
4 *352:10 0.000566462
5 *4394:A *355:32 5.71472e-05
6 *4394:A *356:8 5.33433e-05
7 *4395:A1 *4394:B 2.28598e-05
8 *4395:A1 *4394:C 1.74352e-05
9 *4395:A1 *4395:A2 0.000158474
10 *4395:A1 *355:32 0
11 *4395:A1 *356:8 1.97376e-05
12 *352:10 *353:10 0.000170761
13 *352:10 *355:40 0
14 *352:10 *356:14 2.8266e-06
15 *335:12 *352:10 8.07951e-05
*RES
1 *4391:Y *352:10 25.1036 
2 *352:10 *4395:A1 13.0321 
3 *352:10 *4394:A 10.2464 
*END

*D_NET *353 0.00133824
*CONN
*I *4394:B I *D sky130_fd_sc_hd__nand3_2
*I *4395:A2 I *D sky130_fd_sc_hd__a21o_1
*I *4392:X O *D sky130_fd_sc_hd__a21o_1
*CAP
1 *4394:B 1.46617e-05
2 *4395:A2 4.31603e-05
3 *4392:X 0.000360788
4 *353:10 0.00041861
5 *4394:B *356:8 2.89114e-05
6 *4395:A2 *4394:C 5.2053e-05
7 *4395:A2 *356:8 2.77173e-05
8 *353:10 *354:12 0
9 *4395:A1 *4394:B 2.28598e-05
10 *4395:A1 *4395:A2 0.000158474
11 *333:10 *353:10 0
12 *335:12 *353:10 4.02462e-05
13 *352:10 *353:10 0.000170761
*RES
1 *4392:X *353:10 25.7107 
2 *353:10 *4395:A2 11.5143 
3 *353:10 *4394:B 9.83571 
*END

*D_NET *354 0.00184406
*CONN
*I *4395:B1 I *D sky130_fd_sc_hd__a21o_1
*I *4394:C I *D sky130_fd_sc_hd__nand3_2
*I *4393:X O *D sky130_fd_sc_hd__a21bo_1
*CAP
1 *4395:B1 0
2 *4394:C 7.27551e-05
3 *4393:X 0.000657899
4 *354:12 0.000730654
5 *4394:C *356:8 0.000188586
6 *4395:A1 *4394:C 1.74352e-05
7 *4395:A2 *4394:C 5.2053e-05
8 *333:10 *354:12 4.1331e-06
9 *333:23 *354:12 0.000120544
10 *335:12 *354:12 0
11 *353:10 *354:12 0
*RES
1 *4393:X *354:12 26.6393 
2 *354:12 *4394:C 11.925 
3 *354:12 *4395:B1 9.3 
*END

*D_NET *355 0.00296853
*CONN
*I *4397:B I *D sky130_fd_sc_hd__nand3_1
*I *4442:B1 I *D sky130_fd_sc_hd__o211ai_2
*I *4440:A1 I *D sky130_fd_sc_hd__a211o_1
*I *4398:A1 I *D sky130_fd_sc_hd__a21oi_1
*I *4396:B I *D sky130_fd_sc_hd__and3_1
*I *4394:Y O *D sky130_fd_sc_hd__nand3_2
*CAP
1 *4397:B 0
2 *4442:B1 0
3 *4440:A1 6.17841e-05
4 *4398:A1 5.35828e-05
5 *4396:B 0.00013333
6 *4394:Y 0
7 *355:40 0.000618479
8 *355:32 0.000668631
9 *355:8 0.00031493
10 *355:4 0.000239954
11 *4396:B *4396:C 9.7659e-05
12 *4398:A1 *4396:C 5.52302e-05
13 *4398:A1 *356:14 4.02462e-05
14 *4398:A1 *359:8 5.7616e-05
15 *4440:A1 *4440:A2 9.34004e-05
16 *4440:A1 *4442:A2 8.98897e-05
17 *4440:A1 *399:10 5.80706e-06
18 *355:8 *356:14 0.000154124
19 *355:32 *356:8 2.32013e-05
20 *355:40 *356:14 5.80706e-06
21 *4394:A *355:32 5.71472e-05
22 *4395:A1 *355:32 0
23 *4397:A *355:32 3.7213e-05
24 *335:12 *4398:A1 7.34455e-06
25 *335:12 *355:8 0.000153153
26 *352:10 *355:40 0
*RES
1 *4394:Y *355:4 9.3 
2 *355:4 *355:8 8.26786 
3 *355:8 *4396:B 15.5679 
4 *355:8 *4398:A1 15.3714 
5 *355:4 *355:32 2.19643 
6 *355:32 *355:40 17.3214 
7 *355:40 *4440:A1 20.55 
8 *355:40 *4442:B1 9.3 
9 *355:32 *4397:B 9.3 
*END

*D_NET *356 0.00253126
*CONN
*I *4397:C I *D sky130_fd_sc_hd__nand3_1
*I *4398:A2 I *D sky130_fd_sc_hd__a21oi_1
*I *4396:C I *D sky130_fd_sc_hd__and3_1
*I *4395:X O *D sky130_fd_sc_hd__a21o_1
*CAP
1 *4397:C 0
2 *4398:A2 0
3 *4396:C 0.000176334
4 *4395:X 0.000157048
5 *356:14 0.000411087
6 *356:8 0.000391801
7 *356:14 *360:14 1.02504e-05
8 *4394:A *356:8 5.33433e-05
9 *4394:B *356:8 2.89114e-05
10 *4394:C *356:8 0.000188586
11 *4395:A1 *356:8 1.97376e-05
12 *4395:A2 *356:8 2.77173e-05
13 *4396:A *4396:C 1.1671e-05
14 *4396:B *4396:C 9.7659e-05
15 *4397:A *356:8 0.000209198
16 *4398:A1 *4396:C 5.52302e-05
17 *4398:A1 *356:14 4.02462e-05
18 *4398:B1 *4396:C 1.98839e-05
19 *335:6 *356:8 0.000446597
20 *335:12 *356:14 0
21 *352:10 *356:14 2.8266e-06
22 *355:8 *356:14 0.000154124
23 *355:32 *356:8 2.32013e-05
24 *355:40 *356:14 5.80706e-06
*RES
1 *4395:X *356:8 15.9071 
2 *356:8 *356:14 13.9821 
3 *356:14 *4396:C 13.2464 
4 *356:14 *4398:A2 9.3 
5 *356:8 *4397:C 9.3 
*END

*D_NET *357 0.000792294
*CONN
*I *4399:B1 I *D sky130_fd_sc_hd__a211oi_2
*I *4400:A1 I *D sky130_fd_sc_hd__o211a_1
*I *4396:X O *D sky130_fd_sc_hd__and3_1
*CAP
1 *4399:B1 0.000128012
2 *4400:A1 2.22238e-05
3 *4396:X 0.000137239
4 *357:10 0.000287474
5 *4399:B1 *4399:C1 0
6 *4399:B1 *360:32 0
7 *4399:B1 *361:10 8.15939e-05
8 *4400:A1 *4400:A2 9.90367e-05
9 *4400:A1 *361:10 3.67142e-05
10 *357:10 *359:8 0
11 *4400:B1 *4399:B1 0
12 *4400:B1 *357:10 0
*RES
1 *4396:X *357:10 15.9786 
2 *357:10 *4400:A1 14.7464 
3 *357:10 *4399:B1 16.6571 
*END

*D_NET *358 0.00135645
*CONN
*I *4442:C1 I *D sky130_fd_sc_hd__o211ai_2
*I *4440:A2 I *D sky130_fd_sc_hd__a211o_1
*I *4397:Y O *D sky130_fd_sc_hd__nand3_1
*CAP
1 *4442:C1 0
2 *4440:A2 0.000152466
3 *4397:Y 0.000446766
4 *358:10 0.000599233
5 *4440:A2 *400:6 5.71472e-05
6 *4397:A *358:10 7.43578e-06
7 *4440:A1 *4440:A2 9.34004e-05
*RES
1 *4397:Y *358:10 19.3714 
2 *358:10 *4440:A2 17.1929 
3 *358:10 *4442:C1 13.8 
*END

*D_NET *359 0.00134395
*CONN
*I *4399:C1 I *D sky130_fd_sc_hd__a211oi_2
*I *4400:A2 I *D sky130_fd_sc_hd__o211a_1
*I *4398:Y O *D sky130_fd_sc_hd__a21oi_1
*CAP
1 *4399:C1 0.000192826
2 *4400:A2 0.0002049
3 *4398:Y 0.000122147
4 *359:8 0.000519873
5 *4399:C1 *360:8 5.52238e-05
6 *4399:C1 *360:14 0
7 *4400:A2 *361:10 1.15281e-05
8 *359:8 *360:14 0
9 *4398:A1 *359:8 5.7616e-05
10 *4399:B1 *4399:C1 0
11 *4400:A1 *4400:A2 9.90367e-05
12 *335:12 *359:8 8.07951e-05
13 *357:10 *359:8 0
*RES
1 *4398:Y *359:8 16.3536 
2 *359:8 *4400:A2 17.2286 
3 *359:8 *4399:C1 17.1929 
*END

*D_NET *360 0.00383184
*CONN
*I *4402:A1 I *D sky130_fd_sc_hd__o21ai_1
*I *4401:B I *D sky130_fd_sc_hd__or3_1
*I *4447:B1 I *D sky130_fd_sc_hd__a21o_1
*I *4446:A I *D sky130_fd_sc_hd__nand3_1
*I *4399:Y O *D sky130_fd_sc_hd__a211oi_2
*CAP
1 *4402:A1 0.000174044
2 *4401:B 0.000180555
3 *4447:B1 0
4 *4446:A 0.000135416
5 *4399:Y 0.000169727
6 *360:32 0.000550394
7 *360:14 0.000788034
8 *360:8 0.00101814
9 *4401:B *362:10 0.00014183
10 *4401:B *772:32 0.000455103
11 *4402:A1 *4402:A2 6.05161e-06
12 *4402:A1 *4448:A 0
13 *4402:A1 *372:6 1.56e-05
14 *4402:A1 *412:18 0
15 *4446:A *4446:C 7.464e-05
16 *4446:A *4447:A1 5.68343e-05
17 *360:32 *4448:A 0
18 *360:32 *361:10 0
19 *4399:B1 *360:32 0
20 *4399:C1 *360:8 5.52238e-05
21 *4399:C1 *360:14 0
22 *4401:A *4402:A1 0
23 *4401:A *360:32 0
24 *356:14 *360:14 1.02504e-05
25 *359:8 *360:14 0
*RES
1 *4399:Y *360:8 16.3893 
2 *360:8 *360:14 15.5714 
3 *360:14 *4446:A 12.5321 
4 *360:14 *4447:B1 9.3 
5 *360:8 *360:32 3.46429 
6 *360:32 *4401:B 18.4607 
7 *360:32 *4402:A1 16.5857 
*END

*D_NET *361 0.00203431
*CONN
*I *4402:A2 I *D sky130_fd_sc_hd__o21ai_1
*I *4401:C I *D sky130_fd_sc_hd__or3_1
*I *4400:X O *D sky130_fd_sc_hd__o211a_1
*CAP
1 *4402:A2 0.000329805
2 *4401:C 0
3 *4400:X 0.000274675
4 *361:10 0.000604479
5 *4402:A2 *4412:B1_N 5.52238e-05
6 *4402:A2 *362:10 8.00806e-05
7 *4402:A2 *372:6 0.00014285
8 *4399:B1 *361:10 8.15939e-05
9 *4400:A1 *361:10 3.67142e-05
10 *4400:A2 *361:10 1.15281e-05
11 *4400:B1 *361:10 8.15939e-05
12 *4401:A *4402:A2 3.57844e-05
13 *4401:A *361:10 5.80706e-06
14 *4402:A1 *4402:A2 6.05161e-06
15 *4402:B1 *4402:A2 0.000274294
16 *323:20 *4402:A2 1.38323e-05
17 *360:32 *361:10 0
*RES
1 *4400:X *361:10 19.2286 
2 *361:10 *4401:C 13.8 
3 *361:10 *4402:A2 20.4071 
*END

*D_NET *362 0.00165551
*CONN
*I *4404:B I *D sky130_fd_sc_hd__nand3_1
*I *4403:A1 I *D sky130_fd_sc_hd__a21o_1
*I *4412:B1_N I *D sky130_fd_sc_hd__a21bo_1
*I *4401:X O *D sky130_fd_sc_hd__or3_1
*CAP
1 *4404:B 0.000198293
2 *4403:A1 0
3 *4412:B1_N 1.1624e-05
4 *4401:X 0.000165695
5 *362:21 0.000293718
6 *362:10 0.000272744
7 *4404:B *4403:A2 1.15281e-05
8 *4401:A *362:10 0.00012401
9 *4401:A *362:21 9.25014e-06
10 *4401:B *362:10 0.00014183
11 *4402:A2 *4412:B1_N 5.52238e-05
12 *4402:A2 *362:10 8.00806e-05
13 *4412:A1 *4404:B 3.40128e-05
14 *4412:A1 *362:21 6.75007e-05
15 *323:20 *4412:B1_N 5.52238e-05
16 *325:19 *4404:B 0.00013478
*RES
1 *4401:X *362:10 16.8 
2 *362:10 *4412:B1_N 14.3357 
3 *362:10 *362:21 1.94643 
4 *362:21 *4403:A1 13.8 
5 *362:21 *4404:B 17.2286 
*END

*D_NET *363 0.00103166
*CONN
*I *4404:C I *D sky130_fd_sc_hd__nand3_1
*I *4403:A2 I *D sky130_fd_sc_hd__a21o_1
*I *4412:A2 I *D sky130_fd_sc_hd__a21bo_1
*I *4402:Y O *D sky130_fd_sc_hd__o21ai_1
*CAP
1 *4404:C 0
2 *4403:A2 0.000193095
3 *4412:A2 2.25583e-05
4 *4402:Y 5.9559e-05
5 *363:21 0.000305554
6 *363:8 0.000194576
7 *4402:B1 *4412:A2 5.71472e-05
8 *4402:B1 *363:8 8.76257e-05
9 *4404:B *4403:A2 1.15281e-05
10 *4412:A1 *363:21 5.26184e-05
11 *323:20 *363:8 0
12 *325:8 *4403:A2 1.3701e-05
13 *325:19 *4403:A2 3.36983e-05
*RES
1 *4402:Y *363:8 10.675 
2 *363:8 *4412:A2 9.83571 
3 *363:8 *363:21 10.9464 
4 *363:21 *4403:A2 12.2286 
5 *363:21 *4404:C 9.3 
*END

*D_NET *364 0.00119002
*CONN
*I *4405:B I *D sky130_fd_sc_hd__and3_1
*I *4406:A1 I *D sky130_fd_sc_hd__a21o_1
*I *4403:X O *D sky130_fd_sc_hd__a21o_1
*CAP
1 *4405:B 0.000207593
2 *4406:A1 0
3 *4403:X 0.000277396
4 *364:10 0.000484989
5 *4405:B *4405:A 4.88637e-05
6 *4405:B *365:12 0
7 *4405:B *366:8 9.90431e-05
8 *4405:B *825:25 4.15914e-05
9 *364:10 *365:12 0
10 *364:10 *412:18 0
11 *325:8 *364:10 3.05446e-05
*RES
1 *4403:X *364:10 18.2107 
2 *364:10 *4406:A1 13.8 
3 *364:10 *4405:B 17.2107 
*END

*D_NET *365 0.00119336
*CONN
*I *4405:C I *D sky130_fd_sc_hd__and3_1
*I *4406:A2 I *D sky130_fd_sc_hd__a21o_1
*I *4404:Y O *D sky130_fd_sc_hd__nand3_1
*CAP
1 *4405:C 0
2 *4406:A2 0.000125832
3 *4404:Y 0.000410314
4 *365:12 0.000536146
5 *4406:A2 *4405:A 5.8576e-05
6 *4406:A2 *4407:A_N 0
7 *365:12 *4405:A 4.3209e-05
8 *365:12 *4915:CLK 1.92789e-05
9 *4405:B *365:12 0
10 *364:10 *365:12 0
*RES
1 *4404:Y *365:12 24.425 
2 *365:12 *4406:A2 11.3179 
3 *365:12 *4405:C 9.3 
*END

*D_NET *366 0.00141294
*CONN
*I *4407:A_N I *D sky130_fd_sc_hd__and2b_1
*I *4452:B1 I *D sky130_fd_sc_hd__a21oi_2
*I *4405:X O *D sky130_fd_sc_hd__and3_1
*CAP
1 *4407:A_N 0.000209581
2 *4452:B1 0
3 *4405:X 0.000136319
4 *366:8 0.0003459
5 *4407:A_N *4405:A 3.57366e-05
6 *4407:A_N *4407:B 6.9276e-05
7 *4407:A_N *4452:A2 5.71472e-05
8 *4407:A_N *367:6 0.000276211
9 *366:8 *4405:A 0.000183726
10 *366:8 *4407:B 0
11 *4405:B *366:8 9.90431e-05
12 *4406:A2 *4407:A_N 0
*RES
1 *4405:X *366:8 12.7286 
2 *366:8 *4452:B1 9.3 
3 *366:8 *4407:A_N 14.8 
*END

*D_NET *367 0.000883041
*CONN
*I *4452:A1 I *D sky130_fd_sc_hd__a21oi_2
*I *4407:B I *D sky130_fd_sc_hd__and2b_1
*I *4406:X O *D sky130_fd_sc_hd__a21o_1
*CAP
1 *4452:A1 0
2 *4407:B 0.000155002
3 *4406:X 6.1193e-05
4 *367:6 0.000216195
5 *4407:B *4452:A2 0.000105163
6 *4407:A_N *4407:B 6.9276e-05
7 *4407:A_N *367:6 0.000276211
8 *366:8 *4407:B 0
*RES
1 *4406:X *367:6 11.4786 
2 *367:6 *4407:B 12.7464 
3 *367:6 *4452:A1 9.3 
*END

*D_NET *368 0.00089205
*CONN
*I *4409:A I *D sky130_fd_sc_hd__xnor2_1
*I *4407:X O *D sky130_fd_sc_hd__and2b_1
*CAP
1 *4409:A 0.000307919
2 *4407:X 0.000307919
3 *4409:A *4409:B 0
4 *4409:A *1009:65 0.000276211
*RES
1 *4407:X *4409:A 33.7786 
*END

*D_NET *369 0.00255662
*CONN
*I *4452:A2 I *D sky130_fd_sc_hd__a21oi_2
*I *4409:B I *D sky130_fd_sc_hd__xnor2_1
*I *4408:X O *D sky130_fd_sc_hd__a21o_1
*CAP
1 *4452:A2 0.000324686
2 *4409:B 0.000142343
3 *4408:X 0.000578294
4 *369:10 0.00104532
5 *4407:A_N *4452:A2 5.71472e-05
6 *4407:B *4452:A2 0.000105163
7 *4408:A1 *369:10 0.000186218
8 *4408:B1 *369:10 1.98839e-05
9 *4409:A *4409:B 0
10 *326:12 *369:10 9.71197e-05
11 *328:14 *369:10 4.44171e-07
*RES
1 *4408:X *369:10 19.425 
2 *369:10 *4409:B 20.8536 
3 *369:10 *4452:A2 15.5857 
*END

*D_NET *370 0.000242212
*CONN
*I *4410:B I *D sky130_fd_sc_hd__nand2_1
*I *4409:Y O *D sky130_fd_sc_hd__xnor2_1
*CAP
1 *4410:B 9.27419e-05
2 *4409:Y 9.27419e-05
3 *4410:B *1009:65 5.67286e-05
*RES
1 *4409:Y *4410:B 29.2429 
*END

*D_NET *371 0.000263449
*CONN
*I *4411:C1 I *D sky130_fd_sc_hd__o211a_1
*I *4410:Y O *D sky130_fd_sc_hd__nand2_1
*CAP
1 *4411:C1 4.67264e-05
2 *4410:Y 4.67264e-05
3 *4411:C1 *1009:80 7.19792e-05
4 *4411:C1 *1010:146 9.80173e-05
*RES
1 *4410:Y *4411:C1 19.975 
*END

*D_NET *372 0.00251756
*CONN
*I *4449:B1 I *D sky130_fd_sc_hd__a21o_1
*I *4457:A1 I *D sky130_fd_sc_hd__a21bo_1
*I *4448:A I *D sky130_fd_sc_hd__nand3_1
*I *4412:X O *D sky130_fd_sc_hd__a21bo_1
*CAP
1 *4449:B1 0
2 *4457:A1 0.000115552
3 *4448:A 0.00010699
4 *4412:X 0.000398297
5 *372:23 0.000393827
6 *372:6 0.000783562
7 *4448:A *407:14 0
8 *4457:A1 *4457:A2 5.71472e-05
9 *4457:A1 *406:12 5.52302e-05
10 *4457:A1 *406:25 5.10822e-05
11 *4457:A1 *407:14 2.60158e-05
12 *372:6 *412:28 5.52238e-05
13 *372:23 *412:28 0.000316184
14 *372:23 *772:32 0
15 *4402:A1 *4448:A 0
16 *4402:A1 *372:6 1.56e-05
17 *4402:A2 *372:6 0.00014285
18 *360:32 *4448:A 0
*RES
1 *4412:X *372:6 14.3536 
2 *372:6 *4448:A 20.2464 
3 *372:6 *372:23 9.44643 
4 *372:23 *4457:A1 16.5857 
5 *372:23 *4449:B1 13.8 
*END

*D_NET *373 0.00326298
*CONN
*I *4420:A I *D sky130_fd_sc_hd__nand2_1
*I *4421:A I *D sky130_fd_sc_hd__xor2_1
*I *4413:X O *D sky130_fd_sc_hd__a31o_1
*CAP
1 *4420:A 0.00017558
2 *4421:A 0
3 *4413:X 0.00048849
4 *373:12 0.00066407
5 *4420:A *4420:B 0.000199009
6 *4420:A *381:10 4.88637e-05
7 *373:12 *4375:A 5.33433e-05
8 *373:12 *4420:B 3.57366e-05
9 *373:12 *979:106 9.22103e-06
10 *373:12 *1006:59 6.71327e-05
11 *4380:A *373:12 6.78942e-05
12 *4380:B *373:12 0.00022459
13 *341:10 *373:12 0.000211053
14 *350:14 *373:12 0.00101799
*RES
1 *4413:X *373:12 25.1929 
2 *373:12 *4421:A 9.3 
3 *373:12 *4420:A 13.1571 
*END

*D_NET *374 0.00207407
*CONN
*I *4458:A I *D sky130_fd_sc_hd__nor2_1
*I *4415:A I *D sky130_fd_sc_hd__inv_2
*I *4414:X O *D sky130_fd_sc_hd__and4_1
*CAP
1 *4458:A 0.000137493
2 *4415:A 0.000131706
3 *4414:X 0.00013272
4 *374:12 0.000401919
5 *4415:A *4417:D 2.07158e-05
6 *4415:A *4418:A2_N 2.61337e-05
7 *4415:A *375:12 3.75052e-05
8 *4415:A *979:76 0
9 *4415:A *1003:45 0
10 *4415:A *1003:54 0
11 *4458:A *4418:A1_N 0.000342077
12 *4458:A *4418:A2_N 0.000358977
13 *4458:A *4458:B 7.82649e-05
14 *374:12 *4418:A1_N 0.000137983
15 *374:12 *4418:A2_N 0.000114733
16 *374:12 *4419:A 0
17 *374:12 *376:14 1.98839e-05
18 *374:12 *979:76 3.56976e-05
19 *4418:B1 *4415:A 9.82593e-05
*RES
1 *4414:X *374:12 21.4071 
2 *374:12 *4415:A 21.4607 
3 *374:12 *4458:A 14.3714 
*END

*D_NET *375 0.00160623
*CONN
*I *4418:A1_N I *D sky130_fd_sc_hd__o2bb2a_1
*I *4417:B I *D sky130_fd_sc_hd__and4b_1
*I *4415:Y O *D sky130_fd_sc_hd__inv_2
*CAP
1 *4418:A1_N 0.000110492
2 *4417:B 0
3 *4415:Y 0.000141886
4 *375:12 0.000252378
5 *4418:A1_N *4417:D 0.000128001
6 *4418:A1_N *4418:B2 1.68667e-05
7 *4418:A1_N *4458:B 0.000144285
8 *4418:A1_N *376:14 5.33005e-05
9 *4418:A1_N *377:6 5.51819e-05
10 *375:12 *4418:A2_N 3.17148e-05
11 *375:12 *376:14 0.00012401
12 *375:12 *418:14 3.05446e-05
13 *375:12 *979:76 0
14 *4415:A *375:12 3.75052e-05
15 *4458:A *4418:A1_N 0.000342077
16 *374:12 *4418:A1_N 0.000137983
*RES
1 *4415:Y *375:12 21.1929 
2 *375:12 *4417:B 9.3 
3 *375:12 *4418:A1_N 13.9563 
*END

*D_NET *376 0.00183642
*CONN
*I *4417:C I *D sky130_fd_sc_hd__and4b_1
*I *4418:A2_N I *D sky130_fd_sc_hd__o2bb2a_1
*I *4416:X O *D sky130_fd_sc_hd__a22o_1
*CAP
1 *4417:C 0
2 *4418:A2_N 0.000337566
3 *4416:X 0.000152605
4 *376:14 0.000490171
5 *4418:A2_N *979:76 0
6 *376:14 *4418:B2 4.87953e-05
7 *376:14 *418:14 3.05446e-05
8 *376:14 *979:76 4.79842e-05
9 *4415:A *4418:A2_N 2.61337e-05
10 *4418:A1_N *376:14 5.33005e-05
11 *4458:A *4418:A2_N 0.000358977
12 *374:12 *4418:A2_N 0.000114733
13 *374:12 *376:14 1.98839e-05
14 *375:12 *4418:A2_N 3.17148e-05
15 *375:12 *376:14 0.00012401
*RES
1 *4416:X *376:14 21.8357 
2 *376:14 *4418:A2_N 23.5679 
3 *376:14 *4417:C 9.3 
*END

*D_NET *377 0.0014173
*CONN
*I *4458:B I *D sky130_fd_sc_hd__nor2_1
*I *4419:A I *D sky130_fd_sc_hd__nor2_1
*I *4417:X O *D sky130_fd_sc_hd__and4b_1
*CAP
1 *4458:B 0.000180798
2 *4419:A 0.000182128
3 *4417:X 5.84755e-05
4 *377:6 0.000421401
5 *4419:A *4417:D 6.7848e-05
6 *4419:A *4419:B 0
7 *4458:B *417:8 3.18676e-05
8 *377:6 *4417:D 5.71472e-05
9 *377:6 *4418:B2 0.0001399
10 *4418:A1_N *4458:B 0.000144285
11 *4418:A1_N *377:6 5.51819e-05
12 *4458:A *4458:B 7.82649e-05
13 *374:12 *4419:A 0
*RES
1 *4417:X *377:6 11.0679 
2 *377:6 *4419:A 21.1571 
3 *377:6 *4458:B 13.5679 
*END

*D_NET *378 0.00045033
*CONN
*I *4419:B I *D sky130_fd_sc_hd__nor2_1
*I *4418:X O *D sky130_fd_sc_hd__o2bb2a_1
*CAP
1 *4419:B 0.00015374
2 *4418:X 0.00015374
3 *4419:A *4419:B 0
4 *181:50 *4419:B 0.00014285
*RES
1 *4418:X *4419:B 30.6 
*END

*D_NET *379 0.00249763
*CONN
*I *4420:B I *D sky130_fd_sc_hd__nand2_1
*I *4421:B I *D sky130_fd_sc_hd__xor2_1
*I *4419:Y O *D sky130_fd_sc_hd__nor2_1
*CAP
1 *4420:B 6.59164e-05
2 *4421:B 0
3 *4419:Y 0.000837778
4 *379:12 0.000903695
5 *4420:B *381:10 5.71472e-05
6 *379:12 *396:10 0
7 *4420:A *4420:B 0.000199009
8 *181:50 *379:12 0.000398345
9 *350:14 *379:12 0
10 *373:12 *4420:B 3.57366e-05
*RES
1 *4419:Y *379:12 31.4964 
2 *379:12 *4421:B 9.3 
3 *379:12 *4420:B 11.4964 
*END

*D_NET *380 0.00237695
*CONN
*I *4492:B1 I *D sky130_fd_sc_hd__o21ai_1
*I *4491:C I *D sky130_fd_sc_hd__or3_4
*I *4420:Y O *D sky130_fd_sc_hd__nand2_1
*CAP
1 *4492:B1 0.000164902
2 *4491:C 5.83463e-05
3 *4420:Y 0.000446226
4 *380:6 0.000669474
5 *4491:C *4490:A1 9.24395e-05
6 *4491:C *4492:A1 0.000165269
7 *4491:C *447:10 1.02504e-05
8 *4492:B1 *4492:A1 5.33433e-05
9 *4492:B1 *4492:A2 5.52302e-05
10 *4492:B1 *449:6 5.52238e-05
11 *380:6 *4490:A2 9.71197e-05
12 *380:6 *4490:B1 1.02821e-05
13 *380:6 *4490:C1 2.28598e-05
14 *380:6 *381:10 0.000360894
15 *380:6 *395:40 1.74352e-05
16 *380:6 *398:12 9.7659e-05
*RES
1 *4420:Y *380:6 17.6393 
2 *380:6 *4491:C 20.55 
3 *380:6 *4492:B1 12.3179 
*END

*D_NET *381 0.00247091
*CONN
*I *4437:A I *D sky130_fd_sc_hd__and3_1
*I *4439:B1 I *D sky130_fd_sc_hd__a21oi_1
*I *4438:A I *D sky130_fd_sc_hd__nand3_1
*I *4421:X O *D sky130_fd_sc_hd__xor2_1
*CAP
1 *4437:A 0.000139885
2 *4439:B1 3.32759e-05
3 *4438:A 0
4 *4421:X 0.0003342
5 *381:16 0.000109728
6 *381:10 0.000550536
7 *4437:A *4437:B 9.0573e-05
8 *4437:A *4437:C 5.52238e-05
9 *4437:A *395:40 3.34366e-05
10 *4437:A *395:49 4.73656e-05
11 *4437:A *396:10 0
12 *4439:B1 *4439:A2 0.00014183
13 *4439:B1 *399:10 5.33433e-05
14 *381:10 *395:34 7.80714e-06
15 *381:10 *395:40 0.000347347
16 *381:10 *396:10 0
17 *381:10 *398:12 1.41029e-05
18 *381:16 *4439:A2 4.53557e-05
19 *4420:A *381:10 4.88637e-05
20 *4420:B *381:10 5.71472e-05
21 *380:6 *381:10 0.000360894
*RES
1 *4421:X *381:10 23.0143 
2 *381:10 *381:16 5.875 
3 *381:16 *4438:A 9.3 
4 *381:16 *4439:B1 10.6571 
5 *381:10 *4437:A 16.5857 
*END

*D_NET *382 0.00134438
*CONN
*I *4459:B1 I *D sky130_fd_sc_hd__o21ai_1
*I *4424:A I *D sky130_fd_sc_hd__nand2_1
*I *4422:Y O *D sky130_fd_sc_hd__nand4_1
*CAP
1 *4459:B1 0.000124087
2 *4424:A 0
3 *4422:Y 0.000279407
4 *382:10 0.000403494
5 *4459:B1 *4376:A 3.51442e-05
6 *4459:B1 *4968:A 0
7 *4459:B1 *384:8 0.000152333
8 *4459:B1 *997:55 0
9 *382:10 *4423:A1 7.6644e-05
10 *382:10 *4968:A 0
11 *382:10 *983:89 0.000273269
12 *382:10 *997:42 0
13 *382:10 *997:55 0
*RES
1 *4422:Y *382:10 18.3357 
2 *382:10 *4424:A 13.8 
3 *382:10 *4459:B1 16.3536 
*END

*D_NET *383 0.000176317
*CONN
*I *4424:B I *D sky130_fd_sc_hd__nand2_1
*I *4423:X O *D sky130_fd_sc_hd__a22o_1
*CAP
1 *4424:B 3.65112e-05
2 *4423:X 3.65112e-05
3 *4424:B *4423:A1 4.61475e-05
4 *4424:B *781:33 5.71472e-05
*RES
1 *4423:X *4424:B 19.8679 
*END

*D_NET *384 0.000840972
*CONN
*I *4425:B I *D sky130_fd_sc_hd__xor2_1
*I *4459:A2 I *D sky130_fd_sc_hd__o21ai_1
*I *4424:Y O *D sky130_fd_sc_hd__nand2_1
*CAP
1 *4425:B 4.76872e-05
2 *4459:A2 5.05194e-05
3 *4424:Y 9.83008e-05
4 *384:8 0.000196507
5 *4425:B *4376:A 6.42338e-05
6 *384:8 *4376:A 2.58997e-05
7 *384:8 *997:55 0
8 *4425:A *4425:B 0.000116481
9 *4425:A *4459:A2 3.69047e-06
10 *4425:A *384:8 8.15095e-05
11 *4459:B1 *384:8 0.000152333
12 *337:8 *4459:A2 3.80953e-06
*RES
1 *4424:Y *384:8 16.3536 
2 *384:8 *4459:A2 14.3357 
3 *384:8 *4425:B 15.4429 
*END

*D_NET *385 0.00240671
*CONN
*I *4482:A2 I *D sky130_fd_sc_hd__a21bo_1
*I *4433:B1 I *D sky130_fd_sc_hd__a21o_1
*I *4432:A I *D sky130_fd_sc_hd__nand3_1
*I *4425:X O *D sky130_fd_sc_hd__xor2_1
*CAP
1 *4482:A2 8.03802e-05
2 *4433:B1 1.11927e-05
3 *4432:A 0
4 *4425:X 0.000162912
5 *385:21 0.000153899
6 *385:12 0.000225239
7 *4482:A2 *4482:A1 6.97409e-05
8 *4482:A2 *4482:B1_N 0.000117621
9 *4482:A2 *392:12 0.00044852
10 *385:12 *4376:A 9.60771e-05
11 *385:12 *4433:A2 5.59013e-05
12 *385:12 *4968:A 0
13 *385:12 *792:33 7.4826e-05
14 *385:12 *982:23 0.000221492
15 *385:12 *1000:97 0
16 *385:21 *4482:B1_N 5.33433e-05
17 *385:21 *390:12 3.57366e-05
18 *385:21 *390:16 5.62425e-05
19 *385:21 *392:12 0.000185643
20 *181:46 *385:12 0.000357945
*RES
1 *4425:X *385:12 24.2643 
2 *385:12 *4432:A 9.3 
3 *385:12 *385:21 2.19643 
4 *385:21 *4433:B1 9.72857 
5 *385:21 *4482:A2 13.5321 
*END

*D_NET *386 0.00283504
*CONN
*I *4429:A1 I *D sky130_fd_sc_hd__o21ai_1
*I *4428:B I *D sky130_fd_sc_hd__or3_4
*I *4477:A2 I *D sky130_fd_sc_hd__o21bai_1
*I *4426:Y O *D sky130_fd_sc_hd__a21oi_1
*CAP
1 *4429:A1 0.000115883
2 *4428:B 0
3 *4477:A2 0
4 *4426:Y 0.000122485
5 *386:25 0.000224501
6 *386:12 0.000231104
7 *4429:A1 *4429:A2 4.52936e-05
8 *4429:A1 *781:33 0.000546593
9 *386:12 *4199:A1 3.57844e-05
10 *386:12 *4920:A 0.000312743
11 *386:12 *4990:A 5.33005e-05
12 *386:12 *988:55 5.33005e-05
13 *386:12 *995:68 0.000191083
14 *386:25 *4199:A2 3.45894e-05
15 *386:25 *4477:B1_N 3.69047e-06
16 *386:25 *4990:A 0.000124521
17 *386:25 *387:10 8.15095e-05
18 *386:25 *387:23 8.98585e-05
19 *386:25 *781:33 7.6644e-05
20 *386:25 *988:55 0.000125879
21 *4429:B1 *4429:A1 0.000259934
22 *4477:A1 *386:12 1.02504e-05
23 *343:21 *4429:A1 9.60939e-05
*RES
1 *4426:Y *386:12 22.9071 
2 *386:12 *4477:A2 9.3 
3 *386:12 *386:25 12.6071 
4 *386:25 *4428:B 9.3 
5 *386:25 *4429:A1 14.675 
*END

*D_NET *387 0.00217473
*CONN
*I *4429:A2 I *D sky130_fd_sc_hd__o21ai_1
*I *4428:C I *D sky130_fd_sc_hd__or3_4
*I *4477:B1_N I *D sky130_fd_sc_hd__o21bai_1
*I *4427:X O *D sky130_fd_sc_hd__and3_1
*CAP
1 *4429:A2 0.000173446
2 *4428:C 6.24762e-05
3 *4477:B1_N 4.7781e-05
4 *4427:X 0.000280583
5 *387:23 0.000355364
6 *387:10 0.000447807
7 *4428:C *4382:B 3.57366e-05
8 *4429:A2 *388:10 5.71472e-05
9 *4429:A2 *389:10 5.71472e-05
10 *4429:A2 *781:33 1.40034e-05
11 *4477:B1_N *4990:A 9.99644e-06
12 *387:10 *865:10 0
13 *387:10 *988:55 0.00015626
14 *387:23 *4199:A2 2.6949e-05
15 *387:23 *865:10 0
16 *4428:A *4428:C 3.99614e-06
17 *4429:A1 *4429:A2 4.52936e-05
18 *4429:B1 *4429:A2 0.000149489
19 *199:10 *387:10 0
20 *343:21 *4428:C 5.33334e-05
21 *343:21 *4429:A2 2.28598e-05
22 *386:25 *4477:B1_N 3.69047e-06
23 *386:25 *387:10 8.15095e-05
24 *386:25 *387:23 8.98585e-05
*RES
1 *4427:X *387:10 19.3179 
2 *387:10 *4477:B1_N 14.3357 
3 *387:10 *387:23 6.75 
4 *387:23 *4428:C 10.675 
5 *387:23 *4429:A2 13.55 
*END

*D_NET *388 0.00135543
*CONN
*I *4430:B1 I *D sky130_fd_sc_hd__o211ai_2
*I *4431:A2 I *D sky130_fd_sc_hd__a211o_1
*I *4428:X O *D sky130_fd_sc_hd__or3_4
*CAP
1 *4430:B1 0.000144146
2 *4431:A2 0
3 *4428:X 0.00020568
4 *388:10 0.000349826
5 *4430:B1 *4199:A2 0
6 *4430:B1 *4430:C1 5.33005e-05
7 *4430:B1 *865:10 0.000200406
8 *388:10 *4199:A2 0
9 *388:10 *865:10 0.000344925
10 *4429:A2 *388:10 5.71472e-05
*RES
1 *4428:X *388:10 18.7107 
2 *388:10 *4431:A2 13.8 
3 *388:10 *4430:B1 17.3179 
*END

*D_NET *389 0.00163691
*CONN
*I *4430:C1 I *D sky130_fd_sc_hd__o211ai_2
*I *4431:A1 I *D sky130_fd_sc_hd__a211o_1
*I *4429:Y O *D sky130_fd_sc_hd__o21ai_1
*CAP
1 *4430:C1 0.000167288
2 *4431:A1 2.3932e-05
3 *4429:Y 0.000206259
4 *389:10 0.000397479
5 *4430:C1 *865:10 0.000211913
6 *4431:A1 *391:12 2.59355e-05
7 *389:10 *865:10 0.000344925
8 *4429:A2 *389:10 5.71472e-05
9 *4430:B1 *4430:C1 5.33005e-05
10 *4431:C1 *4430:C1 9.24395e-05
11 *4431:C1 *389:10 4.46186e-06
12 *181:46 *4431:A1 2.59355e-05
13 *199:10 *389:10 0
14 *346:8 *4430:C1 2.58997e-05
*RES
1 *4429:Y *389:10 18.7107 
2 *389:10 *4431:A1 14.3357 
3 *389:10 *4430:C1 18.0143 
*END

*D_NET *390 0.00288111
*CONN
*I *4432:B I *D sky130_fd_sc_hd__nand3_1
*I *4482:B1_N I *D sky130_fd_sc_hd__a21bo_1
*I *4433:A1 I *D sky130_fd_sc_hd__a21o_1
*I *4430:Y O *D sky130_fd_sc_hd__o211ai_2
*CAP
1 *4432:B 0
2 *4482:B1_N 5.71147e-05
3 *4433:A1 0
4 *4430:Y 0.000742164
5 *390:16 0.000131952
6 *390:12 0.000817001
7 *4482:B1_N *4482:A1 0.000302728
8 *390:12 *4430:A1 5.41494e-05
9 *390:12 *391:16 2.95726e-05
10 *390:12 *857:12 4.53919e-05
11 *390:16 *4482:A1 5.33005e-05
12 *390:16 *391:16 9.99303e-05
13 *4386:A *390:12 0.000139907
14 *4386:C *390:12 4.59075e-05
15 *4482:A2 *4482:B1_N 0.000117621
16 *347:12 *390:12 9.90431e-05
17 *385:21 *4482:B1_N 5.33433e-05
18 *385:21 *390:12 3.57366e-05
19 *385:21 *390:16 5.62425e-05
*RES
1 *4430:Y *390:12 22.3179 
2 *390:12 *390:16 1.78571 
3 *390:16 *4433:A1 9.3 
4 *390:16 *4482:B1_N 12.3 
5 *390:12 *4432:B 9.3 
*END

*D_NET *391 0.0050104
*CONN
*I *4432:C I *D sky130_fd_sc_hd__nand3_1
*I *4482:A1 I *D sky130_fd_sc_hd__a21bo_1
*I *4433:A2 I *D sky130_fd_sc_hd__a21o_1
*I *4431:X O *D sky130_fd_sc_hd__a211o_1
*CAP
1 *4432:C 0
2 *4482:A1 0.000383052
3 *4433:A2 1.92218e-05
4 *4431:X 0.00114231
5 *391:16 0.000564155
6 *391:12 0.00130419
7 *4433:A2 *792:33 5.59013e-05
8 *391:12 *4376:A 0.000227539
9 *391:12 *4431:B1 0.000356028
10 *391:12 *982:23 0.000107268
11 *391:12 *1000:97 0
12 *4431:A1 *391:12 2.59355e-05
13 *4482:A2 *4482:A1 6.97409e-05
14 *4482:B1_N *4482:A1 0.000302728
15 *181:46 *391:12 0.000213626
16 *385:12 *4433:A2 5.59013e-05
17 *390:12 *391:16 2.95726e-05
18 *390:16 *4482:A1 5.33005e-05
19 *390:16 *391:16 9.99303e-05
*RES
1 *4431:X *391:12 33.7286 
2 *391:12 *391:16 2.19643 
3 *391:16 *4433:A2 19.0321 
4 *391:16 *4482:A1 15.0857 
5 *391:12 *4432:C 9.3 
*END

*D_NET *392 0.00449806
*CONN
*I *4435:A I *D sky130_fd_sc_hd__nand3_2
*I *4436:A1 I *D sky130_fd_sc_hd__a21o_1
*I *4432:Y O *D sky130_fd_sc_hd__nand3_1
*CAP
1 *4435:A 0.000123544
2 *4436:A1 0
3 *4432:Y 0.000810022
4 *392:12 0.000933566
5 *4435:A *4435:B 7.90616e-05
6 *4435:A *4436:B1 0.00010096
7 *4435:A *396:10 5.71472e-05
8 *392:12 *393:14 0.000667584
9 *392:12 *979:89 0
10 *4482:A2 *392:12 0.00044852
11 *181:50 *392:12 0.00109201
12 *385:21 *392:12 0.000185643
*RES
1 *4432:Y *392:12 38.6214 
2 *392:12 *4436:A1 9.3 
3 *392:12 *4435:A 12.3357 
*END

*D_NET *393 0.00421337
*CONN
*I *4435:B I *D sky130_fd_sc_hd__nand3_2
*I *4436:A2 I *D sky130_fd_sc_hd__a21o_1
*I *4433:X O *D sky130_fd_sc_hd__a21o_1
*CAP
1 *4435:B 0.000102489
2 *4436:A2 0
3 *4433:X 0.000868137
4 *393:14 0.000970626
5 *4435:B *4435:C 0.000178593
6 *4435:B *4436:B1 9.90367e-05
7 *4435:B *396:10 3.48705e-05
8 *393:14 *977:106 0.000137983
9 *393:14 *1003:73 0.000219711
10 *393:14 *1008:14 0.000318309
11 *4435:A *4435:B 7.90616e-05
12 *351:18 *4435:B 0.000188586
13 *351:18 *393:14 0.000348384
14 *392:12 *393:14 0.000667584
*RES
1 *4433:X *393:14 36.175 
2 *393:14 *4436:A2 9.3 
3 *393:14 *4435:B 13.5679 
*END

*D_NET *394 0.00153071
*CONN
*I *4435:C I *D sky130_fd_sc_hd__nand3_2
*I *4436:B1 I *D sky130_fd_sc_hd__a21o_1
*I *4434:X O *D sky130_fd_sc_hd__a21bo_1
*CAP
1 *4435:C 0.000133961
2 *4436:B1 7.33007e-05
3 *4434:X 0.000149485
4 *394:8 0.000356746
5 *4435:C *395:8 5.71472e-05
6 *4435:C *396:10 6.55205e-05
7 *4435:A *4436:B1 0.00010096
8 *4435:B *4435:C 0.000178593
9 *4435:B *4436:B1 9.90367e-05
10 *341:10 *394:8 2.56694e-05
11 *350:14 *394:8 0
12 *351:20 *4436:B1 9.25014e-06
13 *351:20 *394:8 0.000281036
*RES
1 *4434:X *394:8 17.5679 
2 *394:8 *4436:B1 15.4786 
3 *394:8 *4435:C 17.2464 
*END

*D_NET *395 0.00530627
*CONN
*I *4490:B1 I *D sky130_fd_sc_hd__o211a_1
*I *4437:B I *D sky130_fd_sc_hd__and3_1
*I *4439:A1 I *D sky130_fd_sc_hd__a21oi_1
*I *4438:B I *D sky130_fd_sc_hd__nand3_1
*I *4488:A1 I *D sky130_fd_sc_hd__a211oi_1
*I *4489:A1 I *D sky130_fd_sc_hd__a211o_1
*I *4435:Y O *D sky130_fd_sc_hd__nand3_2
*CAP
1 *4490:B1 0.000151657
2 *4437:B 8.4362e-05
3 *4439:A1 0.000179566
4 *4438:B 0
5 *4488:A1 0
6 *4489:A1 3.70362e-05
7 *4435:Y 0.000497051
8 *395:49 0.00028356
9 *395:40 0.000173225
10 *395:34 0.000434467
11 *395:14 0.000289332
12 *395:8 0.000878564
13 *4437:B *399:10 0.000106533
14 *4439:A1 *4439:A2 0.000271352
15 *4489:A1 *4488:A2 0.000128154
16 *4489:A1 *398:16 1.02504e-05
17 *4489:A1 *444:19 0.000128154
18 *4490:B1 *4490:A2 3.93346e-05
19 *4490:B1 *4490:C1 5.52302e-05
20 *4490:B1 *398:12 0.000128496
21 *395:8 *396:10 0.000252768
22 *395:14 *4488:A2 4.57445e-05
23 *395:14 *396:10 0
24 *395:14 *398:16 7.79781e-06
25 *395:34 *396:10 0
26 *395:34 *398:12 3.17148e-05
27 *395:34 *398:16 7.04631e-05
28 *395:40 *398:12 0.000350867
29 *395:40 *399:10 3.07555e-05
30 *395:49 *399:10 2.84398e-05
31 *4435:C *395:8 5.71472e-05
32 *4437:A *4437:B 9.0573e-05
33 *4437:A *395:40 3.34366e-05
34 *4437:A *395:49 4.73656e-05
35 *380:6 *4490:B1 1.02821e-05
36 *380:6 *395:40 1.74352e-05
37 *381:10 *395:34 7.80714e-06
38 *381:10 *395:40 0.000347347
*RES
1 *4435:Y *395:8 23.7821 
2 *395:8 *395:14 8.21429 
3 *395:14 *4489:A1 19.9429 
4 *395:14 *4488:A1 9.3 
5 *395:8 *395:34 7.35714 
6 *395:34 *395:40 10.125 
7 *395:40 *4438:B 13.8 
8 *395:40 *395:49 0.732143 
9 *395:49 *4439:A1 16.3893 
10 *395:49 *4437:B 16.3536 
11 *395:34 *4490:B1 12.3179 
*END

*D_NET *396 0.00437005
*CONN
*I *4437:C I *D sky130_fd_sc_hd__and3_1
*I *4439:A2 I *D sky130_fd_sc_hd__a21oi_1
*I *4438:C I *D sky130_fd_sc_hd__nand3_1
*I *4436:X O *D sky130_fd_sc_hd__a21o_1
*CAP
1 *4437:C 0.00033657
2 *4439:A2 0.000187056
3 *4438:C 0
4 *4436:X 0.00109198
5 *396:14 0.000294441
6 *396:10 0.00153594
7 *4435:A *396:10 5.71472e-05
8 *4435:B *396:10 3.48705e-05
9 *4435:C *396:10 6.55205e-05
10 *4437:A *4437:C 5.52238e-05
11 *4437:A *396:10 0
12 *4439:A1 *4439:A2 0.000271352
13 *4439:B1 *4439:A2 0.00014183
14 *379:12 *396:10 0
15 *381:10 *396:10 0
16 *381:16 *4439:A2 4.53557e-05
17 *395:8 *396:10 0.000252768
18 *395:14 *396:10 0
19 *395:34 *396:10 0
*RES
1 *4436:X *396:10 30.8714 
2 *396:10 *396:14 6.26786 
3 *396:14 *4438:C 9.3 
4 *396:14 *4439:A2 13.9786 
5 *396:10 *4437:C 18.1036 
*END

*D_NET *397 0.00106897
*CONN
*I *4442:A1 I *D sky130_fd_sc_hd__o211ai_2
*I *4440:C1 I *D sky130_fd_sc_hd__a211o_1
*I *4437:X O *D sky130_fd_sc_hd__and3_1
*CAP
1 *4442:A1 0.000118196
2 *4440:C1 5.5939e-05
3 *4437:X 0.000281842
4 *397:10 0.000455977
5 *4440:C1 *400:6 0.00014285
6 *4442:A1 *4442:A2 0
7 *4442:A1 *400:10 0
8 *397:10 *4442:A2 0
9 *397:10 *399:10 0
10 *397:10 *403:12 0
11 *4443:A *4442:A1 1.41706e-05
*RES
1 *4437:X *397:10 17.5143 
2 *397:10 *4440:C1 15.1571 
3 *397:10 *4442:A1 16.05 
*END

*D_NET *398 0.00179854
*CONN
*I *4490:C1 I *D sky130_fd_sc_hd__o211a_1
*I *4489:A2 I *D sky130_fd_sc_hd__a211o_1
*I *4488:A2 I *D sky130_fd_sc_hd__a211oi_1
*I *4438:Y O *D sky130_fd_sc_hd__nand3_1
*CAP
1 *4490:C1 1.12434e-05
2 *4489:A2 0
3 *4488:A2 5.86021e-05
4 *4438:Y 0.000193471
5 *398:16 0.000156422
6 *398:12 0.000302535
7 *4488:A2 *444:19 1.3142e-05
8 *398:16 *4490:A1 0
9 *398:16 *4490:A2 9.9784e-05
10 *4489:A1 *4488:A2 0.000128154
11 *4489:A1 *398:16 1.02504e-05
12 *4490:B1 *4490:C1 5.52302e-05
13 *4490:B1 *398:12 0.000128496
14 *380:6 *4490:C1 2.28598e-05
15 *380:6 *398:12 9.7659e-05
16 *381:10 *398:12 1.41029e-05
17 *395:14 *4488:A2 4.57445e-05
18 *395:14 *398:16 7.79781e-06
19 *395:34 *398:12 3.17148e-05
20 *395:34 *398:16 7.04631e-05
21 *395:40 *398:12 0.000350867
*RES
1 *4438:Y *398:12 24.1393 
2 *398:12 *398:16 7.35714 
3 *398:16 *4488:A2 15.7464 
4 *398:16 *4489:A2 13.8 
5 *398:12 *4490:C1 9.83571 
*END

*D_NET *399 0.00124033
*CONN
*I *4442:A2 I *D sky130_fd_sc_hd__o211ai_2
*I *4440:B1 I *D sky130_fd_sc_hd__a211o_1
*I *4439:Y O *D sky130_fd_sc_hd__a21oi_1
*CAP
1 *4442:A2 0.000129465
2 *4440:B1 0
3 *4439:Y 0.000333318
4 *399:10 0.000462782
5 *4437:B *399:10 0.000106533
6 *4439:B1 *399:10 5.33433e-05
7 *4440:A1 *4442:A2 8.98897e-05
8 *4440:A1 *399:10 5.80706e-06
9 *4442:A1 *4442:A2 0
10 *395:40 *399:10 3.07555e-05
11 *395:49 *399:10 2.84398e-05
12 *397:10 *4442:A2 0
13 *397:10 *399:10 0
*RES
1 *4439:Y *399:10 20.3357 
2 *399:10 *4440:B1 13.8 
3 *399:10 *4442:A2 16.5857 
*END

*D_NET *400 0.0027863
*CONN
*I *4441:A I *D sky130_fd_sc_hd__inv_2
*I *4444:B I *D sky130_fd_sc_hd__nand3_1
*I *4445:A1 I *D sky130_fd_sc_hd__a21o_1
*I *4443:B I *D sky130_fd_sc_hd__and3_1
*I *4440:X O *D sky130_fd_sc_hd__a211o_1
*CAP
1 *4441:A 0.000147545
2 *4444:B 2.18078e-05
3 *4445:A1 0.000100621
4 *4443:B 0
5 *4440:X 0.000375843
6 *400:23 0.000299919
7 *400:10 0.000360814
8 *400:6 0.000706711
9 *4441:A *401:10 7.32272e-05
10 *4444:B *4445:A2 5.09046e-06
11 *4445:A1 *4445:A2 9.709e-06
12 *400:10 *402:27 5.83304e-05
13 *400:10 *403:12 8.16036e-05
14 *400:10 *849:16 1.87004e-05
15 *400:23 *402:27 0.000272658
16 *4440:A2 *400:6 5.71472e-05
17 *4440:C1 *400:6 0.00014285
18 *4442:A1 *400:10 0
19 *4443:A *400:10 0
20 *4443:A *400:23 0
21 *4444:A *4445:A1 4.42909e-05
22 *4444:A *400:23 6.92003e-06
23 *333:32 *4445:A1 2.51343e-06
*RES
1 *4440:X *400:6 15.9964 
2 *400:6 *400:10 7.96429 
3 *400:10 *4443:B 13.8 
4 *400:10 *400:23 8.5 
5 *400:23 *4445:A1 10.6571 
6 *400:23 *4444:B 9.72857 
7 *400:6 *4441:A 11.9071 
*END

*D_NET *401 0.00213047
*CONN
*I *4493:A1 I *D sky130_fd_sc_hd__o211a_1
*I *4494:B1 I *D sky130_fd_sc_hd__a211o_1
*I *4441:Y O *D sky130_fd_sc_hd__inv_2
*CAP
1 *4493:A1 0.000142143
2 *4494:B1 5.31994e-05
3 *4441:Y 0.000182245
4 *401:10 0.000377588
5 *4493:A1 *4493:A2 8.16826e-05
6 *4493:A1 *4493:C1 0.000274294
7 *4493:A1 *772:6 0.000219818
8 *4493:A1 *772:114 7.32955e-05
9 *4494:B1 *4494:C1 0.000128146
10 *4494:B1 *403:12 8.32242e-05
11 *4494:B1 *849:16 0.000200406
12 *401:10 *403:12 0.000117189
13 *401:10 *849:16 0.00012401
14 *4441:A *401:10 7.32272e-05
*RES
1 *4441:Y *401:10 17.2107 
2 *401:10 *4494:B1 16.3536 
3 *401:10 *4493:A1 19.2821 
*END

*D_NET *402 0.00185908
*CONN
*I *4445:A2 I *D sky130_fd_sc_hd__a21o_1
*I *4444:C I *D sky130_fd_sc_hd__nand3_1
*I *4443:C I *D sky130_fd_sc_hd__and3_1
*I *4442:Y O *D sky130_fd_sc_hd__o211ai_2
*CAP
1 *4445:A2 0.000183292
2 *4444:C 0
3 *4443:C 4.82618e-05
4 *4442:Y 0.000244828
5 *402:27 0.000321978
6 *402:8 0.000431776
7 *4445:A2 *849:16 1.28585e-05
8 *402:27 *849:16 0.000187902
9 *4443:A *4445:A2 2.26973e-05
10 *4443:A *402:8 5.33433e-05
11 *4443:A *402:27 0
12 *4444:A *4445:A2 5.49656e-06
13 *4444:B *4445:A2 5.09046e-06
14 *4445:A1 *4445:A2 9.709e-06
15 *333:32 *4445:A2 8.56315e-07
16 *400:10 *402:27 5.83304e-05
17 *400:23 *402:27 0.000272658
*RES
1 *4442:Y *402:8 13.55 
2 *402:8 *4443:C 10.4607 
3 *402:8 *402:27 9.41071 
4 *402:27 *4444:C 13.8 
5 *402:27 *4445:A2 16.5902 
*END

*D_NET *403 0.00221326
*CONN
*I *4493:A2 I *D sky130_fd_sc_hd__o211a_1
*I *4494:C1 I *D sky130_fd_sc_hd__a211o_1
*I *4443:X O *D sky130_fd_sc_hd__and3_1
*CAP
1 *4493:A2 0.000435933
2 *4494:C1 6.70618e-05
3 *4443:X 0.000192843
4 *403:12 0.000695837
5 *4493:A2 *4493:C1 0.000146533
6 *4493:A2 *772:6 3.06878e-06
7 *403:12 *849:16 0.000180134
8 *4493:A1 *4493:A2 8.16826e-05
9 *4494:B1 *4494:C1 0.000128146
10 *4494:B1 *403:12 8.32242e-05
11 *397:10 *403:12 0
12 *400:10 *403:12 8.16036e-05
13 *401:10 *403:12 0.000117189
*RES
1 *4443:X *403:12 19.4429 
2 *403:12 *4494:C1 15.4429 
3 *403:12 *4493:A2 19.5857 
*END

*D_NET *404 0.0010554
*CONN
*I *4447:A1 I *D sky130_fd_sc_hd__a21o_1
*I *4446:B I *D sky130_fd_sc_hd__nand3_1
*I *4444:Y O *D sky130_fd_sc_hd__nand3_1
*CAP
1 *4447:A1 0.000101472
2 *4446:B 0
3 *4444:Y 0.000249978
4 *404:12 0.00035145
5 *4447:A1 *4446:C 1.57625e-05
6 *404:12 *4447:A2 4.25523e-05
7 *404:12 *405:8 3.92757e-05
8 *404:12 *849:16 0
9 *4444:A *404:12 9.90431e-05
10 *4446:A *4447:A1 5.68343e-05
11 *333:32 *404:12 9.90367e-05
*RES
1 *4444:Y *404:12 22.0143 
2 *404:12 *4446:B 9.3 
3 *404:12 *4447:A1 11.5143 
*END

*D_NET *405 0.000768886
*CONN
*I *4447:A2 I *D sky130_fd_sc_hd__a21o_1
*I *4446:C I *D sky130_fd_sc_hd__nand3_1
*I *4445:X O *D sky130_fd_sc_hd__a21o_1
*CAP
1 *4447:A2 5.40472e-05
2 *4446:C 0.000190744
3 *4445:X 5.35369e-05
4 *405:8 0.000298328
5 *4446:A *4446:C 7.464e-05
6 *4447:A1 *4446:C 1.57625e-05
7 *404:12 *4447:A2 4.25523e-05
8 *404:12 *405:8 3.92757e-05
*RES
1 *4445:X *405:8 14.8357 
2 *405:8 *4446:C 16.6036 
3 *405:8 *4447:A2 14.8357 
*END

*D_NET *406 0.00167077
*CONN
*I *4449:A1 I *D sky130_fd_sc_hd__a21o_1
*I *4448:B I *D sky130_fd_sc_hd__nand3_1
*I *4457:B1_N I *D sky130_fd_sc_hd__a21bo_1
*I *4446:Y O *D sky130_fd_sc_hd__nand3_1
*CAP
1 *4449:A1 0
2 *4448:B 0.000158834
3 *4457:B1_N 4.03047e-05
4 *4446:Y 0.000414639
5 *406:25 0.000202139
6 *406:12 0.000498248
7 *4448:B *4448:C 2.89016e-05
8 *4448:B *772:32 4.69963e-05
9 *4457:B1_N *4457:A2 6.05161e-06
10 *406:12 *4457:A2 6.42877e-05
11 *406:12 *407:8 0
12 *406:12 *407:14 0
13 *406:12 *416:10 2.51343e-06
14 *406:12 *849:16 0
15 *406:25 *407:14 0.000101545
16 *4457:A1 *406:12 5.52302e-05
17 *4457:A1 *406:25 5.10822e-05
*RES
1 *4446:Y *406:12 25.5679 
2 *406:12 *4457:B1_N 9.83571 
3 *406:12 *406:25 10.3393 
4 *406:25 *4448:B 11.4964 
5 *406:25 *4449:A1 9.3 
*END

*D_NET *407 0.00126612
*CONN
*I *4457:A2 I *D sky130_fd_sc_hd__a21bo_1
*I *4449:A2 I *D sky130_fd_sc_hd__a21o_1
*I *4448:C I *D sky130_fd_sc_hd__nand3_1
*I *4447:X O *D sky130_fd_sc_hd__a21o_1
*CAP
1 *4457:A2 7.54981e-05
2 *4449:A2 0
3 *4448:C 1.40568e-05
4 *4447:X 0.000225113
5 *407:14 0.000162863
6 *407:8 0.000449417
7 *4448:C *772:32 5.52238e-05
8 *4448:A *407:14 0
9 *4448:B *4448:C 2.89016e-05
10 *4457:A1 *4457:A2 5.71472e-05
11 *4457:A1 *407:14 2.60158e-05
12 *4457:B1_N *4457:A2 6.05161e-06
13 *406:12 *4457:A2 6.42877e-05
14 *406:12 *407:8 0
15 *406:12 *407:14 0
16 *406:25 *407:14 0.000101545
*RES
1 *4447:X *407:8 17.8714 
2 *407:8 *407:14 7.58929 
3 *407:14 *4448:C 9.83571 
4 *407:14 *4449:A2 9.3 
5 *407:8 *4457:A2 15.5679 
*END

*D_NET *408 0.00132218
*CONN
*I *4450:B I *D sky130_fd_sc_hd__and3_1
*I *4451:A1 I *D sky130_fd_sc_hd__a21oi_1
*I *4448:Y O *D sky130_fd_sc_hd__nand3_1
*CAP
1 *4450:B 0
2 *4451:A1 0.000100692
3 *4448:Y 0.000293576
4 *408:6 0.000394268
5 *4451:A1 *4450:A 1.32552e-05
6 *4451:A1 *4450:C 0
7 *4451:A1 *4451:A2 2.44318e-05
8 *4451:A1 *410:10 0.000157144
9 *4451:A1 *772:32 9.90367e-05
10 *408:6 *772:32 0.00023978
*RES
1 *4448:Y *408:6 13.5321 
2 *408:6 *4451:A1 12.2286 
3 *408:6 *4450:B 9.3 
*END

*D_NET *409 0.000579936
*CONN
*I *4451:A2 I *D sky130_fd_sc_hd__a21oi_1
*I *4450:C I *D sky130_fd_sc_hd__and3_1
*I *4449:X O *D sky130_fd_sc_hd__a21o_1
*CAP
1 *4451:A2 1.88297e-05
2 *4450:C 2.22939e-05
3 *4449:X 2.64786e-05
4 *409:6 6.76022e-05
5 *4450:C *4450:A 3.13772e-05
6 *4451:A2 *4450:A 6.90465e-05
7 *4451:A2 *772:32 0.00010096
8 *409:6 *4450:A 7.41433e-05
9 *409:6 *772:32 0.000144773
10 *4451:A1 *4450:C 0
11 *4451:A1 *4451:A2 2.44318e-05
*RES
1 *4449:X *409:6 10.6571 
2 *409:6 *4450:C 9.925 
3 *409:6 *4451:A2 10.6571 
*END

*D_NET *410 0.0028453
*CONN
*I *4454:A1 I *D sky130_fd_sc_hd__o21ai_1
*I *4500:B1_N I *D sky130_fd_sc_hd__o21bai_2
*I *4453:A I *D sky130_fd_sc_hd__or3_1
*I *4450:X O *D sky130_fd_sc_hd__and3_1
*CAP
1 *4454:A1 0
2 *4500:B1_N 4.93354e-05
3 *4453:A 0
4 *4450:X 0.000203069
5 *410:26 0.000539831
6 *410:10 0.000693564
7 *4500:B1_N *4453:C 9.69487e-05
8 *4500:B1_N *412:37 0
9 *4500:B1_N *459:20 0.000209432
10 *410:10 *4450:A 2.80481e-05
11 *410:10 *411:6 4.88637e-05
12 *410:10 *412:28 0.000138881
13 *410:10 *826:27 0.000183713
14 *410:26 *4450:A 0
15 *410:26 *4453:C 0.000338235
16 *410:26 *412:28 6.87574e-05
17 *410:26 *412:37 5.91458e-05
18 *410:26 *459:20 3.03304e-05
19 *4451:A1 *410:10 0.000157144
*RES
1 *4450:X *410:10 14.2821 
2 *410:10 *410:26 9.19643 
3 *410:26 *4453:A 9.3 
4 *410:26 *4500:B1_N 12.5857 
5 *410:10 *4454:A1 9.3 
*END

*D_NET *411 0.00179039
*CONN
*I *4453:B I *D sky130_fd_sc_hd__or3_1
*I *4500:A1 I *D sky130_fd_sc_hd__o21bai_2
*I *4454:A2 I *D sky130_fd_sc_hd__o21ai_1
*I *4451:Y O *D sky130_fd_sc_hd__a21oi_1
*CAP
1 *4453:B 0.000271569
2 *4500:A1 3.76022e-05
3 *4454:A2 0
4 *4451:Y 0.000142218
5 *411:17 0.000413475
6 *411:6 0.000246523
7 *4453:B *4453:C 4.72595e-05
8 *4453:B *412:37 4.43256e-05
9 *4453:B *459:20 0.000144773
10 *4500:A1 *4455:A2 5.80706e-06
11 *4500:A1 *772:16 6.39434e-05
12 *4500:A1 *838:124 2.37761e-05
13 *411:6 *412:28 0.000178847
14 *411:17 *412:28 8.66063e-05
15 *411:17 *412:37 3.48001e-05
16 *411:17 *459:20 0
17 *410:10 *411:6 4.88637e-05
*RES
1 *4451:Y *411:6 11.8893 
2 *411:6 *4454:A2 9.3 
3 *411:6 *411:17 1.91071 
4 *411:17 *4500:A1 19.3357 
5 *411:17 *4453:B 13.1214 
*END

*D_NET *412 0.00608211
*CONN
*I *4500:A2 I *D sky130_fd_sc_hd__o21bai_2
*I *4453:C I *D sky130_fd_sc_hd__or3_1
*I *4454:B1 I *D sky130_fd_sc_hd__o21ai_1
*I *4452:Y O *D sky130_fd_sc_hd__a21oi_2
*CAP
1 *4500:A2 0
2 *4453:C 7.86327e-05
3 *4454:B1 0
4 *4452:Y 0.00145689
5 *412:37 0.000131851
6 *412:28 0.000689747
7 *412:18 0.00209342
8 *4453:C *459:20 1.74352e-05
9 *412:28 *772:32 0
10 *412:28 *849:16 0.000148911
11 *412:37 *459:20 0
12 *4402:A1 *412:18 0
13 *4453:B *4453:C 4.72595e-05
14 *4453:B *412:37 4.43256e-05
15 *4500:B1_N *4453:C 9.69487e-05
16 *4500:B1_N *412:37 0
17 *364:10 *412:18 0
18 *372:6 *412:28 5.52238e-05
19 *372:23 *412:28 0.000316184
20 *410:10 *412:28 0.000138881
21 *410:26 *4453:C 0.000338235
22 *410:26 *412:28 6.87574e-05
23 *410:26 *412:37 5.91458e-05
24 *411:6 *412:28 0.000178847
25 *411:17 *412:28 8.66063e-05
26 *411:17 *412:37 3.48001e-05
*RES
1 *4452:Y *412:18 46.5679 
2 *412:18 *412:28 22.2857 
3 *412:28 *4454:B1 9.3 
4 *412:28 *412:37 1.78571 
5 *412:37 *4453:C 13.1571 
6 *412:37 *4500:A2 9.3 
*END

*D_NET *413 0.000815158
*CONN
*I *4455:A1 I *D sky130_fd_sc_hd__a21bo_1
*I *4453:X O *D sky130_fd_sc_hd__or3_1
*CAP
1 *4455:A1 0.000340915
2 *4453:X 0.000340915
3 *4455:A1 *4502:S 7.62726e-05
4 *4455:A1 *4503:A 0
5 *4455:A1 *832:29 5.70551e-05
*RES
1 *4453:X *4455:A1 33.9036 
*END

*D_NET *414 0.000504244
*CONN
*I *4455:A2 I *D sky130_fd_sc_hd__a21bo_1
*I *4454:Y O *D sky130_fd_sc_hd__o21ai_1
*CAP
1 *4455:A2 0.000160825
2 *4454:Y 0.000160825
3 *4455:A2 *772:16 4.16114e-05
4 *4455:A2 *832:29 5.30637e-06
5 *4455:A2 *838:124 0.000129868
6 *4500:A1 *4455:A2 5.80706e-06
*RES
1 *4454:Y *4455:A2 31.0107 
*END

*D_NET *415 0.00160606
*CONN
*I *4456:C1 I *D sky130_fd_sc_hd__o211a_1
*I *4455:X O *D sky130_fd_sc_hd__a21bo_1
*CAP
1 *4456:C1 0.000389546
2 *4455:X 0.000389546
3 *4456:C1 *4456:A1 9.90367e-05
4 *4456:C1 *4456:A2 5.71472e-05
5 *4456:C1 *772:16 0.00010326
6 *4456:C1 *826:12 9.90431e-05
7 *4456:C1 *826:27 5.52238e-05
8 *4456:C1 *832:29 3.90513e-05
9 *4456:C1 *832:61 8.56812e-05
10 *4456:C1 *838:124 0.000120255
11 *4456:C1 *845:26 0.000168265
*RES
1 *4455:X *4456:C1 37.4393 
*END

*D_NET *416 0.00745182
*CONN
*I *4496:A I *D sky130_fd_sc_hd__xor2_1
*I *4537:A1 I *D sky130_fd_sc_hd__a21o_1
*I *4580:A1 I *D sky130_fd_sc_hd__a21o_1
*I *4649:A2 I *D sky130_fd_sc_hd__a211o_1
*I *4457:X O *D sky130_fd_sc_hd__a21bo_1
*CAP
1 *4496:A 0
2 *4537:A1 0
3 *4580:A1 0.00019612
4 *4649:A2 1.41579e-05
5 *4457:X 0.00100483
6 *416:24 0.000964017
7 *416:16 0.00119262
8 *416:10 0.00144372
9 *4580:A1 *4580:A2 0.000197092
10 *4580:A1 *4580:B1 1.74352e-05
11 *4580:A1 *536:6 1.21289e-05
12 *4649:A2 *4580:A2 3.57366e-05
13 *416:10 *4496:B 3.51442e-05
14 *416:10 *772:16 0.000288375
15 *416:16 *4496:B 0.000613564
16 *416:16 *4537:A2 7.77751e-05
17 *416:16 *772:16 0.000279128
18 *416:24 *4495:B 0.000134758
19 *416:24 *4496:B 0
20 *416:24 *4537:B1 0.000130286
21 *416:24 *4578:D 9.34004e-05
22 *416:24 *4579:A1 0.000171062
23 *416:24 *450:36 0
24 *416:24 *452:17 0.000192931
25 *416:24 *454:10 0
26 *416:24 *493:23 0.000103267
27 *416:24 *536:6 0.000251754
28 *406:12 *416:10 2.51343e-06
*RES
1 *4457:X *416:10 28.9429 
2 *416:10 *416:16 14.8214 
3 *416:16 *416:24 26.6607 
4 *416:24 *4649:A2 9.72857 
5 *416:24 *4580:A1 12.3179 
6 *416:16 *4537:A1 9.3 
7 *416:10 *4496:A 13.8 
*END

*D_NET *417 0.00117196
*CONN
*I *4465:A_N I *D sky130_fd_sc_hd__nand2b_1
*I *4466:A I *D sky130_fd_sc_hd__xnor2_1
*I *4458:Y O *D sky130_fd_sc_hd__nor2_1
*CAP
1 *4465:A_N 6.58979e-05
2 *4466:A 0
3 *4458:Y 0.000361278
4 *417:8 0.000427176
5 *4465:A_N *4465:B 0.000232399
6 *4465:A_N *425:8 3.18676e-05
7 *417:8 *4465:B 2.14757e-05
8 *4458:B *417:8 3.18676e-05
*RES
1 *4458:Y *417:8 15.1929 
2 *417:8 *4466:A 9.3 
3 *417:8 *4465:A_N 11.4786 
*END

*D_NET *418 0.00431952
*CONN
*I *4463:B I *D sky130_fd_sc_hd__nand2b_1
*I *4464:A I *D sky130_fd_sc_hd__xnor2_1
*I *4459:Y O *D sky130_fd_sc_hd__o21ai_1
*CAP
1 *4463:B 4.88257e-05
2 *4464:A 8.53079e-05
3 *4459:Y 0.00160165
4 *418:14 0.00173578
5 *4463:B *4463:A_N 1.33343e-05
6 *4464:A *4463:A_N 0.000129868
7 *4464:A *423:12 0
8 *418:14 *4463:A_N 5.52302e-05
9 *418:14 *979:61 5.22045e-05
10 *418:14 *979:76 3.73468e-05
11 *418:14 *1000:89 0.000443648
12 *337:8 *418:14 5.52302e-05
13 *375:12 *418:14 3.05446e-05
14 *376:14 *418:14 3.05446e-05
*RES
1 *4459:Y *418:14 35.175 
2 *418:14 *4464:A 20.3714 
3 *418:14 *4463:B 10.3938 
*END

*D_NET *419 0.000607268
*CONN
*I *4462:A I *D sky130_fd_sc_hd__or2_1
*I *4460:X O *D sky130_fd_sc_hd__o2bb2a_1
*CAP
1 *4462:A 0.000233731
2 *4460:X 0.000233731
3 *4462:A *421:10 2.72967e-05
4 *4462:A *977:68 0
5 *4462:A *1003:30 9.25014e-06
6 *4418:B1 *4462:A 0.00010326
*RES
1 *4460:X *4462:A 31.5286 
*END

*D_NET *420 0.00142573
*CONN
*I *4462:B I *D sky130_fd_sc_hd__or2_1
*I *4511:A I *D sky130_fd_sc_hd__xor2_1
*I *4546:A1 I *D sky130_fd_sc_hd__a21oi_1
*I *4461:X O *D sky130_fd_sc_hd__and4b_1
*CAP
1 *4462:B 0.000142485
2 *4511:A 0
3 *4546:A1 8.66679e-05
4 *4461:X 0
5 *420:8 0.000414876
6 *420:4 0.000470694
7 *4462:B *4417:D 0
8 *4462:B *421:10 2.72859e-05
9 *4462:B *503:12 0
10 *4546:A1 *4511:B 0.000191877
11 *4546:A1 *468:10 1.02504e-05
12 *4546:A1 *503:12 8.15939e-05
*RES
1 *4461:X *420:4 9.3 
2 *420:4 *420:8 5.375 
3 *420:8 *4546:A1 21.1571 
4 *420:8 *4511:A 9.3 
5 *420:4 *4462:B 20.5857 
*END

*D_NET *421 0.00157058
*CONN
*I *4463:A_N I *D sky130_fd_sc_hd__nand2b_1
*I *4464:B I *D sky130_fd_sc_hd__xnor2_1
*I *4462:X O *D sky130_fd_sc_hd__or2_1
*CAP
1 *4463:A_N 0.000164824
2 *4464:B 0
3 *4462:X 0.000493956
4 *421:10 0.00065878
5 *4463:A_N *423:12 0
6 *4462:A *421:10 2.72967e-05
7 *4462:B *421:10 2.72859e-05
8 *4463:B *4463:A_N 1.33343e-05
9 *4464:A *4463:A_N 0.000129868
10 *418:14 *4463:A_N 5.52302e-05
*RES
1 *4462:X *421:10 20.0857 
2 *421:10 *4464:B 13.8 
3 *421:10 *4463:A_N 16.8893 
*END

*D_NET *422 0.00397306
*CONN
*I *4533:B1 I *D sky130_fd_sc_hd__o211a_1
*I *4532:A1 I *D sky130_fd_sc_hd__a211oi_2
*I *4463:Y O *D sky130_fd_sc_hd__nand2b_1
*CAP
1 *4533:B1 0
2 *4532:A1 0.000131751
3 *4463:Y 0.00154393
4 *422:8 0.00167568
5 *4532:A1 *4532:C1 7.79781e-06
6 *4532:A1 *4533:A1 3.17067e-05
7 *4532:A1 *4533:C1 0.000106542
8 *4532:A1 *488:23 7.71417e-05
9 *422:8 *4486:B 0.000271345
10 *422:8 *4530:A1 4.72917e-05
11 *422:8 *4530:B1 3.14178e-05
12 *422:8 *4533:A2 1.04232e-05
13 *422:8 *488:8 3.80385e-05
14 *11:9 *4532:A1 0
*RES
1 *4463:Y *422:8 28.2286 
2 *422:8 *4532:A1 21.6929 
3 *422:8 *4533:B1 9.3 
*END

*D_NET *423 0.00135506
*CONN
*I *4465:B I *D sky130_fd_sc_hd__nand2b_1
*I *4466:B I *D sky130_fd_sc_hd__xnor2_1
*I *4464:Y O *D sky130_fd_sc_hd__xnor2_1
*CAP
1 *4465:B 0.000144328
2 *4466:B 0
3 *4464:Y 0.000367825
4 *423:12 0.000512152
5 *4465:B *425:8 1.98302e-05
6 *423:12 *442:6 5.70551e-05
7 *4463:A_N *423:12 0
8 *4464:A *423:12 0
9 *4465:A_N *4465:B 0.000232399
10 *417:8 *4465:B 2.14757e-05
*RES
1 *4464:Y *423:12 24.1393 
2 *423:12 *4466:B 9.3 
3 *423:12 *4465:B 12.858 
*END

*D_NET *424 0.00212188
*CONN
*I *4532:A2 I *D sky130_fd_sc_hd__a211oi_2
*I *4533:C1 I *D sky130_fd_sc_hd__o211a_1
*I *4465:Y O *D sky130_fd_sc_hd__nand2b_1
*CAP
1 *4532:A2 0
2 *4533:C1 7.39048e-05
3 *4465:Y 0.000597985
4 *424:10 0.00067189
5 *4533:C1 *4530:B1 3.34295e-05
6 *424:10 *4485:C 8.43535e-06
7 *424:10 *4486:A 5.39653e-06
8 *424:10 *4487:A2 0.000197107
9 *424:10 *4487:B1 9.17091e-05
10 *424:10 *425:8 7.95313e-05
11 *424:10 *425:12 5.33334e-05
12 *424:10 *443:23 0.000140933
13 *4532:A1 *4533:C1 0.000106542
14 *11:9 *4533:C1 6.16864e-05
*RES
1 *4465:Y *424:10 21.4786 
2 *424:10 *4533:C1 20.8536 
3 *424:10 *4532:A2 9.3 
*END

*D_NET *425 0.00172601
*CONN
*I *4485:A I *D sky130_fd_sc_hd__and3_1
*I *4487:B1 I *D sky130_fd_sc_hd__a21oi_1
*I *4486:A I *D sky130_fd_sc_hd__nand3_1
*I *4466:Y O *D sky130_fd_sc_hd__xnor2_1
*CAP
1 *4485:A 0
2 *4487:B1 2.81498e-05
3 *4486:A 0.000156781
4 *4466:Y 0.000363861
5 *425:12 0.000243934
6 *425:8 0.000422864
7 *4486:A *4487:A2 0
8 *4486:A *4531:C1 3.34295e-05
9 *4486:A *442:41 0
10 *4486:A *443:23 5.57727e-05
11 *4486:A *446:8 1.19402e-05
12 *4487:B1 *4485:C 0.00012761
13 *425:8 *4485:C 0
14 *425:12 *4485:C 0
15 *4465:A_N *425:8 3.18676e-05
16 *4465:B *425:8 1.98302e-05
17 *424:10 *4486:A 5.39653e-06
18 *424:10 *4487:B1 9.17091e-05
19 *424:10 *425:8 7.95313e-05
20 *424:10 *425:12 5.33334e-05
*RES
1 *4466:Y *425:8 14.3714 
2 *425:8 *425:12 1.375 
3 *425:12 *4486:A 21.2821 
4 *425:12 *4487:B1 10.6571 
5 *425:8 *4485:A 9.3 
*END

*D_NET *426 0.000360889
*CONN
*I *4471:A I *D sky130_fd_sc_hd__xnor2_2
*I *4467:Y O *D sky130_fd_sc_hd__nand2_1
*CAP
1 *4471:A 0.000122973
2 *4467:Y 0.000122973
3 *4471:A *4467:A 3.18676e-05
4 *4471:A *430:12 1.33343e-05
5 *4471:A *463:16 6.97409e-05
*RES
1 *4467:Y *4471:A 21.2071 
*END

*D_NET *427 0.00158801
*CONN
*I *4470:A_N I *D sky130_fd_sc_hd__and2b_1
*I *4505:B1 I *D sky130_fd_sc_hd__a31o_1
*I *4468:X O *D sky130_fd_sc_hd__and4_1
*CAP
1 *4470:A_N 0.000118676
2 *4505:B1 9.60119e-05
3 *4468:X 0.000146911
4 *427:12 0.000361599
5 *4470:A_N *4470:B 0.000227539
6 *4470:A_N *4505:A1 0.000137515
7 *4470:A_N *979:61 7.77751e-05
8 *4505:B1 *4470:B 5.33005e-05
9 *4505:B1 *4505:A1 6.86693e-05
10 *427:12 *4470:B 3.34295e-05
11 *427:12 *428:10 0.000123295
12 *427:12 *984:59 4.71964e-05
13 *427:12 *1004:137 9.60939e-05
*RES
1 *4468:X *427:12 21.1929 
2 *427:12 *4505:B1 11.0679 
3 *427:12 *4470:A_N 13.1214 
*END

*D_NET *428 0.00203827
*CONN
*I *4470:B I *D sky130_fd_sc_hd__and2b_1
*I *4505:A3 I *D sky130_fd_sc_hd__a31o_1
*I *4469:X O *D sky130_fd_sc_hd__a22o_1
*CAP
1 *4470:B 0.000154624
2 *4505:A3 0
3 *4469:X 0.000224022
4 *428:10 0.000378646
5 *4470:B *1000:89 4.73656e-05
6 *428:10 *478:12 0.000219711
7 *428:10 *984:59 0.000221641
8 *428:10 *1000:43 0.00028855
9 *428:10 *1000:76 5.59013e-05
10 *428:10 *1000:89 1.02504e-05
11 *4470:A_N *4470:B 0.000227539
12 *4505:B1 *4470:B 5.33005e-05
13 *427:12 *4470:B 3.34295e-05
14 *427:12 *428:10 0.000123295
*RES
1 *4469:X *428:10 20.3536 
2 *428:10 *4505:A3 13.8 
3 *428:10 *4470:B 17.1214 
*END

*D_NET *429 0.000375401
*CONN
*I *4471:B I *D sky130_fd_sc_hd__xnor2_2
*I *4470:X O *D sky130_fd_sc_hd__and2b_1
*CAP
1 *4471:B 8.67171e-05
2 *4470:X 8.67171e-05
3 *4471:B *430:12 1.92905e-05
4 *4471:B *463:16 5.52302e-05
5 *4471:B *984:59 0.000127446
*RES
1 *4470:X *4471:B 29.7786 
*END

*D_NET *430 0.00173703
*CONN
*I *4525:A1 I *D sky130_fd_sc_hd__a21bo_1
*I *4480:A I *D sky130_fd_sc_hd__nand3_2
*I *4481:B1 I *D sky130_fd_sc_hd__a21o_1
*I *4471:Y O *D sky130_fd_sc_hd__xnor2_2
*CAP
1 *4525:A1 0
2 *4480:A 0
3 *4481:B1 3.55893e-05
4 *4471:Y 0.000407558
5 *430:20 0.000239032
6 *430:12 0.000611001
7 *4481:B1 *4480:B 0.000139907
8 *4481:B1 *438:18 7.32272e-05
9 *430:12 *463:16 6.55144e-05
10 *430:12 *979:61 0
11 *430:12 *984:59 0
12 *430:20 *4525:A2 0
13 *430:20 *439:10 1.19309e-05
14 *430:20 *984:59 0.000120645
15 *4471:A *430:12 1.33343e-05
16 *4471:B *430:12 1.92905e-05
*RES
1 *4471:Y *430:12 23.7643 
2 *430:12 *430:20 13.2143 
3 *430:20 *4481:B1 10.6571 
4 *430:20 *4480:A 9.3 
5 *430:12 *4525:A1 9.3 
*END

*D_NET *431 0.00277134
*CONN
*I *4476:B I *D sky130_fd_sc_hd__or4bb_4
*I *4475:A1_N I *D sky130_fd_sc_hd__a2bb2o_1
*I *4517:A I *D sky130_fd_sc_hd__or3b_1
*I *5105:A I *D sky130_fd_sc_hd__dlymetal6s4s_1
*I *5104:A I *D sky130_fd_sc_hd__dlygate4sd1_1
*I *4472:X O *D sky130_fd_sc_hd__and3_4
*CAP
1 *4476:B 8.12074e-05
2 *4475:A1_N 2.23854e-05
3 *4517:A 0
4 *5105:A 0
5 *5104:A 2.25583e-05
6 *4472:X 0
7 *431:37 0.000313306
8 *431:12 0.000100363
9 *431:8 0.000186964
10 *431:6 0.000318873
11 *4476:B *4476:A 0.000193814
12 *4476:B *4476:D_N 1.39726e-05
13 *4476:B *985:61 0.000386507
14 *5104:A *4518:A2_N 5.71472e-05
15 *431:8 *4473:B1 5.83304e-05
16 *431:8 *432:8 6.80677e-05
17 *431:8 *993:34 0
18 *431:12 *4518:A2_N 6.97972e-05
19 *431:12 *4522:A2 0.000128161
20 *431:12 *5106:A 0
21 *431:12 *432:8 4.48583e-05
22 *431:12 *993:34 0
23 *431:37 *4473:B1 0.000144512
24 *431:37 *4476:A 2.44318e-05
25 *431:37 *4476:D_N 9.22103e-06
26 *431:37 *432:42 5.62995e-05
27 *431:37 *985:51 0.000228558
28 *431:37 *985:61 0.000230482
29 *431:37 *995:110 1.15281e-05
*RES
1 *4472:X *431:6 13.8 
2 *431:6 *431:8 2.55357 
3 *431:8 *431:12 7.05357 
4 *431:12 *5104:A 9.83571 
5 *431:12 *5105:A 9.3 
6 *431:8 *4517:A 13.8 
7 *431:6 *431:37 10.6786 
8 *431:37 *4475:A1_N 9.72857 
9 *431:37 *4476:B 13.1214 
*END

*D_NET *432 0.00411078
*CONN
*I *4476:A I *D sky130_fd_sc_hd__or4bb_4
*I *4475:A2_N I *D sky130_fd_sc_hd__a2bb2o_1
*I *4517:B I *D sky130_fd_sc_hd__or3b_1
*I *4518:A2_N I *D sky130_fd_sc_hd__a2bb2o_1
*I *4473:Y O *D sky130_fd_sc_hd__o21ai_2
*CAP
1 *4476:A 9.87561e-05
2 *4475:A2_N 0
3 *4517:B 0
4 *4518:A2_N 0.000327913
5 *4473:Y 0
6 *432:42 0.000289307
7 *432:8 0.00050804
8 *432:4 0.000370678
9 *4476:A *4476:D_N 0.000363002
10 *4518:A2_N *4518:A1_N 0.000273269
11 *4518:A2_N *4518:B2 0.000228558
12 *4518:A2_N *4522:A2 7.80714e-06
13 *4518:A2_N *5106:A 1.74352e-05
14 *4518:A2_N *985:38 7.4826e-05
15 *4518:A2_N *995:40 9.25014e-06
16 *432:8 *4473:B1 0.000250208
17 *432:8 *985:38 4.13573e-05
18 *432:8 *985:51 0.000195481
19 *432:8 *993:53 0
20 *432:42 *4473:B1 0
21 *432:42 *4476:D_N 5.62995e-05
22 *432:42 *985:51 0.000167988
23 *432:42 *995:110 0.000316184
24 *432:42 *999:29 0
25 *4476:B *4476:A 0.000193814
26 *5104:A *4518:A2_N 5.71472e-05
27 *431:8 *432:8 6.80677e-05
28 *431:12 *4518:A2_N 6.97972e-05
29 *431:12 *432:8 4.48583e-05
30 *431:37 *4476:A 2.44318e-05
31 *431:37 *432:42 5.62995e-05
*RES
1 *4473:Y *432:4 9.3 
2 *432:4 *432:8 10.6964 
3 *432:8 *4518:A2_N 22.0321 
4 *432:8 *4517:B 13.8 
5 *432:4 *432:42 14.5714 
6 *432:42 *4475:A2_N 9.3 
7 *432:42 *4476:A 13.55 
*END

*D_NET *433 0.00147485
*CONN
*I *4519:A3 I *D sky130_fd_sc_hd__a31o_1
*I *4554:B1 I *D sky130_fd_sc_hd__a21oi_2
*I *4474:X O *D sky130_fd_sc_hd__o21a_1
*CAP
1 *4519:A3 1.1624e-05
2 *4554:B1 0.000309691
3 *4474:X 0.000185179
4 *433:8 0.000506495
5 *4519:A3 *4519:B1 5.52238e-05
6 *4519:A3 *995:40 5.52238e-05
7 *4554:B1 *4522:B1 0.000129868
8 *4554:B1 *4554:A1 0
9 *4554:B1 *841:118 0
10 *4554:B1 *979:12 0
11 *4554:B1 *979:36 5.52302e-05
12 *4554:B1 *995:48 5.80706e-06
13 *433:8 *985:38 0
14 *433:8 *985:51 0
15 *433:8 *995:48 0.000160507
*RES
1 *4474:X *433:8 17.8714 
2 *433:8 *4554:B1 19.3179 
3 *433:8 *4519:A3 14.3357 
*END

*D_NET *434 0.00103333
*CONN
*I *4478:A I *D sky130_fd_sc_hd__nand3_1
*I *4479:A2 I *D sky130_fd_sc_hd__a21o_1
*I *4475:X O *D sky130_fd_sc_hd__a2bb2o_1
*CAP
1 *4478:A 0.000208213
2 *4479:A2 0
3 *4475:X 7.02433e-05
4 *434:10 0.000278457
5 *4478:A *4478:B 2.95726e-05
6 *4478:A *4478:C 0.00014183
7 *4478:A *4479:A1 1.39841e-05
8 *4478:A *436:14 5.52302e-05
9 *4478:A *437:6 5.30637e-06
10 *4478:A *438:10 0.000100625
11 *434:10 *999:29 0.000129868
*RES
1 *4475:X *434:10 19.9429 
2 *434:10 *4479:A2 9.3 
3 *434:10 *4478:A 13.9786 
*END

*D_NET *435 0.000855491
*CONN
*I *4478:B I *D sky130_fd_sc_hd__nand3_1
*I *4479:A1 I *D sky130_fd_sc_hd__a21o_1
*I *4476:X O *D sky130_fd_sc_hd__or4bb_4
*CAP
1 *4478:B 0.000185945
2 *4479:A1 7.6156e-05
3 *4476:X 3.39848e-05
4 *435:10 0.000296086
5 *4478:B *4478:C 6.71755e-05
6 *4478:B *436:14 6.05161e-06
7 *4479:A1 *436:14 2.89016e-05
8 *435:10 *997:27 7.83587e-05
9 *435:10 *999:29 3.92757e-05
10 *4478:A *4478:B 2.95726e-05
11 *4478:A *4479:A1 1.39841e-05
*RES
1 *4476:X *435:10 19.3357 
2 *435:10 *4479:A1 10.2464 
3 *435:10 *4478:B 11.9071 
*END

*D_NET *436 0.00343208
*CONN
*I *4478:C I *D sky130_fd_sc_hd__nand3_1
*I *4479:B1 I *D sky130_fd_sc_hd__a21o_1
*I *4477:Y O *D sky130_fd_sc_hd__o21bai_1
*CAP
1 *4478:C 3.01327e-05
2 *4479:B1 0
3 *4477:Y 0.000801318
4 *436:14 0.000831451
5 *436:14 *4422:C 2.04825e-05
6 *436:14 *4422:D 1.24368e-05
7 *436:14 *4990:A 0.00091971
8 *436:14 *997:27 0.00017244
9 *436:14 *999:29 0.000344917
10 *4478:A *4478:C 0.00014183
11 *4478:A *436:14 5.52302e-05
12 *4478:B *4478:C 6.71755e-05
13 *4478:B *436:14 6.05161e-06
14 *4479:A1 *436:14 2.89016e-05
*RES
1 *4477:Y *436:14 32.7821 
2 *436:14 *4479:B1 9.3 
3 *436:14 *4478:C 10.6571 
*END

*D_NET *437 0.00291803
*CONN
*I *4525:B1_N I *D sky130_fd_sc_hd__a21bo_1
*I *4480:B I *D sky130_fd_sc_hd__nand3_2
*I *4481:A2 I *D sky130_fd_sc_hd__a21o_1
*I *4478:Y O *D sky130_fd_sc_hd__nand3_1
*CAP
1 *4525:B1_N 0.000186617
2 *4480:B 0.000230199
3 *4481:A2 0
4 *4478:Y 0.000585324
5 *437:12 0.000328076
6 *437:6 0.000869818
7 *4480:B *438:18 7.02207e-05
8 *4525:B1_N *438:10 5.39629e-06
9 *437:6 *438:10 6.90219e-05
10 *437:12 *4481:A1 4.97876e-05
11 *437:12 *438:10 0.00010326
12 *437:12 *984:59 0
13 *437:12 *1000:89 0.000275094
14 *4478:A *437:6 5.30637e-06
15 *4481:B1 *4480:B 0.000139907
*RES
1 *4478:Y *437:6 15.9964 
2 *437:6 *437:12 12.4643 
3 *437:12 *4481:A2 9.3 
4 *437:12 *4480:B 13.5679 
5 *437:6 *4525:B1_N 11.4786 
*END

*D_NET *438 0.00288543
*CONN
*I *4481:A1 I *D sky130_fd_sc_hd__a21o_1
*I *5101:A I *D sky130_fd_sc_hd__buf_2
*I *4480:C I *D sky130_fd_sc_hd__nand3_2
*I *4479:X O *D sky130_fd_sc_hd__a21o_1
*CAP
1 *4481:A1 1.4048e-05
2 *5101:A 5.54571e-05
3 *4480:C 0
4 *4479:X 0.000792703
5 *438:18 0.000332302
6 *438:10 0.0010836
7 *4481:A1 *984:59 2.19778e-05
8 *5101:A *4525:A2 5.23057e-05
9 *438:10 *984:59 3.34672e-05
10 *438:18 *4525:A2 2.80368e-05
11 *4478:A *438:10 0.000100625
12 *4480:B *438:18 7.02207e-05
13 *4481:B1 *438:18 7.32272e-05
14 *4525:B1_N *438:10 5.39629e-06
15 *437:6 *438:10 6.90219e-05
16 *437:12 *4481:A1 4.97876e-05
17 *437:12 *438:10 0.00010326
*RES
1 *4479:X *438:10 23.8893 
2 *438:10 *438:18 9.58929 
3 *438:18 *4480:C 9.3 
4 *438:18 *5101:A 10.6571 
5 *438:10 *4481:A1 14.5321 
*END

*D_NET *439 0.00082416
*CONN
*I *4484:A2 I *D sky130_fd_sc_hd__a21o_1
*I *4483:A I *D sky130_fd_sc_hd__nand3_2
*I *4480:Y O *D sky130_fd_sc_hd__nand3_2
*CAP
1 *4484:A2 1.16062e-05
2 *4483:A 0
3 *4480:Y 0.000337865
4 *439:10 0.000349471
5 *4484:A2 *4483:C 5.52302e-05
6 *4484:A2 *4484:A1 5.52302e-05
7 *439:10 *440:10 0
8 *439:10 *441:10 2.8266e-06
9 *439:10 *979:61 0
10 *439:10 *984:59 0
11 *430:20 *439:10 1.19309e-05
*RES
1 *4480:Y *439:10 23.5857 
2 *439:10 *4483:A 9.3 
3 *439:10 *4484:A2 9.83571 
*END

*D_NET *440 0.00128167
*CONN
*I *4484:A1 I *D sky130_fd_sc_hd__a21o_1
*I *4483:B I *D sky130_fd_sc_hd__nand3_2
*I *4481:X O *D sky130_fd_sc_hd__a21o_1
*CAP
1 *4484:A1 6.40354e-05
2 *4483:B 0
3 *4481:X 0.000175439
4 *440:10 0.000239474
5 *4484:A1 *4483:C 0.000128044
6 *4484:A1 *4992:A 0.000276211
7 *440:10 *984:59 0.000343233
8 *4484:A2 *4484:A1 5.52302e-05
9 *439:10 *440:10 0
*RES
1 *4481:X *440:10 22.675 
2 *440:10 *4483:B 9.3 
3 *440:10 *4484:A1 12.3179 
*END

*D_NET *441 0.00163878
*CONN
*I *4484:B1 I *D sky130_fd_sc_hd__a21o_1
*I *4483:C I *D sky130_fd_sc_hd__nand3_2
*I *4482:X O *D sky130_fd_sc_hd__a21bo_1
*CAP
1 *4484:B1 1.17005e-05
2 *4483:C 0.000158273
3 *4482:X 0.000335771
4 *441:10 0.000505745
5 *4483:C *4992:A 2.42547e-05
6 *4483:C *442:6 0.000185643
7 *4484:B1 *4992:A 2.89114e-05
8 *4484:B1 *442:6 2.44318e-05
9 *441:10 *977:68 0
10 *441:10 *977:83 0
11 *441:10 *984:59 0
12 *441:10 *1008:14 0
13 *4484:A1 *4483:C 0.000128044
14 *4484:A2 *4483:C 5.52302e-05
15 *181:46 *441:10 0.000177948
16 *439:10 *441:10 2.8266e-06
*RES
1 *4482:X *441:10 24.8 
2 *441:10 *4483:C 13.5679 
3 *441:10 *4484:B1 9.83571 
*END

*D_NET *442 0.007184
*CONN
*I *4485:C I *D sky130_fd_sc_hd__and3_1
*I *4487:A1 I *D sky130_fd_sc_hd__a21oi_1
*I *4530:A1 I *D sky130_fd_sc_hd__a211oi_4
*I *4486:B I *D sky130_fd_sc_hd__nand3_1
*I *4531:B1 I *D sky130_fd_sc_hd__o211a_1
*I *4483:Y O *D sky130_fd_sc_hd__nand3_2
*CAP
1 *4485:C 0.000196294
2 *4487:A1 0
3 *4530:A1 6.16458e-05
4 *4486:B 7.12039e-05
5 *4531:B1 5.30852e-05
6 *4483:Y 0.000968493
7 *442:41 0.00037604
8 *442:23 0.00013285
9 *442:21 0.000423804
10 *442:6 0.00126564
11 *4485:C *4487:A2 8.04757e-05
12 *4485:C *446:8 1.08359e-05
13 *4486:B *4530:A2 4.72917e-05
14 *4486:B *445:8 2.89016e-05
15 *4531:B1 *4531:A2 5.7661e-06
16 *442:6 *4992:A 6.22419e-05
17 *442:6 *443:10 0.0023567
18 *442:6 *977:68 0.000161868
19 *442:21 *4530:C1 0
20 *442:21 *4531:A1 6.05161e-06
21 *442:21 *4531:A2 1.55885e-05
22 *442:21 *4531:C1 0
23 *442:21 *443:10 0
24 *442:21 *487:12 5.66157e-05
25 *442:41 *4487:A2 8.08022e-05
26 *442:41 *4531:C1 0
27 *4483:C *442:6 0.000185643
28 *4484:B1 *442:6 2.44318e-05
29 *4486:A *442:41 0
30 *4487:B1 *4485:C 0.00012761
31 *422:8 *4486:B 0.000271345
32 *422:8 *4530:A1 4.72917e-05
33 *423:12 *442:6 5.70551e-05
34 *424:10 *4485:C 8.43535e-06
35 *425:8 *4485:C 0
36 *425:12 *4485:C 0
*RES
1 *4483:Y *442:6 36.5321 
2 *442:6 *4531:B1 10.5679 
3 *442:6 *442:21 8.41071 
4 *442:21 *442:23 4.5 
5 *442:23 *4486:B 11.8893 
6 *442:23 *4530:A1 10.675 
7 *442:21 *442:41 3.16071 
8 *442:41 *4487:A1 13.8 
9 *442:41 *4485:C 17.1214 
*END

*D_NET *443 0.00717351
*CONN
*I *4487:A2 I *D sky130_fd_sc_hd__a21oi_1
*I *4485:B I *D sky130_fd_sc_hd__and3_1
*I *4486:C I *D sky130_fd_sc_hd__nand3_1
*I *4484:X O *D sky130_fd_sc_hd__a21o_1
*CAP
1 *4487:A2 0.000220798
2 *4485:B 0
3 *4486:C 0
4 *4484:X 0.00167123
5 *443:23 0.000420453
6 *443:10 0.00187088
7 *4487:A2 *446:8 7.83587e-05
8 *443:10 *4531:C1 0
9 *443:23 *4531:C1 0
10 *4485:C *4487:A2 8.04757e-05
11 *4486:A *4487:A2 0
12 *4486:A *443:23 5.57727e-05
13 *424:10 *4487:A2 0.000197107
14 *424:10 *443:23 0.000140933
15 *442:6 *443:10 0.0023567
16 *442:21 *443:10 0
17 *442:41 *4487:A2 8.08022e-05
*RES
1 *4484:X *443:10 38.9607 
2 *443:10 *4486:C 13.8 
3 *443:10 *443:23 8.10714 
4 *443:23 *4485:B 9.3 
5 *443:23 *4487:A2 22.7821 
*END

*D_NET *444 0.00194923
*CONN
*I *4490:A2 I *D sky130_fd_sc_hd__o211a_1
*I *4489:B1 I *D sky130_fd_sc_hd__a211o_1
*I *4488:B1 I *D sky130_fd_sc_hd__a211oi_1
*I *4485:X O *D sky130_fd_sc_hd__and3_1
*CAP
1 *4490:A2 0.000134188
2 *4489:B1 3.04135e-05
3 *4488:B1 5.35233e-05
4 *4485:X 0.000141376
5 *444:19 0.000247818
6 *444:8 0.000278116
7 *4488:B1 *4488:C1 6.05161e-06
8 *4489:B1 *448:6 5.33005e-05
9 *4490:A2 *4490:A1 9.65075e-05
10 *4490:A2 *446:21 9.25014e-06
11 *444:8 *446:8 0.000270236
12 *444:19 *446:8 5.83304e-05
13 *444:19 *446:21 0.000192585
14 *4488:A2 *444:19 1.3142e-05
15 *4489:A1 *444:19 0.000128154
16 *4490:B1 *4490:A2 3.93346e-05
17 *380:6 *4490:A2 9.71197e-05
18 *398:16 *4490:A2 9.9784e-05
*RES
1 *4485:X *444:8 17.2643 
2 *444:8 *4488:B1 14.3357 
3 *444:8 *444:19 3.16071 
4 *444:19 *4489:B1 14.3357 
5 *444:19 *4490:A2 17.7286 
*END

*D_NET *445 0.000600221
*CONN
*I *4530:A2 I *D sky130_fd_sc_hd__a211oi_4
*I *4531:C1 I *D sky130_fd_sc_hd__o211a_1
*I *4486:Y O *D sky130_fd_sc_hd__nand3_1
*CAP
1 *4530:A2 4.12559e-05
2 *4531:C1 0.000151476
3 *4486:Y 5.25672e-05
4 *445:8 0.000245299
5 *4486:A *4531:C1 3.34295e-05
6 *4486:B *4530:A2 4.72917e-05
7 *4486:B *445:8 2.89016e-05
8 *442:21 *4531:C1 0
9 *442:41 *4531:C1 0
10 *443:10 *4531:C1 0
11 *443:23 *4531:C1 0
*RES
1 *4486:Y *445:8 10.2643 
2 *445:8 *4531:C1 20.8536 
3 *445:8 *4530:A2 10.2464 
*END

*D_NET *446 0.00193525
*CONN
*I *4490:A1 I *D sky130_fd_sc_hd__o211a_1
*I *4489:C1 I *D sky130_fd_sc_hd__a211o_1
*I *4488:C1 I *D sky130_fd_sc_hd__a211oi_1
*I *4487:Y O *D sky130_fd_sc_hd__a21oi_1
*CAP
1 *4490:A1 0.000142975
2 *4489:C1 0
3 *4488:C1 3.49438e-05
4 *4487:Y 0.000247299
5 *446:21 0.000264127
6 *446:8 0.000403395
7 *4490:A1 *4492:A1 1.59782e-05
8 *446:21 *447:10 0
9 *4485:C *446:8 1.08359e-05
10 *4486:A *446:8 1.19402e-05
11 *4487:A2 *446:8 7.83587e-05
12 *4488:B1 *4488:C1 6.05161e-06
13 *4490:A2 *4490:A1 9.65075e-05
14 *4490:A2 *446:21 9.25014e-06
15 *4491:C *4490:A1 9.24395e-05
16 *398:16 *4490:A1 0
17 *444:8 *446:8 0.000270236
18 *444:19 *446:8 5.83304e-05
19 *444:19 *446:21 0.000192585
*RES
1 *4487:Y *446:8 19.0857 
2 *446:8 *4488:C1 14.3357 
3 *446:8 *446:21 3.08929 
4 *446:21 *4489:C1 13.8 
5 *446:21 *4490:A1 17.1929 
*END

*D_NET *447 0.000944096
*CONN
*I *4492:A1 I *D sky130_fd_sc_hd__o21ai_1
*I *4491:B I *D sky130_fd_sc_hd__or3_4
*I *4488:Y O *D sky130_fd_sc_hd__a211oi_1
*CAP
1 *4492:A1 0.00013586
2 *4491:B 0
3 *4488:Y 0.000170543
4 *447:10 0.000306403
5 *4492:A1 *4491:A 8.06427e-05
6 *4492:A1 *849:16 0
7 *447:10 *4491:A 5.80706e-06
8 *4490:A1 *4492:A1 1.59782e-05
9 *4491:C *4492:A1 0.000165269
10 *4491:C *447:10 1.02504e-05
11 *4492:B1 *4492:A1 5.33433e-05
12 *11:9 *447:10 0
13 *446:21 *447:10 0
*RES
1 *4488:Y *447:10 16.6929 
2 *447:10 *4491:B 13.8 
3 *447:10 *4492:A1 17.6036 
*END

*D_NET *448 0.00216283
*CONN
*I *4534:B1 I *D sky130_fd_sc_hd__o211ai_2
*I *4535:A2 I *D sky130_fd_sc_hd__a211o_1
*I *4489:X O *D sky130_fd_sc_hd__a211o_1
*CAP
1 *4534:B1 4.36414e-05
2 *4535:A2 0.00016566
3 *4489:X 0.000543643
4 *448:6 0.000752944
5 *4534:B1 *849:24 2.89114e-05
6 *4535:A2 *4534:A1 4.75428e-05
7 *4535:A2 *4534:A2 0
8 *4535:A2 *4535:A1 0
9 *4535:A2 *450:25 0
10 *4535:A2 *490:31 4.1331e-06
11 *4535:A2 *493:10 0
12 *448:6 *4534:C1 0.000186669
13 *448:6 *450:10 0.000101157
14 *448:6 *849:24 0.000235232
15 *4489:B1 *448:6 5.33005e-05
16 *11:9 *4535:A2 0
*RES
1 *4489:X *448:6 20.5143 
2 *448:6 *4535:A2 20.8536 
3 *448:6 *4534:B1 10.2643 
*END

*D_NET *449 0.000525002
*CONN
*I *4492:A2 I *D sky130_fd_sc_hd__o21ai_1
*I *4491:A I *D sky130_fd_sc_hd__or3_4
*I *4490:X O *D sky130_fd_sc_hd__o211a_1
*CAP
1 *4492:A2 3.10251e-05
2 *4491:A 7.41502e-05
3 *4490:X 3.92359e-05
4 *449:6 0.000144411
5 *4491:A *849:16 3.92757e-05
6 *4492:A1 *4491:A 8.06427e-05
7 *4492:B1 *4492:A2 5.52302e-05
8 *4492:B1 *449:6 5.52238e-05
9 *11:9 *4491:A 0
10 *447:10 *4491:A 5.80706e-06
*RES
1 *4490:X *449:6 9.83571 
2 *449:6 *4491:A 20.2464 
3 *449:6 *4492:A2 9.83571 
*END

*D_NET *450 0.00340128
*CONN
*I *4493:B1 I *D sky130_fd_sc_hd__o211a_1
*I *4494:A2 I *D sky130_fd_sc_hd__a211o_1
*I *4534:C1 I *D sky130_fd_sc_hd__o211ai_2
*I *4535:A1 I *D sky130_fd_sc_hd__a211o_1
*I *4491:X O *D sky130_fd_sc_hd__or3_4
*CAP
1 *4493:B1 0.000136905
2 *4494:A2 0.000143477
3 *4534:C1 2.60844e-05
4 *4535:A1 0.000221761
5 *4491:X 0.000217434
6 *450:36 0.000592695
7 *450:25 0.000396723
8 *450:10 0.000497521
9 *4493:B1 *4493:C1 0
10 *4493:B1 *4495:B 0
11 *4494:A2 *453:8 0.000227532
12 *4534:C1 *849:24 0.000186669
13 *4535:A1 *493:10 0.00014183
14 *450:36 *4578:D 0
15 *4535:A2 *4535:A1 0
16 *4535:A2 *450:25 0
17 *11:9 *4493:B1 4.97918e-05
18 *11:9 *4535:A1 3.56976e-05
19 *11:9 *450:25 3.60626e-05
20 *11:9 *450:36 0.000203268
21 *416:24 *450:36 0
22 *448:6 *4534:C1 0.000186669
23 *448:6 *450:10 0.000101157
*RES
1 *4491:X *450:10 16.8179 
2 *450:10 *4535:A1 18.1571 
3 *450:10 *450:25 1.33929 
4 *450:25 *4534:C1 15.5679 
5 *450:25 *450:36 7.10714 
6 *450:36 *4494:A2 16.8 
7 *450:36 *4493:B1 16.05 
*END

*D_NET *451 0.00152978
*CONN
*I *4493:C1 I *D sky130_fd_sc_hd__o211a_1
*I *4494:A1 I *D sky130_fd_sc_hd__a211o_1
*I *4492:Y O *D sky130_fd_sc_hd__o21ai_1
*CAP
1 *4493:C1 0.00013805
2 *4494:A1 0
3 *4492:Y 0.000158408
4 *451:8 0.000296458
5 *4493:C1 *849:16 0.000166976
6 *451:8 *849:16 0.000349061
7 *4493:A1 *4493:C1 0.000274294
8 *4493:A2 *4493:C1 0.000146533
9 *4493:B1 *4493:C1 0
10 *11:9 *4493:C1 0
11 *11:9 *451:8 0
*RES
1 *4492:Y *451:8 18.175 
2 *451:8 *4494:A1 13.8 
3 *451:8 *4493:C1 18.6393 
*END

*D_NET *452 0.00212333
*CONN
*I *4537:B1 I *D sky130_fd_sc_hd__a21o_1
*I *4578:A_N I *D sky130_fd_sc_hd__and4b_1
*I *4579:A1 I *D sky130_fd_sc_hd__a21bo_1
*I *4495:A_N I *D sky130_fd_sc_hd__and2b_1
*I *4493:X O *D sky130_fd_sc_hd__o211a_1
*CAP
1 *4537:B1 0.000127557
2 *4578:A_N 1.7778e-05
3 *4579:A1 0.000147281
4 *4495:A_N 0
5 *4493:X 0.000150223
6 *452:17 0.000360707
7 *452:15 0.00035199
8 *452:6 0.000179008
9 *4537:B1 *4538:A 0
10 *4578:A_N *4578:D 5.52238e-05
11 *4578:A_N *493:23 2.59355e-05
12 *4579:A1 *4536:A 0
13 *4579:A1 *492:19 0
14 *4579:A1 *493:23 0.000125724
15 *452:6 *772:114 7.35937e-05
16 *452:15 *772:114 1.40306e-05
17 *452:17 *4538:A 0
18 *416:24 *4537:B1 0.000130286
19 *416:24 *4579:A1 0.000171062
20 *416:24 *452:17 0.000192931
*RES
1 *4493:X *452:6 11.8893 
2 *452:6 *4495:A_N 9.3 
3 *452:6 *452:15 5.03571 
4 *452:15 *452:17 4.67857 
5 *452:17 *4579:A1 17.4071 
6 *452:17 *4578:A_N 14.3357 
7 *452:15 *4537:B1 16.9607 
*END

*D_NET *453 0.00206299
*CONN
*I *4495:B I *D sky130_fd_sc_hd__and2b_1
*I *4578:D I *D sky130_fd_sc_hd__and4b_1
*I *4494:X O *D sky130_fd_sc_hd__a211o_1
*CAP
1 *4495:B 0.000131434
2 *4578:D 0.000284061
3 *4494:X 0.000298395
4 *453:8 0.00071389
5 *4495:B *454:10 5.80706e-06
6 *4578:D *4536:A 6.63281e-05
7 *4578:D *4536:B 2.44318e-05
8 *4578:D *493:23 2.77289e-05
9 *4493:B1 *4495:B 0
10 *4494:A2 *453:8 0.000227532
11 *4578:A_N *4578:D 5.52238e-05
12 *416:24 *4495:B 0.000134758
13 *416:24 *4578:D 9.34004e-05
14 *450:36 *4578:D 0
*RES
1 *4494:X *453:8 19.2643 
2 *453:8 *4578:D 19.5723 
3 *453:8 *4495:B 16.9607 
*END

*D_NET *454 0.00181835
*CONN
*I *4537:A2 I *D sky130_fd_sc_hd__a21o_1
*I *4496:B I *D sky130_fd_sc_hd__xor2_1
*I *4495:X O *D sky130_fd_sc_hd__and2b_1
*CAP
1 *4537:A2 5.11824e-05
2 *4496:B 0.000353029
3 *4495:X 0.000128784
4 *454:10 0.000532995
5 *4496:B *772:16 2.00751e-05
6 *454:10 *772:16 0
7 *4495:B *454:10 5.80706e-06
8 *416:10 *4496:B 3.51442e-05
9 *416:16 *4496:B 0.000613564
10 *416:16 *4537:A2 7.77751e-05
11 *416:24 *4496:B 0
12 *416:24 *454:10 0
*RES
1 *4495:X *454:10 20.55 
2 *454:10 *4496:B 27.4786 
3 *454:10 *4537:A2 10.6571 
*END

*D_NET *455 0.000893926
*CONN
*I *4498:B I *D sky130_fd_sc_hd__or2_1
*I *4497:B I *D sky130_fd_sc_hd__and2_1
*I *4496:X O *D sky130_fd_sc_hd__xor2_1
*CAP
1 *4498:B 0.000121901
2 *4497:B 0
3 *4496:X 0.000184938
4 *455:8 0.000306839
5 *4498:B *4497:A 0.00022719
6 *4498:B *4504:B1 1.24368e-05
7 *455:8 *4497:A 3.4855e-05
8 *455:8 *4504:B1 5.7661e-06
*RES
1 *4496:X *455:8 12.7286 
2 *455:8 *4497:B 9.3 
3 *455:8 *4498:B 21.1929 
*END

*D_NET *456 0.000393629
*CONN
*I *4499:A_N I *D sky130_fd_sc_hd__nand2b_1
*I *4504:B1 I *D sky130_fd_sc_hd__a21oi_2
*I *4497:X O *D sky130_fd_sc_hd__and2_1
*CAP
1 *4499:A_N 0.000113534
2 *4504:B1 6.4237e-05
3 *4497:X 0
4 *456:4 0.000177771
5 *4499:A_N *4499:B 0
6 *4504:B1 *4497:A 1.98839e-05
7 *4498:B *4504:B1 1.24368e-05
8 *455:8 *4504:B1 5.7661e-06
*RES
1 *4497:X *456:4 9.3 
2 *456:4 *4504:B1 10.5679 
3 *456:4 *4499:A_N 20.2464 
*END

*D_NET *457 0.000874824
*CONN
*I *4499:B I *D sky130_fd_sc_hd__nand2b_1
*I *4504:A1 I *D sky130_fd_sc_hd__a21oi_2
*I *4498:X O *D sky130_fd_sc_hd__or2_1
*CAP
1 *4499:B 0.000184972
2 *4504:A1 0
3 *4498:X 0.000140817
4 *457:10 0.000325789
5 *4499:B *4501:A 5.62995e-05
6 *4499:B *4504:A2 0.0001098
7 *4499:B *827:22 0
8 *457:10 *4497:A 0
9 *457:10 *827:22 5.71472e-05
10 *4499:A_N *4499:B 0
*RES
1 *4498:X *457:10 15.9786 
2 *457:10 *4504:A1 13.8 
3 *457:10 *4499:B 18.1482 
*END

*D_NET *458 0.000383361
*CONN
*I *4501:A I *D sky130_fd_sc_hd__xnor2_1
*I *4499:Y O *D sky130_fd_sc_hd__nand2b_1
*CAP
1 *4501:A 0.000163531
2 *4499:Y 0.000163531
3 *4501:A *4504:A2 0
4 *4499:B *4501:A 5.62995e-05
*RES
1 *4499:Y *4501:A 30.1893 
*END

*D_NET *459 0.00247783
*CONN
*I *4504:A2 I *D sky130_fd_sc_hd__a21oi_2
*I *4501:B I *D sky130_fd_sc_hd__xnor2_1
*I *4500:Y O *D sky130_fd_sc_hd__o21bai_2
*CAP
1 *4504:A2 0.000263593
2 *4501:B 0
3 *4500:Y 0.000591911
4 *459:20 0.000855504
5 *4504:A2 *4502:A1 5.52238e-05
6 *4504:A2 *827:22 0
7 *4504:A2 *966:100 0.000187893
8 *459:20 *4503:A 1.19309e-05
9 *459:20 *966:100 0
10 *459:20 *966:104 0
11 *4453:B *459:20 0.000144773
12 *4453:C *459:20 1.74352e-05
13 *4499:B *4504:A2 0.0001098
14 *4500:B1_N *459:20 0.000209432
15 *4501:A *4504:A2 0
16 *410:26 *459:20 3.03304e-05
17 *411:17 *459:20 0
18 *412:37 *459:20 0
*RES
1 *4500:Y *459:20 30.2643 
2 *459:20 *4501:B 9.3 
3 *459:20 *4504:A2 25.05 
*END

*D_NET *460 0.00138558
*CONN
*I *4502:A1 I *D sky130_fd_sc_hd__mux2_1
*I *4501:Y O *D sky130_fd_sc_hd__xnor2_1
*CAP
1 *4502:A1 0.000394968
2 *4501:Y 0.000394968
3 *4502:A1 *4502:S 0.00018372
4 *4502:A1 *827:14 0.000130549
5 *4502:A1 *827:22 0.000115584
6 *4502:A1 *966:100 0.000110566
7 *4502:A1 *966:104 0
8 *4504:A2 *4502:A1 5.52238e-05
*RES
1 *4501:Y *4502:A1 36.3321 
*END

*D_NET *461 0.000409002
*CONN
*I *4503:B I *D sky130_fd_sc_hd__and2_1
*I *4502:X O *D sky130_fd_sc_hd__mux2_1
*CAP
1 *4503:B 0.000197834
2 *4502:X 0.000197834
3 *4503:B *4502:S 1.33343e-05
*RES
1 *4502:X *4503:B 21.9214 
*END

*D_NET *462 0.00328423
*CONN
*I *4542:B1 I *D sky130_fd_sc_hd__o21a_1
*I *4584:A1 I *D sky130_fd_sc_hd__a21o_1
*I *4585:A1 I *D sky130_fd_sc_hd__a211o_1
*I *4543:A I *D sky130_fd_sc_hd__nor3_1
*I *4504:Y O *D sky130_fd_sc_hd__a21oi_2
*CAP
1 *4542:B1 3.56302e-05
2 *4584:A1 0
3 *4585:A1 0.000155725
4 *4543:A 0
5 *4504:Y 0.000445159
6 *462:19 0.000339771
7 *462:15 0.000353121
8 *462:8 0.000578604
9 *4542:B1 *4543:C 0
10 *4542:B1 *4544:A1 1.24368e-05
11 *4542:B1 *498:14 2.89114e-05
12 *4542:B1 *836:65 1.97695e-05
13 *4585:A1 *4584:A2 6.0038e-05
14 *4585:A1 *4585:B1 0.000106542
15 *4585:A1 *4586:A 8.17713e-05
16 *4585:A1 *499:8 2.82057e-05
17 *4585:A1 *772:114 9.76689e-05
18 *4585:A1 *968:107 7.33017e-05
19 *462:8 *966:94 3.94624e-05
20 *462:15 *4543:B 2.14658e-05
21 *462:15 *4543:C 0.00010096
22 *462:15 *498:14 4.43256e-05
23 *462:15 *966:94 1.32552e-05
24 *462:19 *4544:A1 0.000127446
25 *462:19 *4584:A2 0.000190162
26 *462:19 *499:8 4.15914e-05
27 *462:19 *499:30 0.000141549
28 *462:19 *968:97 0.000147356
*RES
1 *4504:Y *462:8 14.7821 
2 *462:8 *4543:A 9.3 
3 *462:8 *462:15 2.58929 
4 *462:15 *462:19 10.6964 
5 *462:19 *4585:A1 19.1571 
6 *462:19 *4584:A1 13.8 
7 *462:15 *4542:B1 10.2643 
*END

*D_NET *463 0.00288551
*CONN
*I *4509:A I *D sky130_fd_sc_hd__and2_1
*I *4510:A I *D sky130_fd_sc_hd__xor2_1
*I *4505:X O *D sky130_fd_sc_hd__a31o_1
*CAP
1 *4509:A 9.12418e-05
2 *4510:A 0
3 *4505:X 0.0010359
4 *463:16 0.00112714
5 *4509:A *4509:B 0.000186669
6 *463:16 *4467:A 0.00014285
7 *463:16 *4467:B 1.98839e-05
8 *463:16 *984:59 5.33882e-05
9 *463:16 *1000:89 3.79467e-05
10 *4471:A *463:16 6.97409e-05
11 *4471:B *463:16 5.52302e-05
12 *430:12 *463:16 6.55144e-05
*RES
1 *4505:X *463:16 35.8179 
2 *463:16 *4510:A 9.3 
3 *463:16 *4509:A 11.4786 
*END

*D_NET *464 0.000716854
*CONN
*I *4508:A I *D sky130_fd_sc_hd__nor2_1
*I *4506:X O *D sky130_fd_sc_hd__o2bb2a_1
*CAP
1 *4508:A 0.000238628
2 *4506:X 0.000238628
3 *4508:A *4506:B1 5.52238e-05
4 *4508:A *4507:B 1.90111e-05
5 *4508:A *4507:C 8.46741e-05
6 *4508:A *4507:D 2.3541e-05
7 *4508:A *4508:B 0
8 *4508:A *465:8 5.71472e-05
*RES
1 *4506:X *4508:A 23.2786 
*END

*D_NET *465 0.00166008
*CONN
*I *4589:A1 I *D sky130_fd_sc_hd__a21o_1
*I *4553:A I *D sky130_fd_sc_hd__xnor2_1
*I *4508:B I *D sky130_fd_sc_hd__nor2_1
*I *4507:X O *D sky130_fd_sc_hd__and4b_1
*CAP
1 *4589:A1 0
2 *4553:A 0.0001329
3 *4508:B 1.91209e-05
4 *4507:X 9.55944e-05
5 *465:23 0.000451849
6 *465:8 0.000433664
7 *4553:A *4553:B 0.000106579
8 *4553:A *4589:B1 9.90367e-05
9 *4553:A *478:12 1.32552e-05
10 *4553:A *545:16 0.000146852
11 *465:8 *466:12 4.0342e-06
12 *465:23 *4589:B1 0
13 *465:23 *466:12 1.72894e-05
14 *465:23 *479:16 7.25104e-05
15 *465:23 *509:10 1.02504e-05
16 *465:23 *796:25 0
17 *4508:A *4508:B 0
18 *4508:A *465:8 5.71472e-05
*RES
1 *4507:X *465:8 11.0857 
2 *465:8 *4508:B 9.72857 
3 *465:8 *465:23 14.625 
4 *465:23 *4553:A 13.1571 
5 *465:23 *4589:A1 9.3 
*END

*D_NET *466 0.000846364
*CONN
*I *4509:B I *D sky130_fd_sc_hd__and2_1
*I *4510:B I *D sky130_fd_sc_hd__xor2_1
*I *4508:Y O *D sky130_fd_sc_hd__nor2_1
*CAP
1 *4509:B 0.000107744
2 *4510:B 0
3 *4508:Y 0.000139056
4 *466:12 0.0002468
5 *4509:B *468:10 0.000144773
6 *466:12 *796:36 0
7 *4509:A *4509:B 0.000186669
8 *465:8 *466:12 4.0342e-06
9 *465:23 *466:12 1.72894e-05
*RES
1 *4508:Y *466:12 20.4786 
2 *466:12 *4510:B 9.3 
3 *466:12 *4509:B 12.3179 
*END

*D_NET *467 0.000266272
*CONN
*I *4546:B1 I *D sky130_fd_sc_hd__a21oi_1
*I *4509:X O *D sky130_fd_sc_hd__and2_1
*CAP
1 *4546:B1 0.000106638
2 *4509:X 0.000106638
3 *4546:B1 *468:10 5.29964e-05
*RES
1 *4509:X *4546:B1 29.475 
*END

*D_NET *468 0.00130312
*CONN
*I *4511:B I *D sky130_fd_sc_hd__xor2_1
*I *4546:A2 I *D sky130_fd_sc_hd__a21oi_1
*I *4510:X O *D sky130_fd_sc_hd__xor2_1
*CAP
1 *4511:B 9.58727e-05
2 *4546:A2 0
3 *4510:X 0.00035574
4 *468:10 0.000451613
5 *4509:B *468:10 0.000144773
6 *4546:A1 *4511:B 0.000191877
7 *4546:A1 *468:10 1.02504e-05
8 *4546:B1 *468:10 5.29964e-05
*RES
1 *4510:X *468:10 20.4786 
2 *468:10 *4546:A2 13.8 
3 *468:10 *4511:B 16.3536 
*END

*D_NET *469 0.00331731
*CONN
*I *4569:A1 I *D sky130_fd_sc_hd__a21boi_1
*I *4529:B1 I *D sky130_fd_sc_hd__a21oi_1
*I *4528:A I *D sky130_fd_sc_hd__and3_4
*I *4511:X O *D sky130_fd_sc_hd__xor2_1
*CAP
1 *4569:A1 0.000109468
2 *4529:B1 0
3 *4528:A 0.000576662
4 *4511:X 0.0003701
5 *469:19 0.000141874
6 *469:6 0.000979169
7 *4528:A *487:12 0.000317082
8 *4528:A *526:6 0.000265784
9 *4569:A1 *4528:B 0.000171289
10 *4569:A1 *4529:A1 9.90367e-05
11 *4569:A1 *4529:A2 0.000226513
12 *4569:A1 *487:12 4.69993e-05
13 *469:19 *487:12 1.33343e-05
*RES
1 *4511:X *469:6 15.5857 
2 *469:6 *4528:A 17.9607 
3 *469:6 *469:19 0.964286 
4 *469:19 *4529:B1 9.3 
5 *469:19 *4569:A1 13.1393 
*END

*D_NET *470 0.000607813
*CONN
*I *4516:A I *D sky130_fd_sc_hd__xnor2_1
*I *4512:Y O *D sky130_fd_sc_hd__nand2_1
*CAP
1 *4516:A 8.10971e-05
2 *4512:Y 8.10971e-05
3 *4516:A *4512:A 9.90431e-05
4 *4516:A *4516:B 2.59355e-05
5 *4516:A *480:12 0.000270326
6 *4516:A *504:20 5.0314e-05
*RES
1 *4512:Y *4516:A 21.6179 
*END

*D_NET *471 0.00123159
*CONN
*I *4547:B1 I *D sky130_fd_sc_hd__a31o_1
*I *4515:A_N I *D sky130_fd_sc_hd__and2b_1
*I *4513:X O *D sky130_fd_sc_hd__and4_1
*CAP
1 *4547:B1 0
2 *4515:A_N 6.79257e-05
3 *4513:X 0.000220429
4 *471:12 0.000288355
5 *4515:A_N *511:12 0.000271352
6 *4515:A_N *979:36 2.89114e-05
7 *4515:A_N *998:76 1.21289e-05
8 *4515:A_N *998:82 0.000191409
9 *471:12 *4514:A1 9.25014e-06
10 *471:12 *472:10 0
11 *471:12 *994:52 0.00014183
12 *471:12 *1000:43 0
*RES
1 *4513:X *471:12 21.3 
2 *471:12 *4515:A_N 12.3179 
3 *471:12 *4547:B1 9.3 
*END

*D_NET *472 0.000820846
*CONN
*I *4515:B I *D sky130_fd_sc_hd__and2b_1
*I *4547:A3 I *D sky130_fd_sc_hd__a31o_1
*I *4514:X O *D sky130_fd_sc_hd__a22o_1
*CAP
1 *4515:B 0.00011031
2 *4547:A3 2.52229e-05
3 *4514:X 0.000136843
4 *472:10 0.000272375
5 *4515:B *998:76 0
6 *4515:B *998:82 0.000218045
7 *4547:A3 *998:82 5.52238e-05
8 *472:10 *978:96 0
9 *472:10 *979:42 2.8266e-06
10 *471:12 *472:10 0
*RES
1 *4514:X *472:10 20.2464 
2 *472:10 *4547:A3 9.83571 
3 *472:10 *4515:B 11.9071 
*END

*D_NET *473 0.000422767
*CONN
*I *4516:B I *D sky130_fd_sc_hd__xnor2_1
*I *4515:X O *D sky130_fd_sc_hd__and2b_1
*CAP
1 *4516:B 0.000108903
2 *4515:X 0.000108903
3 *4516:B *504:20 5.33005e-05
4 *4516:B *978:96 0.000125724
5 *4516:A *4516:B 2.59355e-05
6 *161:52 *4516:B 0
*RES
1 *4515:X *4516:B 29.7786 
*END

*D_NET *474 0.00596759
*CONN
*I *4524:B1 I *D sky130_fd_sc_hd__a21oi_1
*I *4523:A I *D sky130_fd_sc_hd__and3_1
*I *4564:A1 I *D sky130_fd_sc_hd__a21oi_1
*I *4516:Y O *D sky130_fd_sc_hd__xnor2_1
*CAP
1 *4524:B1 0.000250596
2 *4523:A 8.38636e-05
3 *4564:A1 0
4 *4516:Y 0.0013591
5 *474:25 0.000475313
6 *474:14 0.00149995
7 *4523:A *4523:C 9.50968e-06
8 *4523:A *479:18 4.72818e-05
9 *4523:A *479:27 5.33005e-05
10 *4524:B1 *4524:A1 1.74352e-05
11 *4524:B1 *4524:A2 0.000185643
12 *4524:B1 *479:27 0.00013234
13 *4524:B1 *481:12 0.000276211
14 *4524:B1 *482:12 1.66679e-05
15 *474:14 *4551:B 0.000199934
16 *474:14 *478:16 0.000109809
17 *474:14 *480:18 0.000381627
18 *474:14 *504:20 0.000597772
19 *474:25 *478:16 3.07555e-05
20 *474:25 *479:33 0
21 *474:25 *480:18 4.73656e-05
22 *474:25 *480:27 0.000193118
*RES
1 *4516:Y *474:14 35.925 
2 *474:14 *4564:A1 13.8 
3 *474:14 *474:25 7.66071 
4 *474:25 *4523:A 11.3893 
5 *474:25 *4524:B1 16.3179 
*END

*D_NET *475 0.000698523
*CONN
*I *4522:A2 I *D sky130_fd_sc_hd__a21o_1
*I *4517:X O *D sky130_fd_sc_hd__or3b_1
*CAP
1 *4522:A2 0.000250759
2 *4517:X 0.000250759
3 *4522:A2 *4978:A 5.80706e-06
4 *4522:A2 *5106:A 0
5 *4522:A2 *986:31 5.52302e-05
6 *4522:A2 *993:19 0
7 *4522:A2 *993:34 0
8 *4522:A2 *995:40 0
9 *4518:A2_N *4522:A2 7.80714e-06
10 *431:12 *4522:A2 0.000128161
*RES
1 *4517:X *4522:A2 32.2071 
*END

*D_NET *476 0.0011753
*CONN
*I *4522:A1 I *D sky130_fd_sc_hd__a21o_1
*I *4518:X O *D sky130_fd_sc_hd__a2bb2o_1
*CAP
1 *4522:A1 0.000332384
2 *4518:X 0.000332384
3 *4522:A1 *480:12 0.000445577
4 *4522:A1 *993:19 3.92854e-05
5 *4522:A1 *999:29 2.56694e-05
*RES
1 *4518:X *4522:A1 32.8679 
*END

*D_NET *477 0.000654209
*CONN
*I *4522:B1 I *D sky130_fd_sc_hd__a21o_1
*I *4519:X O *D sky130_fd_sc_hd__a31o_1
*CAP
1 *4522:B1 0.000214123
2 *4519:X 0.000214123
3 *4522:B1 *4554:A1 0
4 *4522:B1 *480:12 9.60939e-05
5 *4554:B1 *4522:B1 0.000129868
*RES
1 *4519:X *4522:B1 31.8321 
*END

*D_NET *478 0.00992857
*CONN
*I *4564:B1 I *D sky130_fd_sc_hd__a21oi_1
*I *4555:A I *D sky130_fd_sc_hd__nor2_2
*I *4657:A I *D sky130_fd_sc_hd__and2_1
*I *4658:A I *D sky130_fd_sc_hd__nor3_1
*I *4520:X O *D sky130_fd_sc_hd__and2_1
*CAP
1 *4564:B1 0
2 *4555:A 0
3 *4657:A 0
4 *4658:A 0.000199642
5 *4520:X 0.00225911
6 *478:22 0.00101076
7 *478:16 0.00114697
8 *478:12 0.00259497
9 *4658:A *4658:B 0.000144773
10 *4658:A *4658:C 2.44318e-05
11 *4658:A *580:20 1.74352e-05
12 *4658:A *580:35 1.7895e-05
13 *4658:A *611:10 3.48705e-05
14 *4658:A *612:10 5.71472e-05
15 *478:12 *4521:A 2.89114e-05
16 *478:12 *4553:B 0.000173921
17 *478:12 *479:16 0.000444964
18 *478:12 *510:6 0.000381823
19 *478:12 *521:6 1.33343e-05
20 *478:12 *545:16 0.00040505
21 *478:12 *984:59 0.000161937
22 *478:12 *985:67 5.33334e-05
23 *478:16 *4563:B 0.000108848
24 *478:16 *479:33 0
25 *478:22 *4563:B 4.58192e-05
26 *478:22 *4626:B 6.58289e-05
27 *478:22 *512:10 0
28 *478:22 *512:12 0
29 *478:22 *556:18 6.42338e-05
30 *478:22 *580:20 9.90431e-05
31 *4553:A *478:12 1.32552e-05
32 *428:10 *478:12 0.000219711
33 *474:14 *478:16 0.000109809
34 *474:25 *478:16 3.07555e-05
*RES
1 *4520:X *478:12 44.3893 
2 *478:12 *478:16 11.6071 
3 *478:16 *478:22 20.1429 
4 *478:22 *4658:A 13.8714 
5 *478:22 *4657:A 9.3 
6 *478:16 *4555:A 13.8 
7 *478:12 *4564:B1 9.3 
*END

*D_NET *479 0.00831809
*CONN
*I *4524:A1 I *D sky130_fd_sc_hd__a21oi_1
*I *4627:B1 I *D sky130_fd_sc_hd__o21ai_1
*I *4602:B1 I *D sky130_fd_sc_hd__o21ai_1
*I *4523:B I *D sky130_fd_sc_hd__and3_1
*I *4521:Y O *D sky130_fd_sc_hd__nand2_1
*CAP
1 *4524:A1 0.000102408
2 *4627:B1 0.000354011
3 *4602:B1 0
4 *4523:B 0
5 *4521:Y 0.00136635
6 *479:33 0.000871173
7 *479:27 0.000877303
8 *479:18 0.00114378
9 *479:16 0.0022524
10 *4524:A1 *4524:A2 5.33433e-05
11 *4627:B1 *4627:A1 0
12 *4627:B1 *557:12 0
13 *4627:B1 *558:12 7.77652e-05
14 *479:16 *4521:A 5.30637e-06
15 *479:16 *509:10 3.34366e-05
16 *479:16 *796:25 0
17 *479:16 *984:59 0.000265458
18 *479:27 *4524:A2 5.33334e-05
19 *479:33 *4563:A 6.07626e-05
20 *479:33 *4563:B 0
21 *479:33 *4627:A1 3.34295e-05
22 *479:33 *520:12 0
23 *4523:A *479:18 4.72818e-05
24 *4523:A *479:27 5.33005e-05
25 *4524:B1 *4524:A1 1.74352e-05
26 *4524:B1 *479:27 0.00013234
27 *465:23 *479:16 7.25104e-05
28 *474:25 *479:33 0
29 *478:12 *479:16 0.000444964
30 *478:16 *479:33 0
*RES
1 *4521:Y *479:16 42.175 
2 *479:16 *479:18 10.3929 
3 *479:18 *4523:B 9.3 
4 *479:18 *479:27 5.07143 
5 *479:27 *479:33 18.5357 
6 *479:33 *4602:B1 9.3 
7 *479:33 *4627:B1 24.6393 
8 *479:27 *4524:A1 11.3893 
*END

*D_NET *480 0.00854847
*CONN
*I *5110:A I *D sky130_fd_sc_hd__dlymetal6s2s_1
*I *4523:C I *D sky130_fd_sc_hd__and3_1
*I *4564:A2 I *D sky130_fd_sc_hd__a21oi_1
*I *4522:X O *D sky130_fd_sc_hd__a21o_1
*CAP
1 *5110:A 0.000203335
2 *4523:C 1.35299e-05
3 *4564:A2 0
4 *4522:X 0.00203177
5 *480:27 0.000420916
6 *480:18 0.00094858
7 *480:12 0.0027763
8 *5110:A *481:12 0
9 *480:12 *4512:B 4.58194e-05
10 *480:12 *504:20 0.000179176
11 *480:18 *4551:A 0.000229456
12 *480:18 *4551:B 4.88637e-05
13 *480:18 *504:20 0.000207107
14 *4516:A *480:12 0.000270326
15 *4522:A1 *480:12 0.000445577
16 *4522:B1 *480:12 9.60939e-05
17 *4523:A *4523:C 9.50968e-06
18 *474:14 *480:18 0.000381627
19 *474:25 *480:18 4.73656e-05
20 *474:25 *480:27 0.000193118
*RES
1 *4522:X *480:12 40.1839 
2 *480:12 *480:18 19.9196 
3 *480:18 *4564:A2 13.8 
4 *480:18 *480:27 3.16071 
5 *480:27 *4523:C 13.9964 
6 *480:27 *5110:A 17.1036 
*END

*D_NET *481 0.00220226
*CONN
*I *4527:A1 I *D sky130_fd_sc_hd__o21bai_1
*I *4526:A I *D sky130_fd_sc_hd__or3b_4
*I *4523:X O *D sky130_fd_sc_hd__and3_1
*CAP
1 *4527:A1 0.000137335
2 *4526:A 0
3 *4523:X 0.000548123
4 *481:12 0.000685458
5 *4527:A1 *4526:B 0.000271345
6 *4527:A1 *4527:B1_N 0.000183726
7 *4527:A1 *484:10 1.39841e-05
8 *4527:A1 *485:12 5.62995e-05
9 *481:12 *5109:A 0
10 *481:12 *482:12 0
11 *481:12 *484:10 2.97756e-05
12 *4524:B1 *481:12 0.000276211
13 *5110:A *481:12 0
*RES
1 *4523:X *481:12 27.6929 
2 *481:12 *4526:A 9.3 
3 *481:12 *4527:A1 13.55 
*END

*D_NET *482 0.00129053
*CONN
*I *4527:A2 I *D sky130_fd_sc_hd__o21bai_1
*I *4526:B I *D sky130_fd_sc_hd__or3b_4
*I *4524:Y O *D sky130_fd_sc_hd__a21oi_1
*CAP
1 *4527:A2 0
2 *4526:B 8.7973e-05
3 *4524:Y 0.000363747
4 *482:12 0.00045172
5 *4526:B *484:10 5.33334e-05
6 *482:12 *4568:A 0
7 *482:12 *5109:A 4.57445e-05
8 *482:12 *484:10 0
9 *4524:B1 *482:12 1.66679e-05
10 *4527:A1 *4526:B 0.000271345
11 *11:9 *482:12 0
12 *481:12 *482:12 0
*RES
1 *4524:Y *482:12 24.9562 
2 *482:12 *4526:B 11.8893 
3 *482:12 *4527:A2 9.3 
*END

*D_NET *483 0.00348336
*CONN
*I *4527:B1_N I *D sky130_fd_sc_hd__o21bai_1
*I *4526:C_N I *D sky130_fd_sc_hd__or3b_4
*I *4525:X O *D sky130_fd_sc_hd__a21bo_1
*CAP
1 *4527:B1_N 0.000224397
2 *4526:C_N 0
3 *4525:X 0.00140641
4 *483:6 0.0016308
5 *4527:B1_N *484:10 3.80277e-05
6 *4527:A1 *4527:B1_N 0.000183726
*RES
1 *4525:X *483:6 32.0143 
2 *483:6 *4526:C_N 9.3 
3 *483:6 *4527:B1_N 13.55 
*END

*D_NET *484 0.00272022
*CONN
*I *4528:B I *D sky130_fd_sc_hd__and3_4
*I *4529:A1 I *D sky130_fd_sc_hd__a21oi_1
*I *4569:B1_N I *D sky130_fd_sc_hd__a21boi_1
*I *4526:X O *D sky130_fd_sc_hd__or3b_4
*CAP
1 *4528:B 0.000494956
2 *4529:A1 6.59684e-05
3 *4569:B1_N 0
4 *4526:X 0.000375491
5 *484:21 0.000617382
6 *484:10 0.000431949
7 *4528:B *4529:A2 2.44318e-05
8 *4528:B *485:20 0.000266995
9 *484:10 *487:12 1.19402e-05
10 *484:21 *487:12 2.56601e-05
11 *4526:B *484:10 5.33334e-05
12 *4527:A1 *484:10 1.39841e-05
13 *4527:B1_N *484:10 3.80277e-05
14 *4569:A1 *4528:B 0.000171289
15 *4569:A1 *4529:A1 9.90367e-05
16 *481:12 *484:10 2.97756e-05
17 *482:12 *484:10 0
*RES
1 *4526:X *484:10 19.55 
2 *484:10 *4569:B1_N 13.8 
3 *484:10 *484:21 5.53571 
4 *484:21 *4529:A1 10.2464 
5 *484:21 *4528:B 16.425 
*END

*D_NET *485 0.00287452
*CONN
*I *4528:C I *D sky130_fd_sc_hd__and3_4
*I *4569:A2 I *D sky130_fd_sc_hd__a21boi_1
*I *4529:A2 I *D sky130_fd_sc_hd__a21oi_1
*I *4527:Y O *D sky130_fd_sc_hd__o21bai_1
*CAP
1 *4528:C 0
2 *4569:A2 0
3 *4529:A2 5.25692e-05
4 *4527:Y 0.000563522
5 *485:20 0.000167393
6 *485:12 0.000678345
7 *4529:A2 *487:12 6.87574e-05
8 *4529:A2 *526:6 0.00014183
9 *485:12 *486:10 7.90803e-05
10 *485:12 *525:12 0
11 *485:20 *526:6 0.000528188
12 *4527:A1 *485:12 5.62995e-05
13 *4528:B *4529:A2 2.44318e-05
14 *4528:B *485:20 0.000266995
15 *4569:A1 *4529:A2 0.000226513
16 *11:9 *485:12 2.05938e-05
*RES
1 *4527:Y *485:12 25.7107 
2 *485:12 *485:20 5.51786 
3 *485:20 *4529:A2 11.8893 
4 *485:20 *4569:A2 9.3 
5 *485:12 *4528:C 9.3 
*END

*D_NET *486 0.00302019
*CONN
*I *4530:B1 I *D sky130_fd_sc_hd__a211oi_4
*I *4531:A2 I *D sky130_fd_sc_hd__o211a_1
*I *4528:X O *D sky130_fd_sc_hd__and3_4
*CAP
1 *4530:B1 0.000134636
2 *4531:A2 0.000227405
3 *4528:X 0.00037987
4 *486:10 0.000741911
5 *4530:B1 *488:8 5.52238e-05
6 *4530:B1 *489:10 0
7 *4531:A2 *4530:C1 0.000359997
8 *4531:A2 *4531:A1 5.33005e-05
9 *4531:A2 *489:10 0.000487467
10 *486:10 *526:6 7.32272e-05
11 *4531:B1 *4531:A2 5.7661e-06
12 *4533:C1 *4530:B1 3.34295e-05
13 *11:9 *4530:B1 8.47011e-05
14 *11:9 *486:10 0.000257165
15 *422:8 *4530:B1 3.14178e-05
16 *442:21 *4531:A2 1.55885e-05
17 *485:12 *486:10 7.90803e-05
*RES
1 *4528:X *486:10 21.3536 
2 *486:10 *4531:A2 20.5143 
3 *486:10 *4530:B1 7.63393 
*END

*D_NET *487 0.00234904
*CONN
*I *4530:C1 I *D sky130_fd_sc_hd__a211oi_4
*I *4531:A1 I *D sky130_fd_sc_hd__o211a_1
*I *4529:Y O *D sky130_fd_sc_hd__a21oi_1
*CAP
1 *4530:C1 0.000244612
2 *4531:A1 2.56476e-05
3 *4529:Y 0.000368631
4 *487:12 0.00063889
5 *487:12 *526:6 5.52238e-05
6 *4528:A *487:12 0.000317082
7 *4529:A2 *487:12 6.87574e-05
8 *4531:A2 *4530:C1 0.000359997
9 *4531:A2 *4531:A1 5.33005e-05
10 *4569:A1 *487:12 4.69993e-05
11 *11:9 *4530:C1 5.63007e-05
12 *442:21 *4530:C1 0
13 *442:21 *4531:A1 6.05161e-06
14 *442:21 *487:12 5.66157e-05
15 *469:19 *487:12 1.33343e-05
16 *484:10 *487:12 1.19402e-05
17 *484:21 *487:12 2.56601e-05
*RES
1 *4529:Y *487:12 26.8893 
2 *487:12 *4531:A1 9.83571 
3 *487:12 *4530:C1 23.9607 
*END

*D_NET *488 0.00252639
*CONN
*I *4576:A1 I *D sky130_fd_sc_hd__o21ai_1
*I *4574:A I *D sky130_fd_sc_hd__or3_1
*I *4575:A1 I *D sky130_fd_sc_hd__o21a_1
*I *4532:B1 I *D sky130_fd_sc_hd__a211oi_2
*I *4533:A1 I *D sky130_fd_sc_hd__o211a_1
*I *4530:Y O *D sky130_fd_sc_hd__a211oi_4
*CAP
1 *4576:A1 1.63023e-05
2 *4574:A 4.96087e-05
3 *4575:A1 0
4 *4532:B1 0
5 *4533:A1 1.85066e-05
6 *4530:Y 0.000144185
7 *488:36 0.000137229
8 *488:30 0.000180818
9 *488:23 0.000196574
10 *488:8 0.00028237
11 *4533:A1 *4532:C1 2.24646e-05
12 *4533:A1 *489:10 3.34295e-05
13 *4574:A *4574:B 9.77274e-05
14 *4574:A *4574:C 0.000131439
15 *4574:A *490:15 2.44318e-05
16 *4574:A *530:19 0.000144773
17 *4574:A *532:8 0.00010096
18 *4576:A1 *530:19 1.3701e-05
19 *488:8 *4533:A2 5.52238e-05
20 *488:23 *4532:C1 0.000250383
21 *488:30 *4532:C1 9.60875e-05
22 *488:30 *490:8 9.31893e-05
23 *488:36 *490:8 5.71472e-05
24 *488:36 *490:15 0.00014183
25 *488:36 *530:19 3.5895e-05
26 *4530:B1 *488:8 5.52238e-05
27 *4532:A1 *4533:A1 3.17067e-05
28 *4532:A1 *488:23 7.71417e-05
29 *422:8 *488:8 3.80385e-05
*RES
1 *4530:Y *488:8 16.3893 
2 *488:8 *4533:A1 14.5321 
3 *488:8 *488:23 7.80357 
4 *488:23 *4532:B1 9.3 
5 *488:23 *488:30 2.17857 
6 *488:30 *488:36 2.625 
7 *488:36 *4575:A1 9.3 
8 *488:36 *4574:A 12.3 
9 *488:30 *4576:A1 9.72857 
*END

*D_NET *489 0.00279285
*CONN
*I *4532:C1 I *D sky130_fd_sc_hd__a211oi_2
*I *4533:A2 I *D sky130_fd_sc_hd__o211a_1
*I *4531:X O *D sky130_fd_sc_hd__o211a_1
*CAP
1 *4532:C1 0.000186506
2 *4533:A2 7.19887e-05
3 *4531:X 0.000646893
4 *489:10 0.000905388
5 *4532:C1 *490:31 1.87955e-05
6 *4532:C1 *491:10 0
7 *4532:C1 *530:10 0
8 *489:10 *530:10 0
9 *4530:B1 *489:10 0
10 *4531:A2 *489:10 0.000487467
11 *4532:A1 *4532:C1 7.79781e-06
12 *4533:A1 *4532:C1 2.24646e-05
13 *4533:A1 *489:10 3.34295e-05
14 *422:8 *4533:A2 1.04232e-05
15 *488:8 *4533:A2 5.52238e-05
16 *488:23 *4532:C1 0.000250383
17 *488:30 *4532:C1 9.60875e-05
*RES
1 *4531:X *489:10 22.8536 
2 *489:10 *4533:A2 15.175 
3 *489:10 *4532:C1 18.1214 
*END

*D_NET *490 0.00287044
*CONN
*I *4534:A1 I *D sky130_fd_sc_hd__o211ai_2
*I *4535:B1 I *D sky130_fd_sc_hd__a211o_1
*I *4574:B I *D sky130_fd_sc_hd__or3_1
*I *4575:A2 I *D sky130_fd_sc_hd__o21a_1
*I *4576:A2 I *D sky130_fd_sc_hd__o21ai_1
*I *4532:Y O *D sky130_fd_sc_hd__a211oi_2
*CAP
1 *4534:A1 0.000192918
2 *4535:B1 0
3 *4574:B 0.000138617
4 *4575:A2 0
5 *4576:A2 0
6 *4532:Y 0
7 *490:31 0.000402245
8 *490:15 0.000254019
9 *490:8 0.000292105
10 *490:4 0.00038603
11 *4534:A1 *4534:A2 0.000140368
12 *4534:A1 *491:10 1.02504e-05
13 *4534:A1 *492:10 5.23142e-05
14 *4534:A1 *849:24 1.82657e-05
15 *4574:B *532:8 5.71472e-05
16 *490:31 *491:10 0.000441363
17 *4532:C1 *490:31 1.87955e-05
18 *4535:A2 *4534:A1 4.75428e-05
19 *4535:A2 *490:31 4.1331e-06
20 *4574:A *4574:B 9.77274e-05
21 *4574:A *490:15 2.44318e-05
22 *488:30 *490:8 9.31893e-05
23 *488:36 *490:8 5.71472e-05
24 *488:36 *490:15 0.00014183
*RES
1 *4532:Y *490:4 9.3 
2 *490:4 *490:8 2.60714 
3 *490:8 *4576:A2 9.3 
4 *490:8 *490:15 1.76786 
5 *490:15 *4575:A2 9.3 
6 *490:15 *4574:B 11.4786 
7 *490:4 *490:31 10.0893 
8 *490:31 *4535:B1 13.8 
9 *490:31 *4534:A1 17.925 
*END

*D_NET *491 0.00158728
*CONN
*I *4534:A2 I *D sky130_fd_sc_hd__o211ai_2
*I *4535:C1 I *D sky130_fd_sc_hd__a211o_1
*I *4533:X O *D sky130_fd_sc_hd__o211a_1
*CAP
1 *4534:A2 7.4008e-05
2 *4535:C1 0
3 *4533:X 0.000391526
4 *491:10 0.000465534
5 *4534:A2 *493:10 6.42338e-05
6 *491:10 *4577:B 0
7 *491:10 *530:10 0
8 *4532:C1 *491:10 0
9 *4534:A1 *4534:A2 0.000140368
10 *4534:A1 *491:10 1.02504e-05
11 *4535:A2 *4534:A2 0
12 *490:31 *491:10 0.000441363
*RES
1 *4533:X *491:10 21.55 
2 *491:10 *4535:C1 13.8 
3 *491:10 *4534:A2 16.05 
*END

*D_NET *492 0.00168202
*CONN
*I *4536:A I *D sky130_fd_sc_hd__nand2_1
*I *4578:C I *D sky130_fd_sc_hd__and4b_1
*I *4579:A2 I *D sky130_fd_sc_hd__a21bo_1
*I *4534:Y O *D sky130_fd_sc_hd__o211ai_2
*CAP
1 *4536:A 0.000148977
2 *4578:C 3.92359e-05
3 *4579:A2 0
4 *4534:Y 0.000197376
5 *492:19 0.000308121
6 *492:10 0.000317284
7 *4536:A *4536:B 0.000185643
8 *4536:A *4538:A 4.01768e-05
9 *4578:C *4536:B 5.52238e-05
10 *492:10 *493:10 0
11 *492:10 *493:23 0
12 *492:10 *849:24 0.000271345
13 *492:19 *493:23 0
14 *4534:A1 *492:10 5.23142e-05
15 *4578:D *4536:A 6.63281e-05
16 *4579:A1 *4536:A 0
17 *4579:A1 *492:19 0
*RES
1 *4534:Y *492:10 18.3357 
2 *492:10 *4579:A2 13.8 
3 *492:10 *492:19 1.94643 
4 *492:19 *4578:C 14.3357 
5 *492:19 *4536:A 16.8357 
*END

*D_NET *493 0.00253131
*CONN
*I *4536:B I *D sky130_fd_sc_hd__nand2_1
*I *4578:B I *D sky130_fd_sc_hd__and4b_1
*I *4579:B1_N I *D sky130_fd_sc_hd__a21bo_1
*I *4535:X O *D sky130_fd_sc_hd__a211o_1
*CAP
1 *4536:B 0.00012771
2 *4578:B 0
3 *4579:B1_N 0
4 *4535:X 0.000514386
5 *493:23 0.000295245
6 *493:10 0.000681921
7 *4536:B *4538:A 1.32552e-05
8 *4536:B *535:12 0.000144773
9 *4534:A2 *493:10 6.42338e-05
10 *4535:A1 *493:10 0.00014183
11 *4535:A2 *493:10 0
12 *4536:A *4536:B 0.000185643
13 *4578:A_N *493:23 2.59355e-05
14 *4578:C *4536:B 5.52238e-05
15 *4578:D *4536:B 2.44318e-05
16 *4578:D *493:23 2.77289e-05
17 *4579:A1 *493:23 0.000125724
18 *416:24 *493:23 0.000103267
19 *492:10 *493:10 0
20 *492:10 *493:23 0
21 *492:19 *493:23 0
*RES
1 *4535:X *493:10 21.2821 
2 *493:10 *4579:B1_N 13.8 
3 *493:10 *493:23 7.80357 
4 *493:23 *4578:B 9.3 
5 *493:23 *4536:B 13.1571 
*END

*D_NET *494 0.00102239
*CONN
*I *4538:A I *D sky130_fd_sc_hd__xnor2_1
*I *4536:Y O *D sky130_fd_sc_hd__nand2_1
*CAP
1 *4538:A 0.000484481
2 *4536:Y 0.000484481
3 *4536:A *4538:A 4.01768e-05
4 *4536:B *4538:A 1.32552e-05
5 *4537:B1 *4538:A 0
6 *452:17 *4538:A 0
*RES
1 *4536:Y *4538:A 35.7607 
*END

*D_NET *495 0.000112637
*CONN
*I *4538:B I *D sky130_fd_sc_hd__xnor2_1
*I *4537:X O *D sky130_fd_sc_hd__a21o_1
*CAP
1 *4538:B 5.63185e-05
2 *4537:X 5.63185e-05
*RES
1 *4537:X *4538:B 19.5464 
*END

*D_NET *496 0.00169522
*CONN
*I *4539:B I *D sky130_fd_sc_hd__nand2_1
*I *4541:B I *D sky130_fd_sc_hd__nor2_1
*I *4538:Y O *D sky130_fd_sc_hd__xnor2_1
*CAP
1 *4539:B 0
2 *4541:B 0.000122667
3 *4538:Y 0.000568437
4 *496:12 0.000691104
5 *4541:B *4539:A 5.08668e-05
6 *4541:B *497:19 8.25843e-06
7 *496:12 *4584:A2 0.000125731
8 *496:12 *968:107 0.000128154
*RES
1 *4538:Y *496:12 25.8179 
2 *496:12 *4541:B 11.5143 
3 *496:12 *4539:B 9.3 
*END

*D_NET *497 0.00215102
*CONN
*I *4540:A I *D sky130_fd_sc_hd__inv_2
*I *4585:A2 I *D sky130_fd_sc_hd__a211o_1
*I *4584:A2 I *D sky130_fd_sc_hd__a21o_1
*I *4539:Y O *D sky130_fd_sc_hd__nand2_1
*CAP
1 *4540:A 0.000116249
2 *4585:A2 0.000277228
3 *4584:A2 6.92654e-05
4 *4539:Y 0
5 *497:19 0.000600774
6 *497:4 0.000276562
7 *4540:A *4544:B1 1.76135e-05
8 *4540:A *499:30 3.56119e-05
9 *4584:A2 *968:97 4.75911e-05
10 *4584:A2 *968:107 4.25921e-05
11 *4585:A2 *4585:B1 8.17978e-05
12 *4585:A2 *4586:B 0
13 *4585:A2 *499:8 4.79842e-05
14 *4585:A2 *499:30 4.89174e-05
15 *4585:A2 *542:10 0
16 *497:19 *4539:A 7.3237e-05
17 *497:19 *828:12 3.14078e-05
18 *4541:B *497:19 8.25843e-06
19 *4585:A1 *4584:A2 6.0038e-05
20 *462:19 *4584:A2 0.000190162
21 *496:12 *4584:A2 0.000125731
*RES
1 *4539:Y *497:4 9.3 
2 *497:4 *4584:A2 21.4607 
3 *497:4 *497:19 7.08929 
4 *497:19 *4585:A2 19.6929 
5 *497:19 *4540:A 15.7464 
*END

*D_NET *498 0.00123499
*CONN
*I *4542:A1 I *D sky130_fd_sc_hd__o21a_1
*I *4543:B I *D sky130_fd_sc_hd__nor3_1
*I *4540:Y O *D sky130_fd_sc_hd__inv_2
*CAP
1 *4542:A1 0
2 *4543:B 1.85618e-05
3 *4540:Y 0.000226785
4 *498:14 0.000245347
5 *4543:B *4543:C 0.000156184
6 *498:14 *4543:C 5.52302e-05
7 *498:14 *4544:A1 2.05612e-05
8 *498:14 *4545:B1 3.34295e-05
9 *498:14 *4545:C1 0.000127446
10 *498:14 *499:30 0.000129515
11 *498:14 *836:46 1.17968e-05
12 *498:14 *836:65 4.58194e-05
13 *498:14 *838:122 5.39629e-06
14 *498:14 *966:94 6.42095e-05
15 *4542:B1 *498:14 2.89114e-05
16 *4895:D *498:14 0
17 *462:15 *4543:B 2.14658e-05
18 *462:15 *498:14 4.43256e-05
*RES
1 *4540:Y *498:14 23.7821 
2 *498:14 *4543:B 10.2464 
3 *498:14 *4542:A1 9.3 
*END

*D_NET *499 0.00260842
*CONN
*I *4542:A2 I *D sky130_fd_sc_hd__o21a_1
*I *4543:C I *D sky130_fd_sc_hd__nor3_1
*I *4584:B1 I *D sky130_fd_sc_hd__a21o_1
*I *4585:B1 I *D sky130_fd_sc_hd__a211o_1
*I *4541:Y O *D sky130_fd_sc_hd__nor2_1
*CAP
1 *4542:A2 0
2 *4543:C 7.89092e-05
3 *4584:B1 0
4 *4585:B1 8.73322e-05
5 *4541:Y 0
6 *499:30 0.000328091
7 *499:8 0.000134169
8 *499:6 0.000296018
9 *4543:C *966:94 0.000185643
10 *4585:B1 *540:12 1.02504e-05
11 *4585:B1 *968:107 0
12 *499:30 *4544:A1 0.000125724
13 *499:30 *4544:B1 0.000199698
14 *499:30 *836:46 4.56437e-05
15 *499:30 *966:94 0.00014285
16 *499:30 *968:97 0
17 *4540:A *499:30 3.56119e-05
18 *4542:B1 *4543:C 0
19 *4543:B *4543:C 0.000156184
20 *4585:A1 *4585:B1 0.000106542
21 *4585:A1 *499:8 2.82057e-05
22 *4585:A2 *4585:B1 8.17978e-05
23 *4585:A2 *499:8 4.79842e-05
24 *4585:A2 *499:30 4.89174e-05
25 *462:15 *4543:C 0.00010096
26 *462:19 *499:8 4.15914e-05
27 *462:19 *499:30 0.000141549
28 *498:14 *4543:C 5.52302e-05
29 *498:14 *499:30 0.000129515
*RES
1 *4541:Y *499:6 13.8 
2 *499:6 *499:8 1.64286 
3 *499:8 *4585:B1 16.6571 
4 *499:8 *4584:B1 13.8 
5 *499:6 *499:30 12.0536 
6 *499:30 *4543:C 12.7464 
7 *499:30 *4542:A2 9.3 
*END

*D_NET *500 0.000547582
*CONN
*I *4544:A1 I *D sky130_fd_sc_hd__o21ai_1
*I *4542:X O *D sky130_fd_sc_hd__o21a_1
*CAP
1 *4544:A1 0.000124488
2 *4542:X 0.000124488
3 *4544:A1 *836:65 1.24368e-05
4 *4542:B1 *4544:A1 1.24368e-05
5 *462:19 *4544:A1 0.000127446
6 *498:14 *4544:A1 2.05612e-05
7 *499:30 *4544:A1 0.000125724
*RES
1 *4542:X *4544:A1 30.1893 
*END

*D_NET *501 0.000609436
*CONN
*I *4544:A2 I *D sky130_fd_sc_hd__o21ai_1
*I *4543:Y O *D sky130_fd_sc_hd__nor3_1
*CAP
1 *4544:A2 0.000224545
2 *4543:Y 0.000224545
3 *4544:A2 *827:22 0
4 *4544:A2 *838:118 0
5 *4544:A2 *838:122 5.70797e-05
6 *4544:A2 *968:97 0.000103267
*RES
1 *4543:Y *4544:A2 31.5464 
*END

*D_NET *502 0.000346484
*CONN
*I *4545:C1 I *D sky130_fd_sc_hd__o211a_1
*I *4544:Y O *D sky130_fd_sc_hd__o21ai_1
*CAP
1 *4545:C1 4.1889e-05
2 *4544:Y 4.1889e-05
3 *4545:C1 *4544:B1 0.00012501
4 *4545:C1 *836:46 1.02504e-05
5 *498:14 *4545:C1 0.000127446
*RES
1 *4544:Y *4545:C1 29.2429 
*END

*D_NET *503 0.00397009
*CONN
*I *4572:A_N I *D sky130_fd_sc_hd__nand2b_1
*I *4573:A I *D sky130_fd_sc_hd__xnor2_1
*I *4546:Y O *D sky130_fd_sc_hd__a21oi_1
*CAP
1 *4572:A_N 0.000281881
2 *4573:A 0
3 *4546:Y 0.00159899
4 *503:12 0.00188087
5 *4572:A_N *4573:B 0
6 *4572:A_N *525:12 0
7 *4572:A_N *527:12 0.000126759
8 *4462:B *503:12 0
9 *4546:A1 *503:12 8.15939e-05
*RES
1 *4546:Y *503:12 45.0857 
2 *503:12 *4573:A 9.3 
3 *503:12 *4572:A_N 23.1393 
*END

*D_NET *504 0.00277636
*CONN
*I *4551:A I *D sky130_fd_sc_hd__and2_1
*I *4552:A I *D sky130_fd_sc_hd__xor2_1
*I *4547:X O *D sky130_fd_sc_hd__a31o_1
*CAP
1 *4551:A 3.30183e-05
2 *4552:A 0
3 *4547:X 0.000463361
4 *504:20 0.000496379
5 *4551:A *4551:B 0.000216121
6 *504:20 *4512:A 0.00010096
7 *504:20 *4512:B 9.41642e-05
8 *504:20 *4551:B 5.52302e-05
9 *504:20 *978:96 0
10 *504:20 *979:42 0
11 *4516:A *504:20 5.0314e-05
12 *4516:B *504:20 5.33005e-05
13 *474:14 *504:20 0.000597772
14 *480:12 *504:20 0.000179176
15 *480:18 *4551:A 0.000229456
16 *480:18 *504:20 0.000207107
*RES
1 *4547:X *504:20 31.1393 
2 *504:20 *4552:A 9.3 
3 *504:20 *4551:A 11.4786 
*END

*D_NET *505 0.000284608
*CONN
*I *4550:A I *D sky130_fd_sc_hd__nor2_1
*I *4548:X O *D sky130_fd_sc_hd__o2bb2a_1
*CAP
1 *4550:A 5.31861e-05
2 *4548:X 5.31861e-05
3 *4550:A *511:16 5.71472e-05
4 *4550:A *977:31 9.7049e-06
5 *4550:A *977:46 0.000111383
*RES
1 *4548:X *4550:A 20.2786 
*END

*D_NET *506 0.00227735
*CONN
*I *4595:A I *D sky130_fd_sc_hd__nand2_1
*I *4596:A I *D sky130_fd_sc_hd__xnor2_1
*I *4550:B I *D sky130_fd_sc_hd__nor2_1
*I *4549:X O *D sky130_fd_sc_hd__and4b_1
*CAP
1 *4595:A 0
2 *4596:A 0.000181447
3 *4550:B 0.00013513
4 *4549:X 3.10162e-05
5 *506:23 0.00041745
6 *506:6 0.000402149
7 *4550:B *796:25 0
8 *4550:B *977:46 3.34366e-05
9 *4550:B *998:92 0
10 *4596:A *4596:B 0.000153279
11 *506:6 *519:20 7.71767e-05
12 *506:6 *546:10 0.000186662
13 *506:23 *519:20 0.000530213
14 *506:23 *546:10 0.000129388
*RES
1 *4549:X *506:6 11.0679 
2 *506:6 *4550:B 20.55 
3 *506:6 *506:23 6.73214 
4 *506:23 *4596:A 12.7464 
5 *506:23 *4595:A 9.3 
*END

*D_NET *507 0.00196956
*CONN
*I *4551:B I *D sky130_fd_sc_hd__and2_1
*I *4552:B I *D sky130_fd_sc_hd__xor2_1
*I *4550:Y O *D sky130_fd_sc_hd__nor2_1
*CAP
1 *4551:B 8.37758e-05
2 *4552:B 0
3 *4550:Y 0.000345755
4 *507:12 0.00042953
5 *507:12 *509:10 0
6 *507:12 *511:16 0.000270326
7 *507:12 *796:25 0.000320024
8 *4551:A *4551:B 0.000216121
9 *474:14 *4551:B 0.000199934
10 *480:18 *4551:B 4.88637e-05
11 *504:20 *4551:B 5.52302e-05
*RES
1 *4550:Y *507:12 24.9607 
2 *507:12 *4552:B 9.3 
3 *507:12 *4551:B 13.1393 
*END

*D_NET *508 0.000442831
*CONN
*I *4589:B1 I *D sky130_fd_sc_hd__a21o_1
*I *4551:X O *D sky130_fd_sc_hd__and2_1
*CAP
1 *4589:B1 0.000122379
2 *4551:X 0.000122379
3 *4589:B1 *4553:B 9.90367e-05
4 *4589:B1 *509:10 0
5 *4553:A *4589:B1 9.90367e-05
6 *465:23 *4589:B1 0
*RES
1 *4551:X *4589:B1 30.1893 
*END

*D_NET *509 0.000978041
*CONN
*I *4553:B I *D sky130_fd_sc_hd__xnor2_1
*I *4589:A2 I *D sky130_fd_sc_hd__a21o_1
*I *4552:X O *D sky130_fd_sc_hd__xor2_1
*CAP
1 *4553:B 8.94505e-05
2 *4589:A2 0
3 *4552:X 0.000187958
4 *509:10 0.000277409
5 *509:10 *796:25 0
6 *4553:A *4553:B 0.000106579
7 *4589:B1 *4553:B 9.90367e-05
8 *4589:B1 *509:10 0
9 *465:23 *509:10 1.02504e-05
10 *478:12 *4553:B 0.000173921
11 *479:16 *509:10 3.34366e-05
12 *507:12 *509:10 0
*RES
1 *4552:X *509:10 21.1571 
2 *509:10 *4589:A2 9.3 
3 *509:10 *4553:B 12.7286 
*END

*D_NET *510 0.00491561
*CONN
*I *4568:A I *D sky130_fd_sc_hd__xnor2_1
*I *4607:A1 I *D sky130_fd_sc_hd__o21ai_1
*I *4553:Y O *D sky130_fd_sc_hd__xnor2_1
*CAP
1 *4568:A 0.000278557
2 *4607:A1 0.000117402
3 *4553:Y 0.00101292
4 *510:6 0.00140887
5 *4568:A *4567:B 0.000128154
6 *4568:A *4568:B 5.71472e-05
7 *4607:A1 *4565:A_N 5.33005e-05
8 *4607:A1 *4567:A 5.47476e-05
9 *4607:A1 *4607:A2 0.000268403
10 *4607:A1 *4607:B1 4.55687e-05
11 *4607:A1 *520:23 2.92346e-05
12 *4607:A1 *521:10 9.09605e-05
13 *4607:A1 *545:16 2.95641e-05
14 *510:6 *521:6 0.000842836
15 *510:6 *521:10 1.21289e-05
16 *11:9 *4568:A 0.000103993
17 *478:12 *510:6 0.000381823
18 *482:12 *4568:A 0
*RES
1 *4553:Y *510:6 24.2107 
2 *510:6 *4607:A1 13.4607 
3 *510:6 *4568:A 24.1393 
*END

*D_NET *511 0.00936085
*CONN
*I *4627:A1 I *D sky130_fd_sc_hd__o21ai_1
*I *4602:A1 I *D sky130_fd_sc_hd__o21ai_1
*I *4555:B I *D sky130_fd_sc_hd__nor2_2
*I *4554:Y O *D sky130_fd_sc_hd__a21oi_2
*CAP
1 *4627:A1 0.000286912
2 *4602:A1 0
3 *4555:B 0
4 *4554:Y 0.00219636
5 *511:23 0.000354058
6 *511:16 0.00098394
7 *511:12 0.00311316
8 *4627:A1 *4563:A 2.94103e-05
9 *4627:A1 *4602:A2 1.56e-05
10 *4627:A1 *4627:A2 5.71472e-05
11 *4627:A1 *512:10 0.000179053
12 *4627:A1 *512:12 4.46186e-06
13 *4627:A1 *557:12 2.89114e-05
14 *4627:A1 *558:12 3.69047e-06
15 *511:12 *4554:A2 0.000174361
16 *511:12 *977:46 0
17 *511:12 *979:36 0.000513671
18 *511:12 *998:82 0.000276582
19 *511:12 *998:84 2.56601e-05
20 *511:12 *998:92 1.41706e-05
21 *511:16 *519:22 0.000334664
22 *511:16 *977:46 6.57815e-05
23 *511:23 *4602:A2 1.39841e-05
24 *511:23 *512:8 5.33334e-05
25 *511:23 *519:22 3.69047e-06
26 *4515:A_N *511:12 0.000271352
27 *4550:A *511:16 5.71472e-05
28 *4627:B1 *4627:A1 0
29 *479:33 *4627:A1 3.34295e-05
30 *507:12 *511:16 0.000270326
*RES
1 *4554:Y *511:12 47.6929 
2 *511:12 *511:16 17.8036 
3 *511:16 *4555:B 9.3 
4 *511:16 *511:23 1.35714 
5 *511:23 *4602:A1 9.3 
6 *511:23 *4627:A1 24.7643 
*END

*D_NET *512 0.00306539
*CONN
*I *4563:A I *D sky130_fd_sc_hd__xnor2_1
*I *4601:A I *D sky130_fd_sc_hd__xnor2_1
*I *4626:A I *D sky130_fd_sc_hd__xor2_1
*I *4658:B I *D sky130_fd_sc_hd__nor3_1
*I *4555:Y O *D sky130_fd_sc_hd__nor2_2
*CAP
1 *4563:A 0.000152903
2 *4601:A 4.05809e-05
3 *4626:A 2.76557e-05
4 *4658:B 0.000163101
5 *4555:Y 1.99379e-05
6 *512:12 0.000611393
7 *512:10 0.000645155
8 *512:8 0.00035678
9 *4563:A *4563:B 7.76647e-05
10 *4601:A *4627:A2 9.90367e-05
11 *4626:A *591:6 2.89016e-05
12 *4658:B *4626:B 8.16036e-05
13 *4658:B *4658:C 9.90431e-05
14 *4658:B *611:10 2.44318e-05
15 *512:8 *4602:A2 9.90367e-05
16 *512:10 *4563:B 1.19402e-05
17 *512:12 *4626:B 1.41029e-05
18 *512:12 *556:18 4.03318e-05
19 *512:12 *582:12 0
20 *4627:A1 *4563:A 2.94103e-05
21 *4627:A1 *512:10 0.000179053
22 *4627:A1 *512:12 4.46186e-06
23 *4658:A *4658:B 0.000144773
24 *478:22 *512:10 0
25 *478:22 *512:12 0
26 *479:33 *4563:A 6.07626e-05
27 *511:23 *512:8 5.33334e-05
*RES
1 *4555:Y *512:8 14.7464 
2 *512:8 *512:10 4.375 
3 *512:10 *512:12 7.71429 
4 *512:12 *4658:B 17.7107 
5 *512:12 *4626:A 14.3357 
6 *512:10 *4601:A 14.7464 
7 *512:8 *4563:A 17.6036 
*END

*D_NET *513 0.000755321
*CONN
*I *4560:C I *D sky130_fd_sc_hd__nand4_1
*I *4561:B1 I *D sky130_fd_sc_hd__a22o_1
*I *4556:X O *D sky130_fd_sc_hd__a22o_1
*CAP
1 *4560:C 0.000108091
2 *4561:B1 1.70795e-05
3 *4556:X 7.23118e-05
4 *513:8 0.000197483
5 *4560:C *4561:A2 0
6 *4560:C *4562:B 0.00010844
7 *4560:C *978:20 2.14658e-05
8 *4560:C *996:19 1.21289e-05
9 *4560:C *996:28 0.000100625
10 *4561:B1 *4561:A2 5.7661e-06
11 *4561:B1 *978:20 0
12 *513:8 *978:20 0.00011193
*RES
1 *4556:X *513:8 11.0857 
2 *513:8 *4561:B1 9.72857 
3 *513:8 *4560:C 12.3179 
*END

*D_NET *514 0.000980732
*CONN
*I *4660:B1 I *D sky130_fd_sc_hd__a21oi_2
*I *4630:B1 I *D sky130_fd_sc_hd__a31o_1
*I *4557:X O *D sky130_fd_sc_hd__and3_1
*CAP
1 *4660:B1 0.00025965
2 *4630:B1 0
3 *4557:X 0.000103767
4 *514:8 0.000363417
5 *4660:B1 *4630:A3 4.27437e-05
6 *4660:B1 *4660:A1 0
7 *4660:B1 *585:10 3.69047e-06
8 *4660:B1 *977:23 0
9 *4660:B1 *978:73 5.52238e-05
10 *4660:B1 *994:63 1.19309e-05
11 *4660:B1 *994:69 4.25809e-05
12 *514:8 *978:73 9.77274e-05
*RES
1 *4557:X *514:8 11.4964 
2 *514:8 *4630:B1 9.3 
3 *514:8 *4660:B1 23.0321 
*END

*D_NET *515 0.00117062
*CONN
*I *4598:A I *D sky130_fd_sc_hd__and2_1
*I *4624:B1 I *D sky130_fd_sc_hd__a22oi_1
*I *4558:Y O *D sky130_fd_sc_hd__nand3_1
*CAP
1 *4598:A 0.000110531
2 *4624:B1 3.11067e-05
3 *4558:Y 7.04662e-05
4 *515:6 0.000212104
5 *4598:A *4598:B 7.17932e-05
6 *4624:B1 *4624:A1 1.04232e-05
7 *4624:B1 *992:62 1.75711e-05
8 *515:6 *4624:A1 1.92905e-05
9 *515:6 *983:10 0.000139907
10 *515:6 *983:54 0.000217141
11 *515:6 *992:62 0.000268964
12 *515:6 *992:79 1.32782e-06
*RES
1 *4558:Y *515:6 12.7107 
2 *515:6 *4624:B1 10.0321 
3 *515:6 *4598:A 20.2464 
*END

*D_NET *516 0.00262635
*CONN
*I *4590:A I *D sky130_fd_sc_hd__nand2_1
*I *4560:D I *D sky130_fd_sc_hd__nand4_1
*I *4561:B2 I *D sky130_fd_sc_hd__a22o_1
*I *4559:Y O *D sky130_fd_sc_hd__nand4_1
*CAP
1 *4590:A 0.000384725
2 *4560:D 0
3 *4561:B2 9.05364e-05
4 *4559:Y 9.00363e-05
5 *516:23 0.000679869
6 *516:6 0.000475717
7 *4561:B2 *4556:A1 0
8 *4561:B2 *978:28 1.19402e-05
9 *4561:B2 *994:30 0
10 *4561:B2 *994:43 0
11 *4590:A *4560:A 0
12 *4590:A *4562:B 0.000116039
13 *4590:A *4590:B 2.3628e-05
14 *4590:A *517:8 0.000229161
15 *4590:A *519:20 4.43256e-05
16 *4590:A *546:10 2.89114e-05
17 *4590:A *978:28 0
18 *516:6 *4599:B 0.000144773
19 *516:23 *4560:A 0
20 *516:23 *4599:B 0.00030669
21 *516:23 *4968:A 0
22 *516:23 *978:28 0
23 *516:23 *996:49 0
*RES
1 *4559:Y *516:6 10.6571 
2 *516:6 *4561:B2 19.9429 
3 *516:6 *516:23 9.14286 
4 *516:23 *4560:D 13.8 
5 *516:23 *4590:A 20.3536 
*END

*D_NET *517 0.000590381
*CONN
*I *4590:B I *D sky130_fd_sc_hd__nand2_1
*I *4562:A I *D sky130_fd_sc_hd__nand2_1
*I *4560:Y O *D sky130_fd_sc_hd__nand4_1
*CAP
1 *4590:B 1.31308e-05
2 *4562:A 0
3 *4560:Y 5.67517e-05
4 *517:8 6.98824e-05
5 *4590:B *519:20 5.52302e-05
6 *517:8 *4562:B 0.000117787
7 *517:8 *519:20 1.55885e-05
8 *517:8 *996:49 9.22103e-06
9 *4590:A *4590:B 2.3628e-05
10 *4590:A *517:8 0.000229161
*RES
1 *4560:Y *517:8 11.8 
2 *517:8 *4562:A 9.3 
3 *517:8 *4590:B 9.83571 
*END

*D_NET *518 0.000629172
*CONN
*I *4562:B I *D sky130_fd_sc_hd__nand2_1
*I *4561:X O *D sky130_fd_sc_hd__a22o_1
*CAP
1 *4562:B 9.33049e-05
2 *4561:X 9.33049e-05
3 *4562:B *996:28 1.95646e-05
4 *4562:B *996:49 8.07313e-05
5 *4560:C *4562:B 0.00010844
6 *4590:A *4562:B 0.000116039
7 *517:8 *4562:B 0.000117787
*RES
1 *4561:X *4562:B 22.1714 
*END

*D_NET *519 0.00742027
*CONN
*I *4602:A2 I *D sky130_fd_sc_hd__o21ai_1
*I *4563:B I *D sky130_fd_sc_hd__xnor2_1
*I *4562:Y O *D sky130_fd_sc_hd__nand2_1
*CAP
1 *4602:A2 0.000123063
2 *4563:B 0.00012293
3 *4562:Y 0.00134548
4 *519:22 0.00103364
5 *519:20 0.00213313
6 *519:20 *4549:A_N 8.27532e-05
7 *519:20 *4549:D 2.3541e-05
8 *519:20 *546:10 6.60546e-05
9 *519:20 *550:12 9.69119e-06
10 *519:20 *796:25 0
11 *519:20 *996:49 5.52238e-05
12 *519:20 *997:136 0.000137505
13 *519:20 *998:92 3.73468e-05
14 *519:20 *998:98 2.59355e-05
15 *519:20 *1000:43 9.60875e-05
16 *519:20 *1000:124 0.000694101
17 *4563:A *4563:B 7.76647e-05
18 *4590:A *519:20 4.43256e-05
19 *4590:B *519:20 5.52302e-05
20 *4627:A1 *4602:A2 1.56e-05
21 *478:16 *4563:B 0.000108848
22 *478:22 *4563:B 4.58192e-05
23 *479:33 *4563:B 0
24 *506:6 *519:20 7.71767e-05
25 *506:23 *519:20 0.000530213
26 *511:16 *519:22 0.000334664
27 *511:23 *4602:A2 1.39841e-05
28 *511:23 *519:22 3.69047e-06
29 *512:8 *4602:A2 9.90367e-05
30 *512:10 *4563:B 1.19402e-05
31 *517:8 *519:20 1.55885e-05
*RES
1 *4562:Y *519:20 44.7821 
2 *519:20 *519:22 10.8036 
3 *519:22 *4563:B 21.7643 
4 *519:22 *4602:A2 11.0679 
*END

*D_NET *520 0.00217956
*CONN
*I *4567:A I *D sky130_fd_sc_hd__xnor2_1
*I *4565:B I *D sky130_fd_sc_hd__nand2b_1
*I *4566:A_N I *D sky130_fd_sc_hd__and2b_1
*I *4563:Y O *D sky130_fd_sc_hd__xnor2_1
*CAP
1 *4567:A 0.000148645
2 *4565:B 0
3 *4566:A_N 0
4 *4563:Y 0.000496209
5 *520:23 0.00022887
6 *520:12 0.000576433
7 *4567:A *545:16 2.41663e-05
8 *520:23 *4565:A_N 4.18895e-05
9 *520:23 *4607:B1 0
10 *520:23 *521:6 4.88546e-05
11 *520:23 *521:10 0.00010096
12 *520:23 *545:16 0.00031543
13 *4607:A1 *4567:A 5.47476e-05
14 *4607:A1 *520:23 2.92346e-05
15 *11:9 *4567:A 0.000114121
16 *11:9 *520:12 0
17 *479:33 *520:12 0
*RES
1 *4563:Y *520:12 26.1929 
2 *520:12 *4566:A_N 9.3 
3 *520:12 *520:23 3.55804 
4 *520:23 *4565:B 9.3 
5 *520:23 *4567:A 21.6884 
*END

*D_NET *521 0.00252612
*CONN
*I *4566:B I *D sky130_fd_sc_hd__and2b_1
*I *4565:A_N I *D sky130_fd_sc_hd__nand2b_1
*I *4567:B I *D sky130_fd_sc_hd__xnor2_1
*I *4564:Y O *D sky130_fd_sc_hd__a21oi_1
*CAP
1 *4566:B 0
2 *4565:A_N 1.35541e-05
3 *4567:B 0.000183559
4 *4564:Y 0.000156422
5 *521:10 0.000242496
6 *521:6 0.000201805
7 *521:6 *545:16 0.000199598
8 *4568:A *4567:B 0.000128154
9 *4607:A1 *4565:A_N 5.33005e-05
10 *4607:A1 *521:10 9.09605e-05
11 *11:9 *4567:B 0.000196269
12 *478:12 *521:6 1.33343e-05
13 *510:6 *521:6 0.000842836
14 *510:6 *521:10 1.21289e-05
15 *520:23 *4565:A_N 4.18895e-05
16 *520:23 *521:6 4.88546e-05
17 *520:23 *521:10 0.00010096
*RES
1 *4564:Y *521:6 17.2286 
2 *521:6 *521:10 1.67857 
3 *521:10 *4567:B 21.8 
4 *521:10 *4565:A_N 9.83571 
5 *521:6 *4566:B 9.3 
*END

*D_NET *522 0.000403155
*CONN
*I *4607:B1 I *D sky130_fd_sc_hd__o21ai_1
*I *4565:Y O *D sky130_fd_sc_hd__nand2b_1
*CAP
1 *4607:B1 6.44119e-05
2 *4565:Y 6.44119e-05
3 *4607:B1 *4607:A2 1.74352e-05
4 *4607:B1 *545:16 0.000188586
5 *4607:B1 *563:8 2.27416e-05
6 *4607:A1 *4607:B1 4.55687e-05
7 *520:23 *4607:B1 0
*RES
1 *4565:Y *4607:B1 21.1 
*END

*D_NET *523 0.000593651
*CONN
*I *4607:A2 I *D sky130_fd_sc_hd__o21ai_1
*I *4566:X O *D sky130_fd_sc_hd__and2b_1
*CAP
1 *4607:A2 0.000153907
2 *4566:X 0.000153907
3 *4607:A1 *4607:A2 0.000268403
4 *4607:B1 *4607:A2 1.74352e-05
*RES
1 *4566:X *4607:A2 21.6 
*END

*D_NET *524 0.000537308
*CONN
*I *4568:B I *D sky130_fd_sc_hd__xnor2_1
*I *4567:Y O *D sky130_fd_sc_hd__xnor2_1
*CAP
1 *4568:B 0.00022563
2 *4567:Y 0.00022563
3 *4568:B *525:12 2.89016e-05
4 *4568:A *4568:B 5.71472e-05
5 *11:9 *4568:B 0
*RES
1 *4567:Y *4568:B 31.725 
*END

*D_NET *525 0.00178667
*CONN
*I *4570:B I *D sky130_fd_sc_hd__nand2b_1
*I *4571:A I *D sky130_fd_sc_hd__xnor2_1
*I *4568:Y O *D sky130_fd_sc_hd__xnor2_1
*CAP
1 *4570:B 0.000123571
2 *4571:A 0
3 *4568:Y 0.000614266
4 *525:12 0.000737836
5 *4570:B *4570:A_N 0.000137062
6 *4570:B *4572:B 8.78913e-05
7 *4570:B *4573:B 5.71472e-05
8 *525:12 *650:12 0
9 *4568:B *525:12 2.89016e-05
10 *4572:A_N *525:12 0
11 *485:12 *525:12 0
*RES
1 *4568:Y *525:12 27.6929 
2 *525:12 *4571:A 9.3 
3 *525:12 *4570:B 12.8759 
*END

*D_NET *526 0.00205349
*CONN
*I *4570:A_N I *D sky130_fd_sc_hd__nand2b_1
*I *4571:B I *D sky130_fd_sc_hd__xnor2_1
*I *4569:Y O *D sky130_fd_sc_hd__a21boi_1
*CAP
1 *4570:A_N 0.000136659
2 *4571:B 0
3 *4569:Y 0.000289426
4 *526:6 0.000426085
5 *4528:A *526:6 0.000265784
6 *4529:A2 *526:6 0.00014183
7 *4570:B *4570:A_N 0.000137062
8 *485:20 *526:6 0.000528188
9 *486:10 *526:6 7.32272e-05
10 *487:12 *526:6 5.52238e-05
*RES
1 *4569:Y *526:6 18.4607 
2 *526:6 *4571:B 9.3 
3 *526:6 *4570:A_N 12.3179 
*END

*D_NET *527 0.00180314
*CONN
*I *4612:A I *D sky130_fd_sc_hd__nand3_1
*I *4611:A1 I *D sky130_fd_sc_hd__a21oi_1
*I *4570:Y O *D sky130_fd_sc_hd__nand2b_1
*CAP
1 *4612:A 0.000196407
2 *4611:A1 0
3 *4570:Y 0.000531737
4 *527:12 0.000728145
5 *4612:A *4612:B 0.000121425
6 *4612:A *4612:C 5.52302e-05
7 *4612:A *567:10 9.22103e-06
8 *4612:A *568:10 5.30637e-06
9 *527:12 *4573:B 0
10 *527:12 *4612:B 2.89114e-05
11 *4572:A_N *527:12 0.000126759
*RES
1 *4570:Y *527:12 25.1036 
2 *527:12 *4611:A1 9.3 
3 *527:12 *4612:A 12.8714 
*END

*D_NET *528 0.00101839
*CONN
*I *4572:B I *D sky130_fd_sc_hd__nand2b_1
*I *4573:B I *D sky130_fd_sc_hd__xnor2_1
*I *4571:Y O *D sky130_fd_sc_hd__xnor2_1
*CAP
1 *4572:B 0.00028103
2 *4573:B 0.000155646
3 *4571:Y 0
4 *528:4 0.000436676
5 *4570:B *4572:B 8.78913e-05
6 *4570:B *4573:B 5.71472e-05
7 *4572:A_N *4573:B 0
8 *527:12 *4573:B 0
*RES
1 *4571:Y *528:4 9.3 
2 *528:4 *4573:B 20.7821 
3 *528:4 *4572:B 13.1616 
*END

*D_NET *529 0.00115874
*CONN
*I *4612:B I *D sky130_fd_sc_hd__nand3_1
*I *4611:A2 I *D sky130_fd_sc_hd__a21oi_1
*I *4572:Y O *D sky130_fd_sc_hd__nand2b_1
*CAP
1 *4612:B 7.98448e-05
2 *4611:A2 0
3 *4572:Y 0.000351671
4 *529:12 0.000431516
5 *4612:B *4612:C 5.52302e-05
6 *4612:B *567:10 5.76121e-05
7 *529:12 *566:10 3.2534e-05
8 *4612:A *4612:B 0.000121425
9 *527:12 *4612:B 2.89114e-05
*RES
1 *4572:Y *529:12 22.9429 
2 *529:12 *4611:A2 9.3 
3 *529:12 *4612:B 11.8893 
*END

*D_NET *530 0.00139849
*CONN
*I *4574:C I *D sky130_fd_sc_hd__or3_1
*I *4575:B1 I *D sky130_fd_sc_hd__o21a_1
*I *4576:B1 I *D sky130_fd_sc_hd__o21ai_1
*I *4573:Y O *D sky130_fd_sc_hd__xnor2_1
*CAP
1 *4574:C 5.0014e-05
2 *4575:B1 0
3 *4576:B1 0
4 *4573:Y 0.000400062
5 *530:19 0.000136277
6 *530:10 0.000486325
7 *4532:C1 *530:10 0
8 *4574:A *4574:C 0.000131439
9 *4574:A *530:19 0.000144773
10 *4576:A1 *530:19 1.3701e-05
11 *488:36 *530:19 3.5895e-05
12 *489:10 *530:10 0
13 *491:10 *530:10 0
*RES
1 *4573:Y *530:10 24.8 
2 *530:10 *4576:B1 9.3 
3 *530:10 *530:19 2.19643 
4 *530:19 *4575:B1 9.3 
5 *530:19 *4574:C 10.6571 
*END

*D_NET *531 0.00288339
*CONN
*I *4577:A I *D sky130_fd_sc_hd__nand2_1
*I *4614:A1 I *D sky130_fd_sc_hd__a21o_1
*I *4647:A1 I *D sky130_fd_sc_hd__a21o_1
*I *4574:X O *D sky130_fd_sc_hd__or3_1
*CAP
1 *4577:A 0.000187847
2 *4614:A1 0
3 *4647:A1 0.000330037
4 *4574:X 0.000226363
5 *531:21 0.000234521
6 *531:8 0.000603074
7 *4577:A *4649:C1 6.5185e-05
8 *4577:A *968:107 0.000173083
9 *4647:A1 *968:107 0.000270943
10 *4647:A1 *968:113 0.000227539
11 *531:8 *532:8 0.000361914
12 *531:21 *968:107 8.07951e-05
13 *181:54 *4577:A 0.000122091
*RES
1 *4574:X *531:8 17.2107 
2 *531:8 *4647:A1 19.8536 
3 *531:8 *531:21 1.03571 
4 *531:21 *4614:A1 13.8 
5 *531:21 *4577:A 18.2286 
*END

*D_NET *532 0.00172792
*CONN
*I *4648:A1 I *D sky130_fd_sc_hd__a21o_1
*I *4614:B1 I *D sky130_fd_sc_hd__a21o_1
*I *4575:X O *D sky130_fd_sc_hd__o21a_1
*CAP
1 *4648:A1 0.000100566
2 *4614:B1 2.06112e-05
3 *4575:X 0.000274092
4 *532:8 0.000395268
5 *4614:B1 *4614:A2 3.99614e-06
6 *4648:A1 *4614:A2 5.62995e-05
7 *4648:A1 *4615:B 0.000229456
8 *4648:A1 *4648:B1 5.52238e-05
9 *4648:A1 *4649:C1 1.74352e-05
10 *532:8 *4614:A2 4.16984e-05
11 *532:8 *4649:C1 1.32552e-05
12 *4574:A *532:8 0.00010096
13 *4574:B *532:8 5.71472e-05
14 *531:8 *532:8 0.000361914
*RES
1 *4575:X *532:8 16.0143 
2 *532:8 *4614:B1 9.72857 
3 *532:8 *4648:A1 12.7286 
*END

*D_NET *533 0.000905074
*CONN
*I *4577:B I *D sky130_fd_sc_hd__nand2_1
*I *4576:Y O *D sky130_fd_sc_hd__o21ai_1
*CAP
1 *4577:B 0.000303706
2 *4576:Y 0.000303706
3 *181:54 *4577:B 0.000297662
4 *491:10 *4577:B 0
*RES
1 *4576:Y *4577:B 34.2964 
*END

*D_NET *534 0.00120887
*CONN
*I *4581:A I *D sky130_fd_sc_hd__xnor2_1
*I *4577:Y O *D sky130_fd_sc_hd__nand2_1
*CAP
1 *4581:A 0.000241587
2 *4577:Y 0.000241587
3 *4581:A *4649:C1 0.000322453
4 *4581:A *968:107 0.00017379
5 *181:54 *4581:A 0.000229456
*RES
1 *4577:Y *4581:A 33.85 
*END

*D_NET *535 0.0016661
*CONN
*I *4580:A2 I *D sky130_fd_sc_hd__a21o_1
*I *4649:A1 I *D sky130_fd_sc_hd__a211o_1
*I *4578:X O *D sky130_fd_sc_hd__and4b_1
*CAP
1 *4580:A2 5.83421e-05
2 *4649:A1 0
3 *4578:X 0.000522045
4 *535:12 0.000580388
5 *4580:A2 *4580:B1 5.57575e-05
6 *4580:A2 *4649:B1 1.15322e-05
7 *4580:A2 *536:6 5.62995e-05
8 *535:12 *4649:C1 4.1331e-06
9 *535:12 *968:107 0
10 *4536:B *535:12 0.000144773
11 *4580:A1 *4580:A2 0.000197092
12 *4649:A2 *4580:A2 3.57366e-05
*RES
1 *4578:X *535:12 24.5857 
2 *535:12 *4649:A1 9.3 
3 *535:12 *4580:A2 11.925 
*END

*D_NET *536 0.00136958
*CONN
*I *4580:B1 I *D sky130_fd_sc_hd__a21o_1
*I *4649:B1 I *D sky130_fd_sc_hd__a211o_1
*I *4579:X O *D sky130_fd_sc_hd__a21bo_1
*CAP
1 *4580:B1 7.82169e-05
2 *4649:B1 1.83027e-05
3 *4579:X 0.000163029
4 *536:6 0.000259548
5 *4580:B1 *604:10 0.000213179
6 *536:6 *604:10 0.000232399
7 *4580:A1 *4580:B1 1.74352e-05
8 *4580:A1 *536:6 1.21289e-05
9 *4580:A2 *4580:B1 5.57575e-05
10 *4580:A2 *4649:B1 1.15322e-05
11 *4580:A2 *536:6 5.62995e-05
12 *416:24 *536:6 0.000251754
*RES
1 *4579:X *536:6 14.7643 
2 *536:6 *4649:B1 9.72857 
3 *536:6 *4580:B1 11.9071 
*END

*D_NET *537 0.00184789
*CONN
*I *4581:B I *D sky130_fd_sc_hd__xnor2_1
*I *4614:A2 I *D sky130_fd_sc_hd__a21o_1
*I *4580:X O *D sky130_fd_sc_hd__a21o_1
*CAP
1 *4581:B 6.90522e-05
2 *4614:A2 0.0004108
3 *4580:X 8.19001e-05
4 *537:8 0.000561752
5 *4581:B *538:8 5.52238e-05
6 *4581:B *849:24 9.7659e-05
7 *4614:A2 *4649:C1 0.000224583
8 *4614:A2 *968:107 0.000205171
9 *537:8 *4583:B 0
10 *537:8 *968:107 3.97543e-05
11 *4614:B1 *4614:A2 3.99614e-06
12 *4648:A1 *4614:A2 5.62995e-05
13 *532:8 *4614:A2 4.16984e-05
*RES
1 *4580:X *537:8 15.4429 
2 *537:8 *4614:A2 23.5143 
3 *537:8 *4581:B 15.5679 
*END

*D_NET *538 0.00110693
*CONN
*I *4582:B I *D sky130_fd_sc_hd__nand2_1
*I *4583:B I *D sky130_fd_sc_hd__xnor2_1
*I *4581:Y O *D sky130_fd_sc_hd__xnor2_1
*CAP
1 *4582:B 7.39884e-05
2 *4583:B 0.000165103
3 *4581:Y 0.000191524
4 *538:8 0.000430615
5 *4582:B *849:24 7.37256e-05
6 *4583:B *4618:A2 0
7 *4583:B *542:10 0
8 *4583:B *968:107 0
9 *538:8 *849:24 0.000116749
10 *4581:B *538:8 5.52238e-05
11 *537:8 *4583:B 0
*RES
1 *4581:Y *538:8 13.4429 
2 *538:8 *4583:B 20.8536 
3 *538:8 *4582:B 11.0679 
*END

*D_NET *539 0.00173893
*CONN
*I *4619:A I *D sky130_fd_sc_hd__and3_1
*I *4618:A1 I *D sky130_fd_sc_hd__a21oi_2
*I *4582:Y O *D sky130_fd_sc_hd__nand2_1
*CAP
1 *4619:A 0.000194142
2 *4618:A1 2.03441e-05
3 *4582:Y 8.51133e-05
4 *539:6 0.0002996
5 *4618:A1 *4618:A2 5.7661e-06
6 *4618:A1 *4618:B1 0
7 *4619:A *4618:B1 5.33334e-05
8 *4619:A *4619:C 2.04134e-05
9 *4619:A *4621:A2 1.40034e-05
10 *4619:A *4621:B1 3.57366e-05
11 *4619:A *574:12 1.55885e-05
12 *4619:A *849:24 0.000492333
13 *539:6 *4618:A2 0.000146533
14 *539:6 *849:24 0.000356028
*RES
1 *4582:Y *539:6 12.7107 
2 *539:6 *4618:A1 9.72857 
3 *539:6 *4619:A 15.6214 
*END

*D_NET *540 0.00174248
*CONN
*I *4585:C1 I *D sky130_fd_sc_hd__a211o_1
*I *4586:A I *D sky130_fd_sc_hd__xnor2_1
*I *4583:Y O *D sky130_fd_sc_hd__xnor2_1
*CAP
1 *4585:C1 0
2 *4586:A 0.000233415
3 *4583:Y 0.000418661
4 *540:12 0.000652076
5 *4586:A *4587:B 0
6 *4586:A *542:10 5.76121e-05
7 *4586:A *772:114 3.57315e-05
8 *540:12 *604:10 5.70551e-05
9 *540:12 *798:16 0
10 *540:12 *968:107 0.000195912
11 *4585:A1 *4586:A 8.17713e-05
12 *4585:B1 *540:12 1.02504e-05
*RES
1 *4583:Y *540:12 26.5679 
2 *540:12 *4586:A 13.9786 
3 *540:12 *4585:C1 9.3 
*END

*D_NET *541 0.000611478
*CONN
*I *4586:B I *D sky130_fd_sc_hd__xnor2_1
*I *4584:X O *D sky130_fd_sc_hd__a21o_1
*CAP
1 *4586:B 0.000305739
2 *4584:X 0.000305739
3 *4586:B *542:10 0
4 *4585:A2 *4586:B 0
*RES
1 *4584:X *4586:B 31.4214 
*END

*D_NET *542 0.00386998
*CONN
*I *4619:B I *D sky130_fd_sc_hd__and3_1
*I *4618:A2 I *D sky130_fd_sc_hd__a21oi_2
*I *4585:X O *D sky130_fd_sc_hd__a211o_1
*CAP
1 *4619:B 0.000426855
2 *4618:A2 0.000229281
3 *4585:X 0.000589328
4 *542:10 0.00124546
5 *4618:A2 *4582:A 7.83587e-05
6 *4618:A2 *4618:B1 0
7 *4618:A2 *604:10 7.80714e-06
8 *4619:B *849:24 0.000662718
9 *542:10 *4582:A 0.000148911
10 *542:10 *4588:A1 0
11 *542:10 *4588:C1 0
12 *542:10 *772:114 0.000271345
13 *542:10 *798:16 0
14 *542:10 *1012:23 0
15 *4583:B *4618:A2 0
16 *4583:B *542:10 0
17 *4585:A2 *542:10 0
18 *4586:A *542:10 5.76121e-05
19 *4586:B *542:10 0
20 *4618:A1 *4618:A2 5.7661e-06
21 *539:6 *4618:A2 0.000146533
*RES
1 *4585:X *542:10 25.925 
2 *542:10 *4618:A2 18.1571 
3 *542:10 *4619:B 20.0857 
*END

*D_NET *543 0.000395117
*CONN
*I *4587:B I *D sky130_fd_sc_hd__nand2_1
*I *4586:Y O *D sky130_fd_sc_hd__xnor2_1
*CAP
1 *4587:B 0.000119659
2 *4586:Y 0.000119659
3 *4587:B *4588:C1 2.89114e-05
4 *4587:B *772:114 6.97409e-05
5 *4587:B *1012:23 5.71472e-05
6 *4586:A *4587:B 0
*RES
1 *4586:Y *4587:B 21.5107 
*END

*D_NET *544 0.000377814
*CONN
*I *4588:C1 I *D sky130_fd_sc_hd__o211a_1
*I *4587:Y O *D sky130_fd_sc_hd__nand2_1
*CAP
1 *4588:C1 0.000165734
2 *4587:Y 0.000165734
3 *4588:C1 *4588:A1 0
4 *4588:C1 *1012:23 1.74352e-05
5 *4587:B *4588:C1 2.89114e-05
6 *542:10 *4588:C1 0
*RES
1 *4587:Y *4588:C1 30.1893 
*END

*D_NET *545 0.00640826
*CONN
*I *4643:A1 I *D sky130_fd_sc_hd__a21o_1
*I *4610:A I *D sky130_fd_sc_hd__xnor2_1
*I *4589:X O *D sky130_fd_sc_hd__a21o_1
*CAP
1 *4643:A1 0.000123427
2 *4610:A 2.23854e-05
3 *4589:X 0.00217673
4 *545:16 0.00232255
5 *4610:A *4643:A2 0
6 *4643:A1 *4643:A2 0.000129595
7 *545:16 *4608:B 4.51611e-05
8 *545:16 *4609:A 2.59355e-05
9 *545:16 *4643:A2 1.21289e-05
10 *545:16 *563:8 0.000141773
11 *545:16 *565:6 9.9322e-05
12 *4553:A *545:16 0.000146852
13 *4567:A *545:16 2.41663e-05
14 *4607:A1 *545:16 2.95641e-05
15 *4607:B1 *545:16 0.000188586
16 *478:12 *545:16 0.00040505
17 *520:23 *545:16 0.00031543
18 *521:6 *545:16 0.000199598
*RES
1 *4589:X *545:16 41.7643 
2 *545:16 *4610:A 9.72857 
3 *545:16 *4643:A1 11.8893 
*END

*D_NET *546 0.00545534
*CONN
*I *4594:A I *D sky130_fd_sc_hd__xor2_1
*I *4623:A1 I *D sky130_fd_sc_hd__a21bo_1
*I *4590:Y O *D sky130_fd_sc_hd__nand2_1
*CAP
1 *4594:A 0
2 *4623:A1 0.000172766
3 *4590:Y 0.00152707
4 *546:10 0.00169984
5 *4623:A1 *4623:A2 0.000347443
6 *4623:A1 *549:12 5.52302e-05
7 *4623:A1 *550:12 0.000232399
8 *4623:A1 *796:25 5.7616e-05
9 *546:10 *4623:B1_N 0
10 *546:10 *796:25 0.000237521
11 *546:10 *997:136 0.000600387
12 *546:10 *998:92 9.41642e-05
13 *546:10 *998:98 1.98839e-05
14 *4590:A *546:10 2.89114e-05
15 *506:6 *546:10 0.000186662
16 *506:23 *546:10 0.000129388
17 *519:20 *546:10 6.60546e-05
*RES
1 *4590:Y *546:10 35.5679 
2 *546:10 *4623:A1 18.9071 
3 *546:10 *4594:A 13.8 
*END

*D_NET *547 0.0022035
*CONN
*I *4673:A1 I *D sky130_fd_sc_hd__a21oi_2
*I *4636:A I *D sky130_fd_sc_hd__xnor2_1
*I *4593:A I *D sky130_fd_sc_hd__nor2_1
*I *4591:X O *D sky130_fd_sc_hd__and4b_1
*CAP
1 *4673:A1 0
2 *4636:A 0.000183989
3 *4593:A 0
4 *4591:X 0.000131647
5 *547:27 0.000694347
6 *547:14 0.000642005
7 *4636:A *4636:B 0.000149489
8 *4636:A *627:12 1.32552e-05
9 *547:14 *556:12 0.000154875
10 *547:27 *4673:B1 0
11 *547:27 *556:12 0.000200462
12 *547:27 *590:10 3.34295e-05
13 *547:27 *796:25 0
*RES
1 *4591:X *547:14 13.1929 
2 *547:14 *4593:A 9.3 
3 *547:14 *547:27 19.0357 
4 *547:27 *4636:A 13.1571 
5 *547:27 *4673:A1 9.3 
*END

*D_NET *548 0.000573985
*CONN
*I *4593:B I *D sky130_fd_sc_hd__nor2_1
*I *4592:X O *D sky130_fd_sc_hd__o2bb2a_1
*CAP
1 *4593:B 0.000286992
2 *4592:X 0.000286992
3 *4593:B *796:25 0
4 *4593:B *975:74 0
*RES
1 *4592:X *4593:B 31.4214 
*END

*D_NET *549 0.00133557
*CONN
*I *4623:A2 I *D sky130_fd_sc_hd__a21bo_1
*I *4594:B I *D sky130_fd_sc_hd__xor2_1
*I *4593:Y O *D sky130_fd_sc_hd__nor2_1
*CAP
1 *4623:A2 0.000123145
2 *4594:B 0
3 *4593:Y 0.000278508
4 *549:12 0.000401653
5 *4623:A2 *4623:B1_N 0.000105163
6 *4623:A2 *550:12 2.44318e-05
7 *549:12 *4549:D 0
8 *549:12 *796:25 0
9 *4623:A1 *4623:A2 0.000347443
10 *4623:A1 *549:12 5.52302e-05
*RES
1 *4593:Y *549:12 22.8357 
2 *549:12 *4594:B 9.3 
3 *549:12 *4623:A2 13.55 
*END

*D_NET *550 0.00119691
*CONN
*I *4596:B I *D sky130_fd_sc_hd__xnor2_1
*I *4595:B I *D sky130_fd_sc_hd__nand2_1
*I *4594:X O *D sky130_fd_sc_hd__xor2_1
*CAP
1 *4596:B 7.1473e-05
2 *4595:B 0
3 *4594:X 0.000297437
4 *550:12 0.00036891
5 *550:12 *4623:B1_N 3.92854e-05
6 *4596:A *4596:B 0.000153279
7 *4623:A1 *550:12 0.000232399
8 *4623:A2 *550:12 2.44318e-05
9 *519:20 *550:12 9.69119e-06
*RES
1 *4594:X *550:12 24.1571 
2 *550:12 *4595:B 9.3 
3 *550:12 *4596:B 11.0857 
*END

*D_NET *551 0.000489551
*CONN
*I *4623:B1_N I *D sky130_fd_sc_hd__a21bo_1
*I *4595:Y O *D sky130_fd_sc_hd__nand2_1
*CAP
1 *4623:B1_N 0.000172551
2 *4595:Y 0.000172551
3 *4623:A2 *4623:B1_N 0.000105163
4 *546:10 *4623:B1_N 0
5 *550:12 *4623:B1_N 3.92854e-05
*RES
1 *4595:Y *4623:B1_N 30.4036 
*END

*D_NET *552 0.00430563
*CONN
*I *4606:A I *D sky130_fd_sc_hd__xor2_1
*I *4605:A I *D sky130_fd_sc_hd__or2_1
*I *4596:Y O *D sky130_fd_sc_hd__xnor2_1
*CAP
1 *4606:A 7.98854e-05
2 *4605:A 9.38528e-05
3 *4596:Y 0.0015649
4 *552:8 0.00173864
5 *4605:A *4605:B 0.000144773
6 *4605:A *4606:B 8.07951e-05
7 *4605:A *559:8 0.000230482
8 *4606:A *4606:B 0.000118903
9 *552:8 *4603:A 9.22103e-06
10 *552:8 *4603:B 0.000146533
11 *552:8 *559:8 9.76491e-05
12 *11:9 *4606:A 0
*RES
1 *4596:Y *552:8 32.4071 
2 *552:8 *4605:A 17.0143 
3 *552:8 *4606:A 15.7464 
*END

*D_NET *553 0.00292598
*CONN
*I *4660:A2 I *D sky130_fd_sc_hd__a21oi_2
*I *4630:A3 I *D sky130_fd_sc_hd__a31o_1
*I *4598:B I *D sky130_fd_sc_hd__and2_1
*I *4624:B2 I *D sky130_fd_sc_hd__a22oi_1
*I *4597:X O *D sky130_fd_sc_hd__o21a_1
*CAP
1 *4660:A2 0
2 *4630:A3 0.000222436
3 *4598:B 0.000170677
4 *4624:B2 0
5 *4597:X 0
6 *553:26 0.000372275
7 *553:8 0.000273678
8 *553:4 0.00025284
9 *4598:B *4557:A 0
10 *4598:B *4625:A2 0
11 *4598:B *984:46 2.88424e-05
12 *4598:B *992:79 9.11365e-06
13 *4630:A3 *4557:C 0
14 *4630:A3 *4660:A1 7.60306e-05
15 *4630:A3 *978:73 9.71197e-05
16 *553:8 *4557:A 0
17 *553:8 *992:79 5.03787e-05
18 *553:26 *4557:A 0.000186669
19 *553:26 *580:18 0.000534222
20 *553:26 *992:85 0.000537165
21 *4598:A *4598:B 7.17932e-05
22 *4660:B1 *4630:A3 4.27437e-05
*RES
1 *4597:X *553:4 9.3 
2 *553:4 *553:8 6.44643 
3 *553:8 *4624:B2 13.8 
4 *553:8 *4598:B 16.9607 
5 *553:4 *553:26 7.10714 
6 *553:26 *4630:A3 22.4429 
7 *553:26 *4660:A2 9.3 
*END

*D_NET *554 0.00193295
*CONN
*I *4600:A I *D sky130_fd_sc_hd__xor2_1
*I *4625:A2 I *D sky130_fd_sc_hd__a21oi_2
*I *4598:X O *D sky130_fd_sc_hd__and2_1
*CAP
1 *4600:A 0.000100818
2 *4625:A2 0.000143185
3 *4598:X 0.00024057
4 *554:8 0.000484572
5 *4600:A *792:29 0.000335667
6 *4600:A *983:60 0.000184626
7 *4625:A2 *792:29 0.000106403
8 *4625:A2 *978:60 0
9 *4625:A2 *978:73 0.00010096
10 *4625:A2 *983:54 5.33334e-05
11 *4625:A2 *983:60 0.000107494
12 *554:8 *792:25 7.53208e-05
13 *4598:B *4625:A2 0
*RES
1 *4598:X *554:8 16.8 
2 *554:8 *4625:A2 17.9071 
3 *554:8 *4600:A 18.175 
*END

*D_NET *555 0.000340744
*CONN
*I *4600:B I *D sky130_fd_sc_hd__xor2_1
*I *4599:Y O *D sky130_fd_sc_hd__nand2_1
*CAP
1 *4600:B 9.7941e-05
2 *4599:Y 9.7941e-05
3 *4600:B *4599:B 9.60771e-05
4 *4600:B *1000:35 4.87854e-05
*RES
1 *4599:Y *4600:B 20.7786 
*END

*D_NET *556 0.00607754
*CONN
*I *4627:A2 I *D sky130_fd_sc_hd__o21ai_1
*I *4601:B I *D sky130_fd_sc_hd__xnor2_1
*I *4600:X O *D sky130_fd_sc_hd__xor2_1
*CAP
1 *4627:A2 7.53476e-05
2 *4601:B 0
3 *4600:X 0.00236154
4 *556:18 0.000139908
5 *556:12 0.0024261
6 *4627:A2 *557:12 1.74352e-05
7 *4627:A2 *578:10 0.000315165
8 *556:12 *4591:A_N 2.59355e-05
9 *556:12 *4591:B 8.27238e-06
10 *556:12 *4591:C 1.21258e-05
11 *556:12 *4591:D 3.55505e-05
12 *556:12 *978:60 0
13 *556:12 *983:60 3.48139e-05
14 *556:12 *1000:35 9.25014e-06
15 *4601:A *4627:A2 9.90367e-05
16 *4627:A1 *4627:A2 5.71472e-05
17 *478:22 *556:18 6.42338e-05
18 *512:12 *556:18 4.03318e-05
19 *547:14 *556:12 0.000154875
20 *547:27 *556:12 0.000200462
*RES
1 *4600:X *556:12 46.9786 
2 *556:12 *556:18 10.6429 
3 *556:18 *4601:B 9.3 
4 *556:18 *4627:A2 12.3 
*END

*D_NET *557 0.00197631
*CONN
*I *4603:A I *D sky130_fd_sc_hd__nand2_1
*I *4604:A I *D sky130_fd_sc_hd__xnor2_1
*I *4601:Y O *D sky130_fd_sc_hd__xnor2_1
*CAP
1 *4603:A 0.000124349
2 *4604:A 0
3 *4601:Y 0.000493953
4 *557:12 0.000618302
5 *4603:A *4603:B 0.000211569
6 *4603:A *559:8 3.18676e-05
7 *4603:A *560:10 0.000155196
8 *557:12 *578:10 0.000159063
9 *4627:A1 *557:12 2.89114e-05
10 *4627:A2 *557:12 1.74352e-05
11 *4627:B1 *557:12 0
12 *11:9 *557:12 0.000126439
13 *552:8 *4603:A 9.22103e-06
*RES
1 *4601:Y *557:12 25.8179 
2 *557:12 *4604:A 9.3 
3 *557:12 *4603:A 13.2821 
*END

*D_NET *558 0.00175275
*CONN
*I *4603:B I *D sky130_fd_sc_hd__nand2_1
*I *4604:B I *D sky130_fd_sc_hd__xnor2_1
*I *4602:Y O *D sky130_fd_sc_hd__o21ai_1
*CAP
1 *4603:B 8.35648e-05
2 *4604:B 0
3 *4602:Y 0.000542071
4 *558:12 0.000625636
5 *4603:A *4603:B 0.000211569
6 *4627:A1 *558:12 3.69047e-06
7 *4627:B1 *558:12 7.77652e-05
8 *11:9 *558:12 6.19181e-05
9 *552:8 *4603:B 0.000146533
*RES
1 *4602:Y *558:12 25.4071 
2 *558:12 *4604:B 9.3 
3 *558:12 *4603:B 12.3179 
*END

*D_NET *559 0.00167826
*CONN
*I *4640:A I *D sky130_fd_sc_hd__and3_1
*I *4639:A1 I *D sky130_fd_sc_hd__a21oi_1
*I *4603:Y O *D sky130_fd_sc_hd__nand2_1
*CAP
1 *4640:A 8.92804e-05
2 *4639:A1 0
3 *4603:Y 0.000320445
4 *559:8 0.000409726
5 *4640:A *4639:B1 6.39901e-05
6 *4640:A *4640:B 8.15939e-05
7 *4640:A *593:10 5.80706e-06
8 *4640:A *651:14 7.79781e-06
9 *559:8 *4605:B 2.14757e-05
10 *559:8 *560:10 4.10304e-05
11 *559:8 *561:6 0.000271345
12 *559:8 *594:10 5.7661e-06
13 *4603:A *559:8 3.18676e-05
14 *4605:A *559:8 0.000230482
15 *552:8 *559:8 9.76491e-05
*RES
1 *4603:Y *559:8 17.2464 
2 *559:8 *4639:A1 9.3 
3 *559:8 *4640:A 20.7821 
*END

*D_NET *560 0.00130026
*CONN
*I *4605:B I *D sky130_fd_sc_hd__or2_1
*I *4606:B I *D sky130_fd_sc_hd__xor2_1
*I *4604:Y O *D sky130_fd_sc_hd__xnor2_1
*CAP
1 *4605:B 7.78865e-05
2 *4606:B 0.000130916
3 *4604:Y 0.000160243
4 *560:10 0.000369045
5 *4603:A *560:10 0.000155196
6 *4605:A *4605:B 0.000144773
7 *4605:A *4606:B 8.07951e-05
8 *4606:A *4606:B 0.000118903
9 *11:9 *4606:B 0
10 *559:8 *4605:B 2.14757e-05
11 *559:8 *560:10 4.10304e-05
*RES
1 *4604:Y *560:10 12.0321 
2 *560:10 *4606:B 21.1571 
3 *560:10 *4605:B 11.0679 
*END

*D_NET *561 0.00134727
*CONN
*I *4639:A2 I *D sky130_fd_sc_hd__a21oi_1
*I *4640:B I *D sky130_fd_sc_hd__and3_1
*I *4605:X O *D sky130_fd_sc_hd__or2_1
*CAP
1 *4639:A2 0
2 *4640:B 0.000227465
3 *4605:X 0.000109955
4 *561:6 0.00033742
5 *4640:B *578:10 0.000184745
6 *4640:B *593:10 0
7 *4640:B *650:12 0.000134748
8 *4640:A *4640:B 8.15939e-05
9 *559:8 *561:6 0.000271345
*RES
1 *4605:X *561:6 11.8893 
2 *561:6 *4640:B 23.2286 
3 *561:6 *4639:A2 9.3 
*END

*D_NET *562 0.00172304
*CONN
*I *4609:A I *D sky130_fd_sc_hd__xor2_1
*I *4608:A I *D sky130_fd_sc_hd__and2_1
*I *4606:X O *D sky130_fd_sc_hd__xor2_1
*CAP
1 *4609:A 0.000103108
2 *4608:A 0
3 *4606:X 0.000395456
4 *562:10 0.000498564
5 *4609:A *4608:B 0.000135863
6 *4609:A *650:12 0.000166976
7 *4609:A *651:14 0
8 *562:10 *650:12 0.000397141
9 *562:10 *651:14 0
10 *545:16 *4609:A 2.59355e-05
*RES
1 *4606:X *562:10 22.1929 
2 *562:10 *4608:A 13.8 
3 *562:10 *4609:A 17.0143 
*END

*D_NET *563 0.0013109
*CONN
*I *4608:B I *D sky130_fd_sc_hd__and2_1
*I *4609:B I *D sky130_fd_sc_hd__xor2_1
*I *4607:Y O *D sky130_fd_sc_hd__o21ai_1
*CAP
1 *4608:B 0.000202407
2 *4609:B 0
3 *4607:Y 0.000272942
4 *563:8 0.000475349
5 *4608:B *650:12 1.46624e-05
6 *4608:B *651:14 0
7 *4607:B1 *563:8 2.27416e-05
8 *4609:A *4608:B 0.000135863
9 *545:16 *4608:B 4.51611e-05
10 *545:16 *563:8 0.000141773
*RES
1 *4607:Y *563:8 14.7821 
2 *563:8 *4609:B 9.3 
3 *563:8 *4608:B 22.6214 
*END

*D_NET *564 0.00124026
*CONN
*I *4643:B1 I *D sky130_fd_sc_hd__a21o_1
*I *4608:X O *D sky130_fd_sc_hd__and2_1
*CAP
1 *4643:B1 0.000620131
2 *4608:X 0.000620131
3 *4643:B1 *4645:A 0
4 *4643:B1 *4719:C1 0
*RES
1 *4608:X *4643:B1 35.1179 
*END

*D_NET *565 0.000749747
*CONN
*I *4643:A2 I *D sky130_fd_sc_hd__a21o_1
*I *4610:B I *D sky130_fd_sc_hd__xnor2_1
*I *4609:X O *D sky130_fd_sc_hd__xor2_1
*CAP
1 *4643:A2 0.000125332
2 *4610:B 0
3 *4609:X 0.000129018
4 *565:6 0.00025435
5 *4610:A *4643:A2 0
6 *4643:A1 *4643:A2 0.000129595
7 *545:16 *4643:A2 1.21289e-05
8 *545:16 *565:6 9.9322e-05
*RES
1 *4609:X *565:6 11.8893 
2 *565:6 *4610:B 9.3 
3 *565:6 *4643:A2 12.3179 
*END

*D_NET *566 0.00170506
*CONN
*I *4612:C I *D sky130_fd_sc_hd__nand3_1
*I *4611:B1 I *D sky130_fd_sc_hd__a21oi_1
*I *4610:Y O *D sky130_fd_sc_hd__xnor2_1
*CAP
1 *4612:C 1.16062e-05
2 *4611:B1 0
3 *4610:Y 0.000769424
4 *566:10 0.00078103
5 *566:10 *4700:A 0
6 *566:10 *4719:C1 0
7 *4612:A *4612:C 5.52302e-05
8 *4612:B *4612:C 5.52302e-05
9 *529:12 *566:10 3.2534e-05
*RES
1 *4610:Y *566:10 32.0857 
2 *566:10 *4611:B1 9.3 
3 *566:10 *4612:C 9.83571 
*END

*D_NET *567 0.00183626
*CONN
*I *4648:B1 I *D sky130_fd_sc_hd__a21o_1
*I *4613:A_N I *D sky130_fd_sc_hd__nand2b_1
*I *4647:B1 I *D sky130_fd_sc_hd__a21o_1
*I *4611:Y O *D sky130_fd_sc_hd__a21oi_1
*CAP
1 *4648:B1 0.000144274
2 *4613:A_N 0
3 *4647:B1 0
4 *4611:Y 0.000404039
5 *567:19 0.000267442
6 *567:10 0.000527206
7 *4648:B1 *4648:A2 0.000117369
8 *4648:B1 *968:107 0
9 *567:10 *568:10 0.000198632
10 *567:10 *568:27 4.1331e-06
11 *567:10 *602:10 0
12 *567:19 *4648:A2 5.80706e-06
13 *567:19 *568:27 4.53031e-05
14 *567:19 *968:107 0
15 *4612:A *567:10 9.22103e-06
16 *4612:B *567:10 5.76121e-05
17 *4648:A1 *4648:B1 5.52238e-05
*RES
1 *4611:Y *567:10 19.9786 
2 *567:10 *4647:B1 13.8 
3 *567:10 *567:19 2.25 
4 *567:19 *4613:A_N 13.8 
5 *567:19 *4648:B1 17.1929 
*END

*D_NET *568 0.00152481
*CONN
*I *4648:A2 I *D sky130_fd_sc_hd__a21o_1
*I *4613:B I *D sky130_fd_sc_hd__nand2b_1
*I *4647:A2 I *D sky130_fd_sc_hd__a21o_1
*I *4612:Y O *D sky130_fd_sc_hd__nand3_1
*CAP
1 *4648:A2 0.000167942
2 *4613:B 0
3 *4647:A2 0
4 *4612:Y 0.00015373
5 *568:27 0.000420403
6 *568:10 0.00040619
7 *4648:A2 *4615:B 0
8 *4648:A2 *604:10 0
9 *568:27 *968:107 0
10 *4612:A *568:10 5.30637e-06
11 *4648:B1 *4648:A2 0.000117369
12 *567:10 *568:10 0.000198632
13 *567:10 *568:27 4.1331e-06
14 *567:19 *4648:A2 5.80706e-06
15 *567:19 *568:27 4.53031e-05
*RES
1 *4612:Y *568:10 17.4071 
2 *568:10 *4647:A2 13.8 
3 *568:10 *568:27 8.77232 
4 *568:27 *4613:B 9.3 
5 *568:27 *4648:A2 21.6884 
*END

*D_NET *569 0.000161517
*CONN
*I *4615:A I *D sky130_fd_sc_hd__xnor2_1
*I *4613:Y O *D sky130_fd_sc_hd__nand2b_1
*CAP
1 *4615:A 8.07586e-05
2 *4613:Y 8.07586e-05
*RES
1 *4613:Y *4615:A 19.9571 
*END

*D_NET *570 0.000954862
*CONN
*I *4615:B I *D sky130_fd_sc_hd__xnor2_1
*I *4614:X O *D sky130_fd_sc_hd__a21o_1
*CAP
1 *4615:B 0.000362703
2 *4614:X 0.000362703
3 *4615:B *604:10 0
4 *4648:A1 *4615:B 0.000229456
5 *4648:A2 *4615:B 0
*RES
1 *4614:X *4615:B 33.7786 
*END

*D_NET *571 0.00129757
*CONN
*I *4616:B I *D sky130_fd_sc_hd__and2_1
*I *4617:B I *D sky130_fd_sc_hd__xnor2_1
*I *4615:Y O *D sky130_fd_sc_hd__xnor2_1
*CAP
1 *4616:B 0.000151736
2 *4617:B 0
3 *4615:Y 0.000356882
4 *571:12 0.000508618
5 *4616:B *4617:A 0.000179372
6 *4616:B *799:14 0.00010096
7 *571:12 *604:10 0
*RES
1 *4615:Y *571:12 23.6571 
2 *571:12 *4617:B 9.3 
3 *571:12 *4616:B 13.1393 
*END

*D_NET *572 0.00183607
*CONN
*I *4622:A I *D sky130_fd_sc_hd__nor2_1
*I *4707:A1 I *D sky130_fd_sc_hd__o21ai_4
*I *4616:X O *D sky130_fd_sc_hd__and2_1
*CAP
1 *4622:A 3.08975e-05
2 *4707:A1 7.54454e-05
3 *4616:X 0.000356079
4 *572:6 0.000462422
5 *4707:A1 *654:18 9.24491e-05
6 *4707:A1 *799:8 1.19402e-05
7 *4707:A1 *799:14 5.35516e-05
8 *572:6 *799:14 0.000753287
*RES
1 *4616:X *572:6 17.6393 
2 *572:6 *4707:A1 20.55 
3 *572:6 *4622:A 9.83571 
*END

*D_NET *573 0.00108035
*CONN
*I *4619:C I *D sky130_fd_sc_hd__and3_1
*I *4618:B1 I *D sky130_fd_sc_hd__a21oi_2
*I *4617:Y O *D sky130_fd_sc_hd__xnor2_1
*CAP
1 *4619:C 1.84411e-05
2 *4618:B1 7.4308e-05
3 *4617:Y 0.000301444
4 *573:10 0.000394193
5 *4618:B1 *574:12 1.24368e-05
6 *573:10 *4620:A2 0.000127446
7 *573:10 *4620:B1 0
8 *573:10 *4995:A 7.83366e-05
9 *4618:A1 *4618:B1 0
10 *4618:A2 *4618:B1 0
11 *4619:A *4618:B1 5.33334e-05
12 *4619:A *4619:C 2.04134e-05
*RES
1 *4617:Y *573:10 24.4964 
2 *573:10 *4618:B1 10.675 
3 *573:10 *4619:C 9.69286 
*END

*D_NET *574 0.00383516
*CONN
*I *4707:A2 I *D sky130_fd_sc_hd__o21ai_4
*I *4622:B I *D sky130_fd_sc_hd__nor2_1
*I *4620:A1 I *D sky130_fd_sc_hd__o21ai_1
*I *4618:Y O *D sky130_fd_sc_hd__a21oi_2
*CAP
1 *4707:A2 0
2 *4622:B 0.000123484
3 *4620:A1 0
4 *4618:Y 0.000128341
5 *574:25 0.0007983
6 *574:12 0.000803156
7 *4622:B *4707:B1 0
8 *4622:B *577:10 1.92905e-05
9 *4622:B *662:14 0.000175526
10 *574:12 *4620:A2 0.000125724
11 *574:12 *604:10 0
12 *574:25 *4620:B1 0.000175493
13 *574:25 *4621:C1 9.80173e-05
14 *574:25 *4707:B1 0
15 *574:25 *660:8 0
16 *574:25 *662:14 0.00023995
17 *574:25 *849:43 0.000916754
18 *574:25 *1011:8 0.000186662
19 *4618:B1 *574:12 1.24368e-05
20 *4619:A *574:12 1.55885e-05
21 *4897:D *574:25 1.64343e-05
*RES
1 *4618:Y *574:12 20.4786 
2 *574:12 *4620:A1 9.3 
3 *574:12 *574:25 21.7679 
4 *574:25 *4622:B 16.5857 
5 *574:25 *4707:A2 13.8 
*END

*D_NET *575 0.000333646
*CONN
*I *4620:A2 I *D sky130_fd_sc_hd__o21ai_1
*I *4619:X O *D sky130_fd_sc_hd__and3_1
*CAP
1 *4620:A2 4.02378e-05
2 *4619:X 4.02378e-05
3 *573:10 *4620:A2 0.000127446
4 *574:12 *4620:A2 0.000125724
*RES
1 *4619:X *4620:A2 29.2429 
*END

*D_NET *576 0.000603181
*CONN
*I *4621:C1 I *D sky130_fd_sc_hd__o211a_1
*I *4620:Y O *D sky130_fd_sc_hd__o21ai_1
*CAP
1 *4621:C1 0.000201994
2 *4620:Y 0.000201994
3 *4621:C1 *4995:A 0.000101176
4 *4621:C1 *1011:21 0
5 *574:25 *4621:C1 9.80173e-05
*RES
1 *4620:Y *4621:C1 30.85 
*END

*D_NET *577 0.00195701
*CONN
*I *4682:A1 I *D sky130_fd_sc_hd__o21bai_1
*I *4654:A I *D sky130_fd_sc_hd__xnor2_1
*I *4622:Y O *D sky130_fd_sc_hd__nor2_1
*CAP
1 *4682:A1 0
2 *4654:A 0.000361132
3 *4622:Y 0.000361306
4 *577:10 0.000722438
5 *4654:A *4652:A 1.00375e-05
6 *4654:A *4654:B 5.52302e-05
7 *4654:A *608:10 0.000313567
8 *4654:A *800:27 2.44318e-05
9 *577:10 *4683:B 5.26091e-05
10 *577:10 *4707:B1 3.69697e-05
11 *577:10 *662:14 0
12 *4622:B *577:10 1.92905e-05
*RES
1 *4622:Y *577:10 19.6393 
2 *577:10 *4654:A 22.4607 
3 *577:10 *4682:A1 13.8 
*END

*D_NET *578 0.00526898
*CONN
*I *4675:A1 I *D sky130_fd_sc_hd__a21oi_1
*I *4642:A I *D sky130_fd_sc_hd__xnor2_1
*I *4623:X O *D sky130_fd_sc_hd__a21bo_1
*CAP
1 *4675:A1 6.11364e-05
2 *4642:A 0.000147252
3 *4623:X 0.00201905
4 *578:10 0.00222744
5 *4642:A *4642:B 6.51854e-05
6 *4642:A *596:8 6.67051e-05
7 *4642:A *629:8 1.74352e-05
8 *4675:A1 *4719:C1 0
9 *578:10 *4640:C 5.7993e-06
10 *578:10 *4719:C1 0
11 *4627:A2 *578:10 0.000315165
12 *4640:B *578:10 0.000184745
13 *557:12 *578:10 0.000159063
*RES
1 *4623:X *578:10 46.9786 
2 *578:10 *4642:A 16.55 
3 *578:10 *4675:A1 14.5321 
*END

*D_NET *579 0.000112213
*CONN
*I *4625:B1 I *D sky130_fd_sc_hd__a21oi_2
*I *4624:Y O *D sky130_fd_sc_hd__a22oi_1
*CAP
1 *4625:B1 1.40355e-05
2 *4624:Y 1.40355e-05
3 *4625:B1 *4624:A1 5.52302e-05
4 *4625:B1 *983:54 2.89114e-05
*RES
1 *4624:Y *4625:B1 19.1357 
*END

*D_NET *580 0.00648075
*CONN
*I *4658:C I *D sky130_fd_sc_hd__nor3_1
*I *4657:B I *D sky130_fd_sc_hd__and2_1
*I *4626:B I *D sky130_fd_sc_hd__xor2_1
*I *4625:Y O *D sky130_fd_sc_hd__a21oi_2
*CAP
1 *4658:C 4.13812e-05
2 *4657:B 0
3 *4626:B 6.38462e-05
4 *4625:Y 0.000802534
5 *580:35 8.73542e-05
6 *580:20 0.00103013
7 *580:18 0.00172284
8 *4658:C *611:10 5.71472e-05
9 *580:18 *4557:A 0.000103267
10 *580:18 *4557:C 0
11 *580:18 *4631:A1_N 5.4633e-05
12 *580:18 *4633:A 2.87485e-05
13 *580:18 *4633:B 0.00017463
14 *580:18 *588:6 3.41124e-06
15 *580:18 *614:10 8.90199e-05
16 *580:18 *994:69 0.000650922
17 *580:18 *994:80 4.08637e-05
18 *580:20 *4634:B 0.000317594
19 *580:20 *588:6 0.000161705
20 *4631:B2 *580:18 9.71197e-05
21 *4658:A *4658:C 2.44318e-05
22 *4658:A *580:20 1.74352e-05
23 *4658:A *580:35 1.7895e-05
24 *4658:B *4626:B 8.16036e-05
25 *4658:B *4658:C 9.90431e-05
26 *478:22 *4626:B 6.58289e-05
27 *478:22 *580:20 9.90431e-05
28 *512:12 *4626:B 1.41029e-05
29 *553:26 *580:18 0.000534222
*RES
1 *4625:Y *580:18 36.1482 
2 *580:18 *580:20 15.9375 
3 *580:20 *4626:B 20.55 
4 *580:20 *580:35 0.964286 
5 *580:35 *4657:B 9.3 
6 *580:35 *4658:C 10.6571 
*END

*D_NET *581 0.00161262
*CONN
*I *4629:A I *D sky130_fd_sc_hd__xnor2_1
*I *4628:A I *D sky130_fd_sc_hd__and2_1
*I *4626:X O *D sky130_fd_sc_hd__xor2_1
*CAP
1 *4629:A 0.000169083
2 *4628:A 0
3 *4626:X 0.000185039
4 *581:6 0.000354122
5 *4629:A *4628:B 0.000171368
6 *4629:A *4637:A 0
7 *4629:A *591:6 0.000136951
8 *581:6 *591:6 0.000582901
9 *11:9 *4629:A 1.31516e-05
*RES
1 *4626:X *581:6 14.7643 
2 *581:6 *4628:A 9.3 
3 *581:6 *4629:A 22.2107 
*END

*D_NET *582 0.00167702
*CONN
*I *4629:B I *D sky130_fd_sc_hd__xnor2_1
*I *4628:B I *D sky130_fd_sc_hd__and2_1
*I *4627:Y O *D sky130_fd_sc_hd__o21ai_1
*CAP
1 *4629:B 0
2 *4628:B 7.12439e-05
3 *4627:Y 0.000583807
4 *582:12 0.000655051
5 *4629:A *4628:B 0.000171368
6 *11:9 *4628:B 0.000195547
7 *512:12 *582:12 0
*RES
1 *4627:Y *582:12 28.1393 
2 *582:12 *4628:B 20.8536 
3 *582:12 *4629:B 9.3 
*END

*D_NET *583 0.0013881
*CONN
*I *4670:A1 I *D sky130_fd_sc_hd__o21ai_1
*I *4671:A I *D sky130_fd_sc_hd__or3_1
*I *4628:X O *D sky130_fd_sc_hd__and2_1
*CAP
1 *4670:A1 7.50917e-05
2 *4671:A 0
3 *4628:X 0.00049297
4 *583:14 0.000568062
5 *4670:A1 *4670:B1 0.000183726
6 *583:14 *4670:B1 3.03071e-05
7 *11:9 *583:14 3.79467e-05
*RES
1 *4628:X *583:14 26.3536 
2 *583:14 *4671:A 9.3 
3 *583:14 *4670:A1 11.0679 
*END

*D_NET *584 0.000807858
*CONN
*I *4638:A I *D sky130_fd_sc_hd__xnor2_1
*I *4637:A I *D sky130_fd_sc_hd__nor2_1
*I *4629:Y O *D sky130_fd_sc_hd__xnor2_1
*CAP
1 *4638:A 6.61005e-05
2 *4637:A 0.000142762
3 *4629:Y 0.000170005
4 *584:6 0.000378868
5 *4637:A *4638:B 5.01213e-05
6 *4637:A *650:12 0
7 *4629:A *4637:A 0
*RES
1 *4629:Y *584:6 11.8893 
2 *584:6 *4637:A 20.675 
3 *584:6 *4638:A 10.5679 
*END

*D_NET *585 0.00276395
*CONN
*I *4635:A I *D sky130_fd_sc_hd__xor2_1
*I *4634:A I *D sky130_fd_sc_hd__and2_1
*I *4630:X O *D sky130_fd_sc_hd__a31o_1
*CAP
1 *4635:A 0
2 *4634:A 0.000184911
3 *4630:X 0.00111874
4 *585:10 0.00130365
5 *4634:A *4634:B 0.000152958
6 *4634:A *590:10 0
7 *4634:A *796:25 0
8 *585:10 *590:10 0
9 *585:10 *796:25 0
10 *4660:B1 *585:10 3.69047e-06
*RES
1 *4630:X *585:10 26.6571 
2 *585:10 *4634:A 17.1393 
3 *585:10 *4635:A 13.8 
*END

*D_NET *586 0.000315763
*CONN
*I *4633:A I *D sky130_fd_sc_hd__nor2_1
*I *4631:X O *D sky130_fd_sc_hd__o2bb2a_1
*CAP
1 *4633:A 9.39858e-05
2 *4631:X 9.39858e-05
3 *4633:A *4633:B 9.90431e-05
4 *580:18 *4633:A 2.87485e-05
*RES
1 *4631:X *4633:A 20.6893 
*END

*D_NET *587 0.00274197
*CONN
*I *4633:B I *D sky130_fd_sc_hd__nor2_1
*I *4666:A I *D sky130_fd_sc_hd__and2_1
*I *4667:A I *D sky130_fd_sc_hd__xnor2_1
*I *4632:X O *D sky130_fd_sc_hd__and4b_1
*CAP
1 *4633:B 0.000240106
2 *4666:A 0
3 *4667:A 8.26333e-05
4 *4632:X 0
5 *587:10 0.000427983
6 *587:6 0.000585456
7 *4633:B *588:6 5.71472e-05
8 *4633:B *796:25 0
9 *4633:B *994:80 0.000156196
10 *4667:A *4667:B 0.000182248
11 *4667:A *4688:A2 0.00042089
12 *4667:A *4688:B1 1.62025e-05
13 *4667:A *619:10 9.00335e-05
14 *587:10 *796:25 0
15 *587:10 *976:51 8.01123e-05
16 *587:10 *976:74 2.05938e-05
17 *587:10 *994:80 4.46186e-06
18 *587:10 *994:94 0.000104236
19 *4633:A *4633:B 9.90431e-05
20 *580:18 *4633:B 0.00017463
*RES
1 *4632:X *587:6 13.8 
2 *587:6 *587:10 11.3036 
3 *587:10 *4667:A 13.8714 
4 *587:10 *4666:A 9.3 
5 *587:6 *4633:B 19.8893 
*END

*D_NET *588 0.0011955
*CONN
*I *4634:B I *D sky130_fd_sc_hd__and2_1
*I *4635:B I *D sky130_fd_sc_hd__xor2_1
*I *4633:Y O *D sky130_fd_sc_hd__nor2_1
*CAP
1 *4634:B 0.00010671
2 *4635:B 0
3 *4633:Y 0.000144631
4 *588:6 0.000251341
5 *4633:B *588:6 5.71472e-05
6 *4634:A *4634:B 0.000152958
7 *580:18 *588:6 3.41124e-06
8 *580:20 *4634:B 0.000317594
9 *580:20 *588:6 0.000161705
*RES
1 *4633:Y *588:6 12.7107 
2 *588:6 *4635:B 9.3 
3 *588:6 *4634:B 13.2643 
*END

*D_NET *589 0.000200827
*CONN
*I *4673:B1 I *D sky130_fd_sc_hd__a21oi_2
*I *4634:X O *D sky130_fd_sc_hd__and2_1
*CAP
1 *4673:B1 0.000100413
2 *4634:X 0.000100413
3 *4673:B1 *590:10 0
4 *547:27 *4673:B1 0
*RES
1 *4634:X *4673:B1 29.2429 
*END

*D_NET *590 0.00091214
*CONN
*I *4636:B I *D sky130_fd_sc_hd__xnor2_1
*I *4673:A2 I *D sky130_fd_sc_hd__a21oi_2
*I *4635:X O *D sky130_fd_sc_hd__xor2_1
*CAP
1 *4636:B 0.000106713
2 *4673:A2 3.72884e-05
3 *4635:X 0.000180243
4 *590:10 0.000324245
5 *4636:B *627:12 8.07313e-05
6 *590:10 *796:25 0
7 *4634:A *590:10 0
8 *4636:A *4636:B 0.000149489
9 *4673:B1 *590:10 0
10 *547:27 *590:10 3.34295e-05
11 *585:10 *590:10 0
*RES
1 *4635:X *590:10 21.1571 
2 *590:10 *4673:A2 9.83571 
3 *590:10 *4636:B 12.3 
*END

*D_NET *591 0.00433808
*CONN
*I *4638:B I *D sky130_fd_sc_hd__xnor2_1
*I *4637:B I *D sky130_fd_sc_hd__nor2_1
*I *4636:Y O *D sky130_fd_sc_hd__xnor2_1
*CAP
1 *4638:B 0.000128104
2 *4637:B 3.82418e-05
3 *4636:Y 0.000546233
4 *591:6 0.000712579
5 *4638:B *650:12 0
6 *591:6 *592:12 1.72894e-05
7 *591:6 *627:12 0.00209676
8 *4626:A *591:6 2.89016e-05
9 *4629:A *591:6 0.000136951
10 *4637:A *4638:B 5.01213e-05
11 *581:6 *591:6 0.000582901
*RES
1 *4636:Y *591:6 29.1393 
2 *591:6 *4637:B 10.0321 
3 *591:6 *4638:B 20.2464 
*END

*D_NET *592 0.00125039
*CONN
*I *4670:A2 I *D sky130_fd_sc_hd__o21ai_1
*I *4671:B I *D sky130_fd_sc_hd__or3_1
*I *4637:Y O *D sky130_fd_sc_hd__nor2_1
*CAP
1 *4670:A2 0.000159403
2 *4671:B 0
3 *4637:Y 0.000296291
4 *592:12 0.000455694
5 *4670:A2 *4670:B1 0.000122101
6 *592:12 *623:12 8.25098e-05
7 *592:12 *627:12 1.94048e-05
8 *592:12 *650:12 9.77024e-05
9 *591:6 *592:12 1.72894e-05
*RES
1 *4637:Y *592:12 23.0321 
2 *592:12 *4671:B 9.3 
3 *592:12 *4670:A2 11.4786 
*END

*D_NET *593 0.00182776
*CONN
*I *4639:B1 I *D sky130_fd_sc_hd__a21oi_1
*I *4640:C I *D sky130_fd_sc_hd__and3_1
*I *4638:Y O *D sky130_fd_sc_hd__xnor2_1
*CAP
1 *4639:B1 7.1818e-05
2 *4640:C 1.42863e-05
3 *4638:Y 0.000479678
4 *593:10 0.000565782
5 *4639:B1 *594:10 2.89016e-05
6 *4639:B1 *651:14 0.000126446
7 *593:10 *650:12 0
8 *593:10 *651:14 0.00046525
9 *4640:A *4639:B1 6.39901e-05
10 *4640:A *593:10 5.80706e-06
11 *4640:B *593:10 0
12 *578:10 *4640:C 5.7993e-06
*RES
1 *4638:Y *593:10 23.5143 
2 *593:10 *4640:C 13.9964 
3 *593:10 *4639:B1 15.9786 
*END

*D_NET *594 0.000494971
*CONN
*I *4675:B1 I *D sky130_fd_sc_hd__a21oi_1
*I *4641:A I *D sky130_fd_sc_hd__nor2_1
*I *4639:Y O *D sky130_fd_sc_hd__a21oi_1
*CAP
1 *4675:B1 1.29339e-05
2 *4641:A 0
3 *4639:Y 0.000174188
4 *594:10 0.000187122
5 *4675:B1 *596:8 5.71472e-05
6 *4675:B1 *629:8 7.43578e-06
7 *594:10 *4642:B 0
8 *594:10 *596:8 2.14757e-05
9 *4639:B1 *594:10 2.89016e-05
10 *559:8 *594:10 5.7661e-06
*RES
1 *4639:Y *594:10 12.3357 
2 *594:10 *4641:A 9.3 
3 *594:10 *4675:B1 9.83571 
*END

*D_NET *595 0.000323664
*CONN
*I *4641:B I *D sky130_fd_sc_hd__nor2_1
*I *4640:X O *D sky130_fd_sc_hd__and3_1
*CAP
1 *4641:B 3.19637e-05
2 *4640:X 3.19637e-05
3 *4641:B *4719:C1 0.000129868
4 *4641:B *651:14 0.000129868
*RES
1 *4640:X *4641:B 29.2429 
*END

*D_NET *596 0.00060457
*CONN
*I *4642:B I *D sky130_fd_sc_hd__xnor2_1
*I *4675:A2 I *D sky130_fd_sc_hd__a21oi_1
*I *4641:Y O *D sky130_fd_sc_hd__nor2_1
*CAP
1 *4642:B 3.1328e-05
2 *4675:A2 0
3 *4641:Y 0.0001167
4 *596:8 0.000148028
5 *4642:B *629:8 5.62995e-05
6 *596:8 *629:8 4.17014e-05
7 *4642:A *4642:B 6.51854e-05
8 *4642:A *596:8 6.67051e-05
9 *4675:B1 *596:8 5.71472e-05
10 *594:10 *4642:B 0
11 *594:10 *596:8 2.14757e-05
*RES
1 *4641:Y *596:8 11.9071 
2 *596:8 *4675:A2 9.3 
3 *596:8 *4642:B 10.675 
*END

*D_NET *597 0.00238502
*CONN
*I *4645:A I *D sky130_fd_sc_hd__xor2_1
*I *4644:A_N I *D sky130_fd_sc_hd__and2b_1
*I *4642:Y O *D sky130_fd_sc_hd__xnor2_1
*CAP
1 *4645:A 8.77997e-05
2 *4644:A_N 0.000150447
3 *4642:Y 0.000615371
4 *597:14 0.000853617
5 *4644:A_N *4644:B 0.000146533
6 *4645:A *4644:B 0.000177948
7 *597:14 *4644:B 5.83233e-05
8 *597:14 *4677:A 2.89114e-05
9 *597:14 *4677:B 4.51526e-05
10 *597:14 *4686:B1 3.23375e-05
11 *597:14 *629:8 0.000188586
12 *4643:B1 *4645:A 0
*RES
1 *4642:Y *597:14 24.675 
2 *597:14 *4644:A_N 16.8 
3 *597:14 *4645:A 16.05 
*END

*D_NET *598 0.0015772
*CONN
*I *4645:B I *D sky130_fd_sc_hd__xor2_1
*I *4644:B I *D sky130_fd_sc_hd__and2b_1
*I *4643:X O *D sky130_fd_sc_hd__a21o_1
*CAP
1 *4645:B 0
2 *4644:B 0.000299637
3 *4643:X 0.000237231
4 *598:6 0.000536869
5 *4644:B *4678:B1 0
6 *4644:B *4686:B1 0.000120655
7 *4644:A_N *4644:B 0.000146533
8 *4645:A *4644:B 0.000177948
9 *597:14 *4644:B 5.83233e-05
*RES
1 *4643:X *598:6 13.1214 
2 *598:6 *4644:B 25.2821 
3 *598:6 *4645:B 9.3 
*END

*D_NET *599 0.00154975
*CONN
*I *4678:B1 I *D sky130_fd_sc_hd__a31o_1
*I *4686:A1 I *D sky130_fd_sc_hd__a21o_1
*I *4644:X O *D sky130_fd_sc_hd__and2b_1
*CAP
1 *4678:B1 0.000207656
2 *4686:A1 0
3 *4644:X 0.000119342
4 *599:10 0.000326998
5 *4678:B1 *4680:A 0.000138946
6 *4678:B1 *4687:B1 0.000184153
7 *4678:B1 *631:8 1.02504e-05
8 *4678:B1 *631:17 0.000434249
9 *599:10 *4686:B1 0
10 *599:10 *631:8 0.000128154
11 *4644:B *4678:B1 0
*RES
1 *4644:X *599:10 15.9786 
2 *599:10 *4686:A1 13.8 
3 *599:10 *4678:B1 21.2107 
*END

*D_NET *600 0.00130514
*CONN
*I *4646:A I *D sky130_fd_sc_hd__inv_2
*I *4679:A_N I *D sky130_fd_sc_hd__and2b_1
*I *4645:X O *D sky130_fd_sc_hd__xor2_1
*CAP
1 *4646:A 6.24129e-05
2 *4679:A_N 0
3 *4645:X 0.000409886
4 *600:12 0.000472299
5 *600:12 *4686:B1 0.000129595
6 *600:12 *4687:B1 5.71472e-05
7 *600:12 *631:17 0.000173799
*RES
1 *4645:X *600:12 26.6036 
2 *600:12 *4679:A_N 9.3 
3 *600:12 *4646:A 10.2643 
*END

*D_NET *601 0.000985248
*CONN
*I *4651:B I *D sky130_fd_sc_hd__xnor2_4
*I *4678:A1 I *D sky130_fd_sc_hd__a31o_1
*I *4646:Y O *D sky130_fd_sc_hd__inv_2
*CAP
1 *4651:B 0.000162219
2 *4678:A1 0.000124423
3 *4646:Y 0.00012965
4 *601:12 0.000416292
5 *4651:B *671:12 9.10594e-05
6 *4678:A1 *4678:A2 1.92905e-05
7 *4678:A1 *671:12 3.65069e-05
8 *601:12 *4678:A3 5.80706e-06
9 *601:12 *4680:A 0
*RES
1 *4646:Y *601:12 20.675 
2 *601:12 *4678:A1 11.4964 
3 *601:12 *4651:B 12.7286 
*END

*D_NET *602 0.00435416
*CONN
*I *4650:A I *D sky130_fd_sc_hd__nand2_4
*I *4687:A2 I *D sky130_fd_sc_hd__a31o_1
*I *4678:A2 I *D sky130_fd_sc_hd__a31o_1
*I *4647:X O *D sky130_fd_sc_hd__a21o_1
*CAP
1 *4650:A 0.000291197
2 *4687:A2 0
3 *4678:A2 0.000220246
4 *4647:X 0.000495062
5 *602:25 0.000291197
6 *602:10 0.000715308
7 *4650:A *4650:B 0.000320024
8 *4650:A *5112:A 0.000100625
9 *4650:A *5113:A 5.52302e-05
10 *4650:A *654:12 0.000481586
11 *4650:A *854:6 5.52238e-05
12 *4678:A2 *4687:A3 0.000227021
13 *4678:A2 *4687:B1 0.000118105
14 *4678:A2 *4701:B 0
15 *4678:A2 *604:10 3.34295e-05
16 *4678:A2 *671:12 0.00031119
17 *602:10 *604:10 0.000512608
18 *602:10 *968:113 0.000106817
19 *4678:A1 *4678:A2 1.92905e-05
20 *567:10 *602:10 0
*RES
1 *4647:X *602:10 23.7107 
2 *602:10 *4678:A2 20.3893 
3 *602:10 *602:25 4.5 
4 *602:25 *4687:A2 9.3 
5 *602:25 *4650:A 17.7821 
*END

*D_NET *603 0.00201629
*CONN
*I *4649:C1 I *D sky130_fd_sc_hd__a211o_1
*I *4648:X O *D sky130_fd_sc_hd__a21o_1
*CAP
1 *4649:C1 0.000636904
2 *4648:X 0.000636904
3 *4649:C1 *968:107 9.54412e-05
4 *4577:A *4649:C1 6.5185e-05
5 *4581:A *4649:C1 0.000322453
6 *4614:A2 *4649:C1 0.000224583
7 *4648:A1 *4649:C1 1.74352e-05
8 *532:8 *4649:C1 1.32552e-05
9 *535:12 *4649:C1 4.1331e-06
*RES
1 *4648:X *4649:C1 39.8321 
*END

*D_NET *604 0.00502221
*CONN
*I *4687:A1 I *D sky130_fd_sc_hd__a31o_1
*I *5112:A I *D sky130_fd_sc_hd__clkbuf_2
*I *4649:X O *D sky130_fd_sc_hd__a211o_1
*CAP
1 *4687:A1 0
2 *5112:A 0.000113941
3 *4649:X 0.0017095
4 *604:12 0.000113941
5 *604:10 0.0017095
6 *5112:A *640:8 0
7 *604:10 *4582:A 0.000207977
8 *604:10 *4680:A 0
9 *604:10 *4680:B 0
10 *604:10 *4687:B1 1.02504e-05
11 *4580:B1 *604:10 0.000213179
12 *4615:B *604:10 0
13 *4618:A2 *604:10 7.80714e-06
14 *4648:A2 *604:10 0
15 *4650:A *5112:A 0.000100625
16 *4678:A2 *604:10 3.34295e-05
17 *536:6 *604:10 0.000232399
18 *540:12 *604:10 5.70551e-05
19 *571:12 *604:10 0
20 *574:12 *604:10 0
21 *602:10 *604:10 0.000512608
*RES
1 *4649:X *604:10 46.6929 
2 *604:10 *604:12 4.5 
3 *604:12 *5112:A 11.4964 
4 *604:12 *4687:A1 9.3 
*END

*D_NET *605 0.000254747
*CONN
*I *4651:A I *D sky130_fd_sc_hd__xnor2_4
*I *4650:Y O *D sky130_fd_sc_hd__nand2_4
*CAP
1 *4651:A 0.000127374
2 *4650:Y 0.000127374
3 *4651:A *671:14 0
*RES
1 *4650:Y *4651:A 29.85 
*END

*D_NET *606 0.00056188
*CONN
*I *4652:B I *D sky130_fd_sc_hd__and2_1
*I *4653:A I *D sky130_fd_sc_hd__xnor2_2
*I *4651:Y O *D sky130_fd_sc_hd__xnor2_4
*CAP
1 *4652:B 0.000165772
2 *4653:A 9.11757e-05
3 *4651:Y 0
4 *606:4 0.000256948
5 *4653:A *4652:A 0
6 *4653:A *607:8 4.79842e-05
7 *4653:A *671:14 0
*RES
1 *4651:Y *606:4 9.3 
2 *606:4 *4653:A 20.2464 
3 *606:4 *4652:B 11.9071 
*END

*D_NET *607 0.00205672
*CONN
*I *4682:B1_N I *D sky130_fd_sc_hd__o21bai_1
*I *4708:B1 I *D sky130_fd_sc_hd__a21o_1
*I *4652:X O *D sky130_fd_sc_hd__and2_1
*CAP
1 *4682:B1_N 0.000134511
2 *4708:B1 0.00024144
3 *4652:X 0.000253558
4 *607:8 0.000629509
5 *4682:B1_N *4708:A1 0
6 *4682:B1_N *4709:A2 0
7 *4682:B1_N *654:18 0.000176226
8 *4682:B1_N *662:14 5.33005e-05
9 *4708:B1 *4708:A2 3.99614e-06
10 *4708:B1 *4709:A2 2.44318e-05
11 *4708:B1 *634:14 8.07313e-05
12 *607:8 *4652:A 4.29179e-05
13 *607:8 *654:18 0.000368111
14 *4653:A *607:8 4.79842e-05
*RES
1 *4652:X *607:8 19.9964 
2 *607:8 *4708:B1 18.05 
3 *607:8 *4682:B1_N 16.5857 
*END

*D_NET *608 0.00215447
*CONN
*I *4654:B I *D sky130_fd_sc_hd__xnor2_1
*I *4682:A2 I *D sky130_fd_sc_hd__o21bai_1
*I *4706:A_N I *D sky130_fd_sc_hd__and2b_1
*I *4653:Y O *D sky130_fd_sc_hd__xnor2_2
*CAP
1 *4654:B 4.34992e-05
2 *4682:A2 0
3 *4706:A_N 0.000147003
4 *4653:Y 0
5 *608:10 0.000362484
6 *608:4 0.00025898
7 *4654:B *800:27 0.000139913
8 *4706:A_N *4709:A2 4.1331e-06
9 *4706:A_N *635:12 0
10 *4706:A_N *654:18 5.26184e-05
11 *4706:A_N *801:10 0.000268396
12 *4706:A_N *968:113 0.000266479
13 *608:10 *4652:A 3.34295e-05
14 *608:10 *654:18 0.000182606
15 *608:10 *662:14 2.61337e-05
16 *4654:A *4654:B 5.52302e-05
17 *4654:A *608:10 0.000313567
*RES
1 *4653:Y *608:4 9.3 
2 *608:4 *608:10 16.4107 
3 *608:10 *4706:A_N 22.8357 
4 *608:10 *4682:A2 9.3 
5 *608:4 *4654:B 10.6571 
*END

*D_NET *609 0.00016506
*CONN
*I *4655:B I *D sky130_fd_sc_hd__nand2_1
*I *4654:Y O *D sky130_fd_sc_hd__xnor2_1
*CAP
1 *4655:B 5.88016e-05
2 *4654:Y 5.88016e-05
3 *4655:B *4656:C1 0
4 *4655:B *800:27 4.74567e-05
*RES
1 *4654:Y *4655:B 19.8679 
*END

*D_NET *610 0.000190871
*CONN
*I *4656:C1 I *D sky130_fd_sc_hd__o211a_1
*I *4655:Y O *D sky130_fd_sc_hd__nand2_1
*CAP
1 *4656:C1 6.04355e-05
2 *4655:Y 6.04355e-05
3 *4656:C1 *800:14 1.3701e-05
4 *4656:C1 *800:27 5.62995e-05
5 *4655:B *4656:C1 0
*RES
1 *4655:Y *4656:C1 19.975 
*END

*D_NET *611 0.00432558
*CONN
*I *4659:A I *D sky130_fd_sc_hd__nor2_1
*I *4668:A I *D sky130_fd_sc_hd__nor3_1
*I *4695:A I *D sky130_fd_sc_hd__or3b_1
*I *4694:A1 I *D sky130_fd_sc_hd__o21ba_1
*I *4715:A0 I *D sky130_fd_sc_hd__mux2_1
*I *4657:X O *D sky130_fd_sc_hd__and2_1
*CAP
1 *4659:A 0
2 *4668:A 0
3 *4695:A 0.000144105
4 *4694:A1 3.65134e-05
5 *4715:A0 0.000152676
6 *4657:X 0.000411622
7 *611:31 0.000343609
8 *611:27 0.000275498
9 *611:14 0.000327375
10 *611:10 0.000473814
11 *4694:A1 *4694:A2 2.71964e-05
12 *4695:A *4695:B 0.000286385
13 *4695:A *4695:C_N 8.73297e-05
14 *4695:A *646:8 0.000230612
15 *4695:A *647:6 7.15503e-05
16 *4715:A0 *4668:B 0.000101333
17 *4715:A0 *4715:A1 0.000272338
18 *4715:A0 *4715:S 0.000100165
19 *611:10 *612:10 0.000163867
20 *611:10 *613:8 2.31791e-05
21 *611:14 *4669:B 0.000175526
22 *611:14 *613:8 0.000202128
23 *611:27 *4668:B 6.24783e-05
24 *611:27 *622:10 2.97489e-05
25 *611:31 *4694:A2 1.6815e-05
26 *611:31 *621:10 6.27534e-05
27 *611:31 *622:10 0.00013051
28 *4658:A *611:10 3.48705e-05
29 *4658:B *611:10 2.44318e-05
30 *4658:C *611:10 5.71472e-05
31 *11:9 *611:10 0
32 *11:9 *611:14 0
*RES
1 *4657:X *611:10 22.0857 
2 *611:10 *611:14 7.05357 
3 *611:14 *4715:A0 13.55 
4 *611:14 *611:27 2.5 
5 *611:27 *611:31 8.57143 
6 *611:31 *4694:A1 14.5321 
7 *611:31 *4695:A 18.9964 
8 *611:27 *4668:A 9.3 
9 *611:10 *4659:A 13.8 
*END

*D_NET *612 0.00213531
*CONN
*I *4659:B I *D sky130_fd_sc_hd__nor2_1
*I *4668:B I *D sky130_fd_sc_hd__nor3_1
*I *4715:A1 I *D sky130_fd_sc_hd__mux2_1
*I *4658:Y O *D sky130_fd_sc_hd__nor3_1
*CAP
1 *4659:B 0
2 *4668:B 9.117e-05
3 *4715:A1 0.00011674
4 *4658:Y 0.00023664
5 *612:14 0.000333661
6 *612:10 0.000362391
7 *4668:B *622:10 5.50052e-05
8 *612:10 *613:8 3.51442e-05
9 *612:14 *613:8 0.000247399
10 *4658:A *612:10 5.71472e-05
11 *4715:A0 *4668:B 0.000101333
12 *4715:A0 *4715:A1 0.000272338
13 *611:10 *612:10 0.000163867
14 *611:27 *4668:B 6.24783e-05
*RES
1 *4658:Y *612:10 18.8179 
2 *612:10 *612:14 7.66071 
3 *612:14 *4715:A1 11.8893 
4 *612:14 *4668:B 11.4964 
5 *612:10 *4659:B 13.8 
*END

*D_NET *613 0.00380619
*CONN
*I *4669:A I *D sky130_fd_sc_hd__xnor2_1
*I *4716:A1 I *D sky130_fd_sc_hd__a211o_1
*I *4693:A I *D sky130_fd_sc_hd__xor2_1
*I *4659:Y O *D sky130_fd_sc_hd__nor2_1
*CAP
1 *4669:A 0.000291863
2 *4716:A1 0.000239935
3 *4693:A 0.000306224
4 *4659:Y 0
5 *613:8 0.000714697
6 *613:4 0.0004604
7 *4669:A *4669:B 0.000219828
8 *4669:A *4718:B 4.16869e-05
9 *4693:A *621:10 1.46689e-05
10 *4693:A *646:8 0.000141935
11 *4716:A1 *4716:C1 5.58681e-05
12 *4716:A1 *621:10 0.000704419
13 *613:8 *4669:B 7.21483e-06
14 *613:8 *621:10 9.95963e-05
15 *611:10 *613:8 2.31791e-05
16 *611:14 *613:8 0.000202128
17 *612:10 *613:8 3.51442e-05
18 *612:14 *613:8 0.000247399
*RES
1 *4659:Y *613:4 9.3 
2 *613:4 *613:8 10.0893 
3 *613:8 *4693:A 19.3536 
4 *613:8 *4716:A1 20.925 
5 *613:4 *4669:A 14.7821 
*END

*D_NET *614 0.00519944
*CONN
*I *4665:A I *D sky130_fd_sc_hd__xnor2_1
*I *4661:A I *D sky130_fd_sc_hd__inv_2
*I *4692:A1 I *D sky130_fd_sc_hd__mux2_1
*I *4690:A I *D sky130_fd_sc_hd__xor2_1
*I *4660:Y O *D sky130_fd_sc_hd__a21oi_2
*CAP
1 *4665:A 0
2 *4661:A 0.000140486
3 *4692:A1 0.000345285
4 *4690:A 0
5 *4660:Y 0.00059263
6 *614:16 0.00143511
7 *614:10 0.00154197
8 *4661:A *4690:B 9.8729e-05
9 *4692:A1 *643:8 0.000534842
10 *614:10 *4663:A_N 1.88175e-05
11 *614:10 *4664:A 9.08895e-05
12 *614:10 *617:31 2.60403e-05
13 *614:10 *975:52 0
14 *614:10 *977:23 0.000224647
15 *614:16 *4664:A 4.27842e-06
16 *614:16 *4690:B 5.66971e-05
17 *580:18 *614:10 8.90199e-05
*RES
1 *4660:Y *614:10 25.2107 
2 *614:10 *614:16 20.625 
3 *614:16 *4690:A 9.3 
4 *614:16 *4692:A1 16.425 
5 *614:16 *4661:A 21.1571 
6 *614:10 *4665:A 13.8 
*END

*D_NET *615 0.000699124
*CONN
*I *4691:A1 I *D sky130_fd_sc_hd__a21oi_1
*I *4688:A1 I *D sky130_fd_sc_hd__a21o_1
*I *4661:Y O *D sky130_fd_sc_hd__inv_2
*CAP
1 *4691:A1 4.83689e-05
2 *4688:A1 0.000190786
3 *4661:Y 0
4 *615:4 0.000239155
5 *4688:A1 *4688:B1 0.000100165
6 *4688:A1 *621:10 4.32358e-05
7 *4691:A1 *4690:B 7.74135e-05
*RES
1 *4661:Y *615:4 9.3 
2 *615:4 *4688:A1 11.8893 
3 *615:4 *4691:A1 19.3357 
*END

*D_NET *616 0.000716274
*CONN
*I *4664:A I *D sky130_fd_sc_hd__nor2_1
*I *4662:X O *D sky130_fd_sc_hd__o2bb2a_1
*CAP
1 *4664:A 0.000211237
2 *4662:X 0.000211237
3 *4664:A *617:10 0
4 *4664:A *618:6 0.000100165
5 *4664:A *976:51 9.84673e-05
6 *614:10 *4664:A 9.08895e-05
7 *614:16 *4664:A 4.27842e-06
*RES
1 *4662:X *4664:A 31.4036 
*END

*D_NET *617 0.00561864
*CONN
*I *4716:A2 I *D sky130_fd_sc_hd__a211o_1
*I *4692:S I *D sky130_fd_sc_hd__mux2_1
*I *4691:B1 I *D sky130_fd_sc_hd__a21oi_1
*I *4664:B I *D sky130_fd_sc_hd__nor2_1
*I *4663:X O *D sky130_fd_sc_hd__and4b_1
*CAP
1 *4716:A2 0
2 *4692:S 0.000161386
3 *4691:B1 0
4 *4664:B 4.07336e-05
5 *4663:X 0.00031212
6 *617:42 0.000501205
7 *617:31 0.00132303
8 *617:10 0.00133606
9 *4664:B *976:29 1.46689e-05
10 *4692:S *4716:B1 3.67279e-06
11 *617:10 *4662:A2_N 0.000139907
12 *617:10 *4663:A_N 1.75263e-05
13 *617:10 *975:52 1.94945e-05
14 *617:10 *976:29 3.11713e-05
15 *617:10 *992:89 0
16 *617:10 *992:98 0.000188586
17 *617:31 *4663:A_N 9.84729e-05
18 *617:31 *642:18 0.000538057
19 *617:31 *644:12 7.25873e-06
20 *617:31 *976:51 0.000358318
21 *617:31 *994:94 8.69355e-05
22 *617:42 *4716:B1 8.91963e-06
23 *617:42 *4716:C1 6.44649e-05
24 *617:42 *4717:B1_N 2.98475e-05
25 *617:42 *644:12 0.00031077
26 *4664:A *617:10 0
27 *614:10 *617:31 2.60403e-05
*RES
1 *4663:X *617:10 19.05 
2 *617:10 *4664:B 14.5321 
3 *617:10 *617:31 31.1071 
4 *617:31 *4691:B1 9.3 
5 *617:31 *617:42 11.9107 
6 *617:42 *4692:S 16.3536 
7 *617:42 *4716:A2 13.8 
*END

*D_NET *618 0.00270332
*CONN
*I *4665:B I *D sky130_fd_sc_hd__xnor2_1
*I *4688:A2 I *D sky130_fd_sc_hd__a21o_1
*I *4664:Y O *D sky130_fd_sc_hd__nor2_1
*CAP
1 *4665:B 0
2 *4688:A2 0.000714719
3 *4664:Y 6.42584e-05
4 *618:6 0.000778977
5 *4688:A2 *4688:B1 0.000195208
6 *4688:A2 *619:10 0.000285307
7 *4688:A2 *621:10 3.11088e-05
8 *4688:A2 *976:51 6.49875e-05
9 *618:6 *976:51 4.77002e-05
10 *4664:A *618:6 0.000100165
11 *4667:A *4688:A2 0.00042089
*RES
1 *4664:Y *618:6 11.0679 
2 *618:6 *4688:A2 21.5857 
3 *618:6 *4665:B 9.3 
*END

*D_NET *619 0.00115337
*CONN
*I *4667:B I *D sky130_fd_sc_hd__xnor2_1
*I *4666:B I *D sky130_fd_sc_hd__and2_1
*I *4665:Y O *D sky130_fd_sc_hd__xnor2_1
*CAP
1 *4667:B 6.62477e-05
2 *4666:B 0
3 *4665:Y 0.000133019
4 *619:10 0.000199266
5 *4667:B *4688:B1 9.45885e-05
6 *619:10 *976:51 0.000102659
7 *4667:A *4667:B 0.000182248
8 *4667:A *619:10 9.00335e-05
9 *4688:A2 *619:10 0.000285307
*RES
1 *4665:Y *619:10 13.9786 
2 *619:10 *4666:B 9.3 
3 *619:10 *4667:B 12.0321 
*END

*D_NET *620 0.000908444
*CONN
*I *4688:B1 I *D sky130_fd_sc_hd__a21o_1
*I *4666:X O *D sky130_fd_sc_hd__and2_1
*CAP
1 *4688:B1 0.000226837
2 *4666:X 0.000226837
3 *4688:B1 *621:10 4.86074e-05
4 *4667:A *4688:B1 1.62025e-05
5 *4667:B *4688:B1 9.45885e-05
6 *4688:A1 *4688:B1 0.000100165
7 *4688:A2 *4688:B1 0.000195208
*RES
1 *4666:X *4688:B1 24.0821 
*END

*D_NET *621 0.00499748
*CONN
*I *4669:B I *D sky130_fd_sc_hd__xnor2_1
*I *4668:C I *D sky130_fd_sc_hd__nor3_1
*I *4667:Y O *D sky130_fd_sc_hd__xnor2_1
*CAP
1 *4669:B 0.000184962
2 *4668:C 0
3 *4667:Y 0.000618761
4 *621:10 0.000803722
5 *4669:B *4718:B 0.00040279
6 *621:10 *4717:B1_N 1.52013e-05
7 *621:10 *641:10 0.00156508
8 *4669:A *4669:B 0.000219828
9 *4688:A1 *621:10 4.32358e-05
10 *4688:A2 *621:10 3.11088e-05
11 *4688:B1 *621:10 4.86074e-05
12 *4693:A *621:10 1.46689e-05
13 *4716:A1 *621:10 0.000704419
14 *11:9 *4669:B 0
15 *611:14 *4669:B 0.000175526
16 *611:31 *621:10 6.27534e-05
17 *613:8 *4669:B 7.21483e-06
18 *613:8 *621:10 9.95963e-05
*RES
1 *4667:Y *621:10 34.0321 
2 *621:10 *4668:C 13.8 
3 *621:10 *4669:B 20.175 
*END

*D_NET *622 0.00184856
*CONN
*I *4695:B I *D sky130_fd_sc_hd__or3b_1
*I *4694:A2 I *D sky130_fd_sc_hd__o21ba_1
*I *4668:Y O *D sky130_fd_sc_hd__nor3_1
*CAP
1 *4695:B 0.00020163
2 *4694:A2 6.16783e-05
3 *4668:Y 0.000362491
4 *622:10 0.000625799
5 *4668:B *622:10 5.50052e-05
6 *4694:A1 *4694:A2 2.71964e-05
7 *4695:A *4695:B 0.000286385
8 *11:9 *622:10 5.13049e-05
9 *611:27 *622:10 2.97489e-05
10 *611:31 *4694:A2 1.6815e-05
11 *611:31 *622:10 0.00013051
*RES
1 *4668:Y *622:10 19.4429 
2 *622:10 *4694:A2 14.8357 
3 *622:10 *4695:B 16.8 
*END

*D_NET *623 0.00205899
*CONN
*I *4671:C I *D sky130_fd_sc_hd__or3_1
*I *4670:B1 I *D sky130_fd_sc_hd__o21ai_1
*I *4669:Y O *D sky130_fd_sc_hd__xnor2_1
*CAP
1 *4671:C 0
2 *4670:B1 0.000147703
3 *4669:Y 0.00055258
4 *623:12 0.000700283
5 *4670:B1 *624:12 5.30637e-06
6 *623:12 *4718:A 2.89016e-05
7 *623:12 *4718:B 0.000110076
8 *623:12 *650:12 9.55e-05
9 *4670:A1 *4670:B1 0.000183726
10 *4670:A2 *4670:B1 0.000122101
11 *583:14 *4670:B1 3.03071e-05
12 *592:12 *623:12 8.25098e-05
*RES
1 *4669:Y *623:12 27.3179 
2 *623:12 *4670:B1 13.1393 
3 *623:12 *4671:C 9.3 
*END

*D_NET *624 0.000717314
*CONN
*I *4698:B1 I *D sky130_fd_sc_hd__o21a_1
*I *4672:A I *D sky130_fd_sc_hd__nand2_1
*I *4670:Y O *D sky130_fd_sc_hd__o21ai_1
*CAP
1 *4698:B1 9.45794e-05
2 *4672:A 0
3 *4670:Y 0.000125903
4 *624:12 0.000220482
5 *4698:B1 *626:6 0.000227539
6 *624:12 *4672:B 0
7 *624:12 *4719:C1 4.35048e-05
8 *4670:B1 *624:12 5.30637e-06
*RES
1 *4670:Y *624:12 20.4786 
2 *624:12 *4672:A 9.3 
3 *624:12 *4698:B1 11.4786 
*END

*D_NET *625 0.00044247
*CONN
*I *4672:B I *D sky130_fd_sc_hd__nand2_1
*I *4671:X O *D sky130_fd_sc_hd__or3_1
*CAP
1 *4672:B 0.000128156
2 *4671:X 0.000128156
3 *4672:B *627:12 5.62903e-05
4 *4672:B *650:12 0.000129868
5 *624:12 *4672:B 0
*RES
1 *4671:X *4672:B 30.6 
*END

*D_NET *626 0.00103871
*CONN
*I *4674:A I *D sky130_fd_sc_hd__xor2_2
*I *4698:A1 I *D sky130_fd_sc_hd__o21a_1
*I *4672:Y O *D sky130_fd_sc_hd__nand2_1
*CAP
1 *4674:A 4.39084e-05
2 *4698:A1 0
3 *4672:Y 9.3579e-05
4 *626:6 0.000137487
5 *4674:A *4674:B 0.000131485
6 *626:6 *4674:B 4.38128e-05
7 *626:6 *627:12 0.000360894
8 *4698:B1 *626:6 0.000227539
*RES
1 *4672:Y *626:6 13.1214 
2 *626:6 *4698:A1 9.3 
3 *626:6 *4674:A 10.675 
*END

*D_NET *627 0.00736423
*CONN
*I *4674:B I *D sky130_fd_sc_hd__xor2_2
*I *4698:A2 I *D sky130_fd_sc_hd__o21a_1
*I *4673:Y O *D sky130_fd_sc_hd__a21oi_2
*CAP
1 *4674:B 0.00011436
2 *4698:A2 0
3 *4673:Y 0.00211692
4 *627:12 0.00223128
5 *627:12 *651:14 9.90367e-05
6 *4636:A *627:12 1.32552e-05
7 *4636:B *627:12 8.07313e-05
8 *4672:B *627:12 5.62903e-05
9 *4674:A *4674:B 0.000131485
10 *591:6 *627:12 0.00209676
11 *592:12 *627:12 1.94048e-05
12 *626:6 *4674:B 4.38128e-05
13 *626:6 *627:12 0.000360894
*RES
1 *4673:Y *627:12 41.2107 
2 *627:12 *4698:A2 9.3 
3 *627:12 *4674:B 2.4375 
*END

*D_NET *628 0.00170075
*CONN
*I *4676:B I *D sky130_fd_sc_hd__and2b_1
*I *4677:A I *D sky130_fd_sc_hd__xnor2_2
*I *4674:X O *D sky130_fd_sc_hd__xor2_2
*CAP
1 *4676:B 0
2 *4677:A 0.000113098
3 *4674:X 0.000582269
4 *628:10 0.000695367
5 *4677:A *4677:B 0.000186669
6 *4677:A *4686:B1 8.07313e-05
7 *4677:A *629:8 1.3701e-05
8 *597:14 *4677:A 2.89114e-05
*RES
1 *4674:X *628:10 28.4429 
2 *628:10 *4677:A 12.7464 
3 *628:10 *4676:B 9.3 
*END

*D_NET *629 0.00138545
*CONN
*I *4677:B I *D sky130_fd_sc_hd__xnor2_2
*I *4676:A_N I *D sky130_fd_sc_hd__and2b_1
*I *4675:Y O *D sky130_fd_sc_hd__a21oi_1
*CAP
1 *4677:B 0.000126184
2 *4676:A_N 0
3 *4675:Y 0.000288051
4 *629:8 0.000414235
5 *4642:A *629:8 1.74352e-05
6 *4642:B *629:8 5.62995e-05
7 *4675:B1 *629:8 7.43578e-06
8 *4677:A *4677:B 0.000186669
9 *4677:A *629:8 1.3701e-05
10 *596:8 *629:8 4.17014e-05
11 *597:14 *4677:B 4.51526e-05
12 *597:14 *629:8 0.000188586
*RES
1 *4675:Y *629:8 15.4964 
2 *629:8 *4676:A_N 9.3 
3 *629:8 *4677:B 12.3 
*END

*D_NET *630 0.00168264
*CONN
*I *4686:B1 I *D sky130_fd_sc_hd__a21o_1
*I *4676:X O *D sky130_fd_sc_hd__and2b_1
*CAP
1 *4686:B1 0.00065966
2 *4676:X 0.00065966
3 *4686:B1 *631:8 0
4 *4644:B *4686:B1 0.000120655
5 *4677:A *4686:B1 8.07313e-05
6 *597:14 *4686:B1 3.23375e-05
7 *599:10 *4686:B1 0
8 *600:12 *4686:B1 0.000129595
*RES
1 *4676:X *4686:B1 40.475 
*END

*D_NET *631 0.00345996
*CONN
*I *4680:A I *D sky130_fd_sc_hd__xor2_2
*I *4679:B I *D sky130_fd_sc_hd__and2b_1
*I *4686:A2 I *D sky130_fd_sc_hd__a21o_1
*I *4677:Y O *D sky130_fd_sc_hd__xnor2_2
*CAP
1 *4680:A 0.000519253
2 *4679:B 4.53801e-05
3 *4686:A2 0
4 *4677:Y 0.000502238
5 *631:17 0.000713387
6 *631:8 0.000650992
7 *4680:A *4678:A3 9.47456e-05
8 *4680:A *4680:B 4.85631e-05
9 *4680:A *4687:B1 0
10 *4678:B1 *4680:A 0.000138946
11 *4678:B1 *631:8 1.02504e-05
12 *4678:B1 *631:17 0.000434249
13 *4686:B1 *631:8 0
14 *599:10 *631:8 0.000128154
15 *600:12 *631:17 0.000173799
16 *601:12 *4680:A 0
17 *604:10 *4680:A 0
*RES
1 *4677:Y *631:8 23.3357 
2 *631:8 *4686:A2 13.8 
3 *631:8 *631:17 5.58929 
4 *631:17 *4679:B 14.3357 
5 *631:17 *4680:A 23.1929 
*END

*D_NET *632 0.000682028
*CONN
*I *4680:B I *D sky130_fd_sc_hd__xor2_2
*I *4678:X O *D sky130_fd_sc_hd__a31o_1
*CAP
1 *4680:B 0.000282987
2 *4678:X 0.000282987
3 *4680:B *4678:A3 6.74911e-05
4 *4680:A *4680:B 4.85631e-05
5 *604:10 *4680:B 0
*RES
1 *4678:X *4680:B 23.1482 
*END

*D_NET *633 0.00105956
*CONN
*I *4687:A3 I *D sky130_fd_sc_hd__a31o_1
*I *4679:X O *D sky130_fd_sc_hd__and2b_1
*CAP
1 *4687:A3 0.000402071
2 *4679:X 0.000402071
3 *4687:A3 *4687:B1 2.84009e-05
4 *4687:A3 *4701:B 0
5 *4678:A2 *4687:A3 0.000227021
*RES
1 *4679:X *4687:A3 33.4393 
*END

*D_NET *634 0.00178549
*CONN
*I *4681:B I *D sky130_fd_sc_hd__xor2_1
*I *4709:A2 I *D sky130_fd_sc_hd__o21ai_2
*I *4708:A2 I *D sky130_fd_sc_hd__a21o_1
*I *4680:X O *D sky130_fd_sc_hd__xor2_2
*CAP
1 *4681:B 9.32025e-05
2 *4709:A2 0.00014914
3 *4708:A2 2.06112e-05
4 *4680:X 0.000215116
5 *634:14 0.00038816
6 *634:10 0.000526728
7 *4681:B *671:14 9.57064e-05
8 *4709:A2 *4708:A1 9.01334e-05
9 *4709:A2 *635:12 0
10 *4709:A2 *654:18 0
11 *634:10 *671:14 9.34004e-05
12 *4682:B1_N *4709:A2 0
13 *4706:A_N *4709:A2 4.1331e-06
14 *4708:B1 *4708:A2 3.99614e-06
15 *4708:B1 *4709:A2 2.44318e-05
16 *4708:B1 *634:14 8.07313e-05
*RES
1 *4680:X *634:10 17.8179 
2 *634:10 *634:14 8.32143 
3 *634:14 *4708:A2 9.72857 
4 *634:14 *4709:A2 21.3893 
5 *634:10 *4681:B 16.05 
*END

*D_NET *635 0.00132197
*CONN
*I *4706:B I *D sky130_fd_sc_hd__and2b_1
*I *5108:A I *D sky130_fd_sc_hd__dlygate4sd1_1
*I *4681:X O *D sky130_fd_sc_hd__xor2_1
*CAP
1 *4706:B 0
2 *5108:A 0.00012547
3 *4681:X 0.000448701
4 *635:12 0.000574171
5 *5108:A *4683:B 5.52302e-05
6 *635:12 *4708:A1 4.1331e-06
7 *635:12 *4709:B1 3.34295e-05
8 *635:12 *671:14 8.08376e-05
9 *4706:A_N *635:12 0
10 *4709:A2 *635:12 0
*RES
1 *4681:X *635:12 26.1036 
2 *635:12 *5108:A 11.3893 
3 *635:12 *4706:B 9.3 
*END

*D_NET *636 0.000934454
*CONN
*I *4683:B I *D sky130_fd_sc_hd__xnor2_1
*I *4682:Y O *D sky130_fd_sc_hd__o21bai_1
*CAP
1 *4683:B 0.0002037
2 *4682:Y 0.0002037
3 *4683:B *4683:A 0.000144773
4 *4683:B *4707:B1 0.000122101
5 *4683:B *662:14 0.00015234
6 *5108:A *4683:B 5.52302e-05
7 *577:10 *4683:B 5.26091e-05
*RES
1 *4682:Y *4683:B 33.3679 
*END

*D_NET *637 0.000189121
*CONN
*I *4684:B I *D sky130_fd_sc_hd__nand2_1
*I *4683:Y O *D sky130_fd_sc_hd__xnor2_1
*CAP
1 *4684:B 9.45603e-05
2 *4683:Y 9.45603e-05
3 *4684:B *4683:A 0
*RES
1 *4683:Y *4684:B 20.2786 
*END

*D_NET *638 0.00021714
*CONN
*I *4685:C1 I *D sky130_fd_sc_hd__o211a_1
*I *4684:Y O *D sky130_fd_sc_hd__nand2_1
*CAP
1 *4685:C1 9.9768e-05
2 *4684:Y 9.9768e-05
3 *4685:C1 *4656:B1 1.76039e-05
4 *4685:C1 *1011:44 0
5 *4685:C1 *1011:54 0
*RES
1 *4684:Y *4685:C1 29.2429 
*END

*D_NET *639 0.00124198
*CONN
*I *4687:B1 I *D sky130_fd_sc_hd__a31o_1
*I *4686:X O *D sky130_fd_sc_hd__a21o_1
*CAP
1 *4687:B1 0.000421962
2 *4686:X 0.000421962
3 *4678:A2 *4687:B1 0.000118105
4 *4678:B1 *4687:B1 0.000184153
5 *4680:A *4687:B1 0
6 *4687:A3 *4687:B1 2.84009e-05
7 *600:12 *4687:B1 5.71472e-05
8 *604:10 *4687:B1 1.02504e-05
*RES
1 *4686:X *4687:B1 37.0643 
*END

*D_NET *640 0.000912844
*CONN
*I *4701:A I *D sky130_fd_sc_hd__xor2_1
*I *4700:A I *D sky130_fd_sc_hd__nand2_2
*I *4687:X O *D sky130_fd_sc_hd__a31o_1
*CAP
1 *4701:A 0
2 *4700:A 0.000302874
3 *4687:X 0.000137615
4 *640:8 0.000440488
5 *4700:A *4701:B 0
6 *640:8 *654:12 3.18676e-05
7 *5112:A *640:8 0
8 *566:10 *4700:A 0
*RES
1 *4687:X *640:8 11.9071 
2 *640:8 *4700:A 23.1393 
3 *640:8 *4701:A 9.3 
*END

*D_NET *641 0.00569135
*CONN
*I *4714:A1 I *D sky130_fd_sc_hd__a21oi_1
*I *4697:A I *D sky130_fd_sc_hd__xnor2_1
*I *4688:X O *D sky130_fd_sc_hd__a21o_1
*CAP
1 *4714:A1 0.000194886
2 *4697:A 0
3 *4688:X 0.00173008
4 *641:10 0.00192496
5 *4714:A1 *4718:A 7.06362e-05
6 *641:10 *4697:B 5.33005e-05
7 *11:7 *641:10 0.000152412
8 *621:10 *641:10 0.00156508
*RES
1 *4688:X *641:10 35.6393 
2 *641:10 *4697:A 9.3 
3 *641:10 *4714:A1 21.9964 
*END

*D_NET *642 0.00321735
*CONN
*I *4691:A2 I *D sky130_fd_sc_hd__a21oi_1
*I *4690:B I *D sky130_fd_sc_hd__xor2_1
*I *4689:X O *D sky130_fd_sc_hd__mux2_1
*CAP
1 *4691:A2 0
2 *4690:B 0.000258851
3 *4689:X 0.000638048
4 *642:18 0.000896899
5 *642:18 *4662:A1_N 0.000198975
6 *642:18 *4662:A2_N 0.000114646
7 *642:18 *4663:A_N 0.000140243
8 *642:18 *644:12 3.99614e-06
9 *642:18 *994:94 9.67754e-05
10 *4661:A *4690:B 9.8729e-05
11 *4662:B2 *642:18 9.80173e-05
12 *4691:A1 *4690:B 7.74135e-05
13 *614:16 *4690:B 5.66971e-05
14 *617:31 *642:18 0.000538057
*RES
1 *4689:X *642:18 25.55 
2 *642:18 *4690:B 23.5143 
3 *642:18 *4691:A2 9.3 
*END

*D_NET *643 0.0022234
*CONN
*I *4715:S I *D sky130_fd_sc_hd__mux2_1
*I *4692:A0 I *D sky130_fd_sc_hd__mux2_1
*I *4690:X O *D sky130_fd_sc_hd__xor2_1
*CAP
1 *4715:S 0.000463446
2 *4692:A0 0
3 *4690:X 0.000212863
4 *643:8 0.000676309
5 *4715:S *4716:B1 0.000197609
6 *4715:S *4717:A1 9.25014e-06
7 *4715:S *667:8 2.89114e-05
8 *4692:A1 *643:8 0.000534842
9 *4715:A0 *4715:S 0.000100165
*RES
1 *4690:X *643:8 15.1929 
2 *643:8 *4692:A0 9.3 
3 *643:8 *4715:S 27.1214 
*END

*D_NET *644 0.00206203
*CONN
*I *4717:A1 I *D sky130_fd_sc_hd__a21bo_1
*I *4716:B1 I *D sky130_fd_sc_hd__a211o_1
*I *4691:Y O *D sky130_fd_sc_hd__a21oi_1
*CAP
1 *4717:A1 0.000174988
2 *4716:B1 5.73189e-05
3 *4691:Y 0.000340318
4 *644:12 0.000572625
5 *4716:B1 *4716:C1 0.000173844
6 *4717:A1 *4716:C1 4.73656e-05
7 *4717:A1 *4717:A2 0.000128154
8 *644:12 *667:8 2.59355e-05
9 *4692:S *4716:B1 3.67279e-06
10 *4715:S *4716:B1 0.000197609
11 *4715:S *4717:A1 9.25014e-06
12 *617:31 *644:12 7.25873e-06
13 *617:42 *4716:B1 8.91963e-06
14 *617:42 *644:12 0.00031077
15 *642:18 *644:12 3.99614e-06
*RES
1 *4691:Y *644:12 21.05 
2 *644:12 *4716:B1 16.3536 
3 *644:12 *4717:A1 17.3 
*END

*D_NET *645 0.00016242
*CONN
*I *4693:B I *D sky130_fd_sc_hd__xor2_1
*I *4692:X O *D sky130_fd_sc_hd__mux2_1
*CAP
1 *4693:B 8.12101e-05
2 *4692:X 8.12101e-05
*RES
1 *4692:X *4693:B 19.975 
*END

*D_NET *646 0.00112551
*CONN
*I *4695:C_N I *D sky130_fd_sc_hd__or3b_1
*I *4694:B1_N I *D sky130_fd_sc_hd__o21ba_1
*I *4693:X O *D sky130_fd_sc_hd__xor2_1
*CAP
1 *4695:C_N 3.90218e-05
2 *4694:B1_N 0
3 *4693:X 0.000265446
4 *646:8 0.000304468
5 *4695:C_N *647:6 5.66971e-05
6 *4693:A *646:8 0.000141935
7 *4695:A *4695:C_N 8.73297e-05
8 *4695:A *646:8 0.000230612
*RES
1 *4693:X *646:8 15.1929 
2 *646:8 *4694:B1_N 9.3 
3 *646:8 *4695:C_N 10.6571 
*END

*D_NET *647 0.000927868
*CONN
*I *4714:B1 I *D sky130_fd_sc_hd__a21oi_1
*I *4696:A_N I *D sky130_fd_sc_hd__and2b_1
*I *4694:X O *D sky130_fd_sc_hd__o21ba_1
*CAP
1 *4714:B1 0.000115461
2 *4696:A_N 0
3 *4694:X 0.000177662
4 *647:6 0.000293123
5 *4714:B1 *4714:A2 0.000143633
6 *4714:B1 *648:6 4.86074e-05
7 *647:6 *648:6 2.11336e-05
8 *4695:A *647:6 7.15503e-05
9 *4695:C_N *647:6 5.66971e-05
*RES
1 *4694:X *647:6 12.7107 
2 *647:6 *4696:A_N 9.3 
3 *647:6 *4714:B1 11.8893 
*END

*D_NET *648 0.000697155
*CONN
*I *4696:B I *D sky130_fd_sc_hd__and2b_1
*I *4714:A2 I *D sky130_fd_sc_hd__a21oi_1
*I *4695:X O *D sky130_fd_sc_hd__or3b_1
*CAP
1 *4696:B 0
2 *4714:A2 0.000154708
3 *4695:X 8.71824e-05
4 *648:6 0.000241891
5 *4714:B1 *4714:A2 0.000143633
6 *4714:B1 *648:6 4.86074e-05
7 *647:6 *648:6 2.11336e-05
*RES
1 *4695:X *648:6 11.0679 
2 *648:6 *4714:A2 12.6214 
3 *648:6 *4696:B 9.3 
*END

*D_NET *649 0.00038509
*CONN
*I *4697:B I *D sky130_fd_sc_hd__xnor2_1
*I *4696:X O *D sky130_fd_sc_hd__and2b_1
*CAP
1 *4697:B 0.000103872
2 *4696:X 0.000103872
3 *4697:B *4718:A 0.000124045
4 *641:10 *4697:B 5.33005e-05
*RES
1 *4696:X *4697:B 29.7786 
*END

*D_NET *650 0.00535657
*CONN
*I *4719:A1 I *D sky130_fd_sc_hd__o211a_4
*I *4699:A I *D sky130_fd_sc_hd__xor2_1
*I *4697:Y O *D sky130_fd_sc_hd__xnor2_1
*CAP
1 *4719:A1 5.39438e-05
2 *4699:A 4.9663e-05
3 *4697:Y 4.66968e-05
4 *650:12 0.00202047
5 *650:8 0.00196356
6 *4699:A *4699:B 5.52238e-05
7 *4719:A1 *4699:B 0.000130419
8 *650:12 *4718:A 0
9 *650:12 *4719:C1 0
10 *650:12 *651:14 0
11 *4608:B *650:12 1.46624e-05
12 *4609:A *650:12 0.000166976
13 *4637:A *650:12 0
14 *4638:B *650:12 0
15 *4640:B *650:12 0.000134748
16 *4672:B *650:12 0.000129868
17 *525:12 *650:12 0
18 *562:10 *650:12 0.000397141
19 *592:12 *650:12 9.77024e-05
20 *593:10 *650:12 0
21 *623:12 *650:12 9.55e-05
*RES
1 *4697:Y *650:8 14.3357 
2 *650:8 *650:12 42.875 
3 *650:12 *4699:A 10.2464 
4 *650:12 *4719:A1 10.6571 
*END

*D_NET *651 0.00462737
*CONN
*I *4719:A2 I *D sky130_fd_sc_hd__o211a_4
*I *4699:B I *D sky130_fd_sc_hd__xor2_1
*I *4698:X O *D sky130_fd_sc_hd__o21a_1
*CAP
1 *4719:A2 0
2 *4699:B 0.000107748
3 *4698:X 0.00107712
4 *651:14 0.00118487
5 *4699:B *4719:B1 0
6 *4699:B *652:8 0.000144773
7 *651:14 *4719:C1 0.00105291
8 *651:14 *652:8 4.58976e-05
9 *4608:B *651:14 0
10 *4609:A *651:14 0
11 *4639:B1 *651:14 0.000126446
12 *4640:A *651:14 7.79781e-06
13 *4641:B *651:14 0.000129868
14 *4699:A *4699:B 5.52238e-05
15 *4719:A1 *4699:B 0.000130419
16 *562:10 *651:14 0
17 *593:10 *651:14 0.00046525
18 *627:12 *651:14 9.90367e-05
19 *650:12 *651:14 0
*RES
1 *4698:X *651:14 46.425 
2 *651:14 *4699:B 12.3179 
3 *651:14 *4719:A2 9.3 
*END

*D_NET *652 0.00201475
*CONN
*I *4701:B I *D sky130_fd_sc_hd__xor2_1
*I *4700:B I *D sky130_fd_sc_hd__nand2_2
*I *4699:X O *D sky130_fd_sc_hd__xor2_1
*CAP
1 *4701:B 0.000211969
2 *4700:B 0
3 *4699:X 0.000471848
4 *652:8 0.000683817
5 *4701:B *671:12 0.000186662
6 *652:8 *4719:B1 0.000222784
7 *652:8 *671:12 4.69993e-05
8 *4678:A2 *4701:B 0
9 *4687:A3 *4701:B 0
10 *4699:B *652:8 0.000144773
11 *4700:A *4701:B 0
12 *651:14 *652:8 4.58976e-05
*RES
1 *4699:X *652:8 18.3714 
2 *652:8 *4700:B 9.3 
3 *652:8 *4701:B 22.6214 
*END

*D_NET *653 0.000667269
*CONN
*I *4719:B1 I *D sky130_fd_sc_hd__o211a_4
*I *4700:Y O *D sky130_fd_sc_hd__nand2_2
*CAP
1 *4719:B1 0.000149856
2 *4700:Y 0.000149856
3 *4719:B1 *671:12 0.000144773
4 *4699:B *4719:B1 0
5 *652:8 *4719:B1 0.000222784
*RES
1 *4700:Y *4719:B1 22.85 
*END

*D_NET *654 0.00681019
*CONN
*I *4704:B I *D sky130_fd_sc_hd__nor2_1
*I *4702:B I *D sky130_fd_sc_hd__nand2_1
*I *4701:X O *D sky130_fd_sc_hd__xor2_1
*CAP
1 *4704:B 6.06153e-05
2 *4702:B 0
3 *4701:X 0.00105916
4 *654:18 0.000785133
5 *654:12 0.00178368
6 *4704:B *4702:A 5.3823e-05
7 *4704:B *655:10 4.88637e-05
8 *4704:B *657:12 1.33343e-05
9 *4704:B *662:14 2.77289e-05
10 *4704:B *802:26 0
11 *654:12 *4650:B 0.000539088
12 *654:12 *4653:B 8.45221e-05
13 *654:18 *4652:A 2.94103e-05
14 *654:18 *5038:A 0
15 *654:18 *662:14 0.000939363
16 *654:18 *662:20 0
17 *654:18 *799:8 0
18 *4650:A *654:12 0.000481586
19 *4682:B1_N *654:18 0.000176226
20 *4706:A_N *654:18 5.26184e-05
21 *4707:A1 *654:18 9.24491e-05
22 *4709:A2 *654:18 0
23 *607:8 *654:18 0.000368111
24 *608:10 *654:18 0.000182606
25 *640:8 *654:12 3.18676e-05
*RES
1 *4701:X *654:12 33.2643 
2 *654:12 *654:18 24.5893 
3 *654:18 *4702:B 9.3 
4 *654:18 *4704:B 11.5143 
*END

*D_NET *655 0.00238038
*CONN
*I *4727:A1 I *D sky130_fd_sc_hd__o21ba_4
*I *4703:A I *D sky130_fd_sc_hd__inv_2
*I *4702:Y O *D sky130_fd_sc_hd__nand2_1
*CAP
1 *4727:A1 0.000138829
2 *4703:A 3.03106e-05
3 *4702:Y 0.00049518
4 *655:10 0.00066432
5 *4703:A *674:6 5.71472e-05
6 *4703:A *778:161 5.33433e-05
7 *4727:A1 *4728:A 0
8 *4727:A1 *4728:B 5.52302e-05
9 *4727:A1 *656:23 2.8266e-06
10 *4727:A1 *672:14 0.000209483
11 *4727:A1 *847:86 5.52302e-05
12 *655:10 *4705:A 3.57163e-05
13 *655:10 *4711:A 7.6644e-05
14 *655:10 *656:23 1.78353e-05
15 *655:10 *657:12 0.000183713
16 *655:10 *660:12 0.000139913
17 *655:10 *660:34 7.0368e-05
18 *655:10 *663:21 0
19 *655:10 *672:14 3.51442e-05
20 *655:10 *802:26 1.02821e-05
21 *4704:B *655:10 4.88637e-05
*RES
1 *4702:Y *655:10 22.1036 
2 *655:10 *4703:A 14.7464 
3 *655:10 *4727:A1 17.1929 
*END

*D_NET *656 0.00158107
*CONN
*I *4723:A1 I *D sky130_fd_sc_hd__o21a_1
*I *4724:A1 I *D sky130_fd_sc_hd__o31ai_1
*I *4705:A I *D sky130_fd_sc_hd__or2_1
*I *4703:Y O *D sky130_fd_sc_hd__inv_2
*CAP
1 *4723:A1 8.04371e-05
2 *4724:A1 0
3 *4705:A 0.000156488
4 *4703:Y 0
5 *656:23 0.000137987
6 *656:6 0.000214038
7 *4705:A *4728:A 0.000265172
8 *4723:A1 *4723:B1 4.72818e-05
9 *4723:A1 *4724:A3 3.99614e-06
10 *4723:A1 *4725:A1 5.52302e-05
11 *4723:A1 *674:6 6.71755e-05
12 *4723:A1 *778:161 0.000268403
13 *656:23 *4728:A 1.87955e-05
14 *656:23 *674:6 0.000140933
15 *656:23 *778:161 6.87574e-05
16 *4727:A1 *656:23 2.8266e-06
17 *655:10 *4705:A 3.57163e-05
18 *655:10 *656:23 1.78353e-05
*RES
1 *4703:Y *656:6 13.8 
2 *656:6 *4705:A 17.3179 
3 *656:6 *656:23 6.58929 
4 *656:23 *4724:A1 9.3 
5 *656:23 *4723:A1 12.3179 
*END

*D_NET *657 0.00239055
*CONN
*I *4728:A I *D sky130_fd_sc_hd__or2_4
*I *4705:B I *D sky130_fd_sc_hd__or2_1
*I *4704:Y O *D sky130_fd_sc_hd__nor2_1
*CAP
1 *4728:A 0.00038508
2 *4705:B 0
3 *4704:Y 9.66914e-05
4 *657:12 0.000481771
5 *4728:A *4725:B2 0
6 *4728:A *663:21 0.00024292
7 *4728:A *778:25 0
8 *4728:A *846:47 4.1331e-06
9 *4728:A *847:86 3.34366e-05
10 *4728:A *1011:36 0.000239712
11 *657:12 *4702:A 2.95641e-05
12 *657:12 *660:8 9.25014e-06
13 *657:12 *660:34 0.000162125
14 *657:12 *662:20 0.00017309
15 *657:12 *802:26 5.17614e-05
16 *4704:B *657:12 1.33343e-05
17 *4705:A *4728:A 0.000265172
18 *4727:A1 *4728:A 0
19 *655:10 *657:12 0.000183713
20 *656:23 *4728:A 1.87955e-05
*RES
1 *4704:Y *657:12 22.3179 
2 *657:12 *4705:B 9.3 
3 *657:12 *4728:A 27.5143 
*END

*D_NET *658 0.00161427
*CONN
*I *4710:B1 I *D sky130_fd_sc_hd__a21oi_1
*I *4711:A I *D sky130_fd_sc_hd__and3_1
*I *4705:X O *D sky130_fd_sc_hd__or2_1
*CAP
1 *4710:B1 0.000311164
2 *4711:A 0.000148422
3 *4705:X 0
4 *658:4 0.000459586
5 *4710:B1 *4712:A1 1.33343e-05
6 *4710:B1 *4712:A2 1.00073e-05
7 *4710:B1 *663:21 0.000100823
8 *4710:B1 *802:26 7.59427e-05
9 *4710:B1 *1011:36 0.000272371
10 *4710:B1 *1011:38 0
11 *4710:B1 *1011:40 0
12 *4711:A *660:8 4.25523e-05
13 *4711:A *660:34 5.01213e-05
14 *4711:A *802:26 0
15 *4711:A *1011:36 5.33005e-05
16 *655:10 *4711:A 7.6644e-05
*RES
1 *4705:X *658:4 9.3 
2 *658:4 *4711:A 21.0857 
3 *658:4 *4710:B1 23.675 
*END

*D_NET *659 0.000944124
*CONN
*I *4707:B1 I *D sky130_fd_sc_hd__o21ai_4
*I *4706:X O *D sky130_fd_sc_hd__and2b_1
*CAP
1 *4707:B1 0.000392527
2 *4706:X 0.000392527
3 *4707:B1 *662:14 0
4 *4622:B *4707:B1 0
5 *4683:B *4707:B1 0.000122101
6 *574:25 *4707:B1 0
7 *577:10 *4707:B1 3.69697e-05
*RES
1 *4706:X *4707:B1 33.85 
*END

*D_NET *660 0.00453046
*CONN
*I *4729:A1 I *D sky130_fd_sc_hd__a31o_1
*I *4753:A1 I *D sky130_fd_sc_hd__a311o_1
*I *4710:A1 I *D sky130_fd_sc_hd__a21oi_1
*I *4711:B I *D sky130_fd_sc_hd__and3_1
*I *4707:Y O *D sky130_fd_sc_hd__o21ai_4
*CAP
1 *4729:A1 3.85652e-05
2 *4753:A1 0.000265811
3 *4710:A1 7.59735e-05
4 *4711:B 2.23854e-05
5 *4707:Y 0.000294412
6 *660:34 0.000799602
7 *660:12 0.000150932
8 *660:8 0.000842212
9 *4710:A1 *4710:A2 2.6856e-05
10 *4710:A1 *4712:A1 3.37729e-05
11 *4710:A1 *4712:A2 0.00010096
12 *4710:A1 *802:26 9.89576e-05
13 *4729:A1 *662:20 4.66511e-05
14 *4729:A1 *679:14 0
15 *4753:A1 *4753:A2 5.23057e-05
16 *4753:A1 *4753:C1 0.000228573
17 *660:8 *662:20 4.98968e-05
18 *660:8 *802:26 0
19 *660:12 *802:26 0.000132879
20 *660:34 *662:20 0.000611301
21 *660:34 *672:14 0.000123996
22 *660:34 *679:14 6.00883e-05
23 *660:34 *847:86 0
24 *4711:A *660:8 4.25523e-05
25 *4711:A *660:34 5.01213e-05
26 *574:25 *660:8 0
27 *655:10 *660:12 0.000139913
28 *655:10 *660:34 7.0368e-05
29 *657:12 *660:8 9.25014e-06
30 *657:12 *660:34 0.000162125
*RES
1 *4707:Y *660:8 19.0857 
2 *660:8 *660:12 6.26786 
3 *660:12 *4711:B 9.72857 
4 *660:12 *4710:A1 11.8 
5 *660:8 *660:34 14.1429 
6 *660:34 *4753:A1 17.6393 
7 *660:34 *4729:A1 14.5321 
*END

*D_NET *661 0.000470841
*CONN
*I *4709:B1 I *D sky130_fd_sc_hd__o21ai_2
*I *4708:X O *D sky130_fd_sc_hd__a21o_1
*CAP
1 *4709:B1 0.000103666
2 *4708:X 0.000103666
3 *4709:B1 *4681:A 5.33433e-05
4 *4709:B1 *4708:A1 0
5 *4709:B1 *671:14 8.06427e-05
6 *4709:B1 *968:113 9.60939e-05
7 *635:12 *4709:B1 3.34295e-05
*RES
1 *4708:X *4709:B1 30.4929 
*END

*D_NET *662 0.00759817
*CONN
*I *4710:A2 I *D sky130_fd_sc_hd__a21oi_1
*I *4711:C I *D sky130_fd_sc_hd__and3_1
*I *4753:A2 I *D sky130_fd_sc_hd__a311o_1
*I *4729:A2 I *D sky130_fd_sc_hd__a31o_1
*I *4709:Y O *D sky130_fd_sc_hd__o21ai_2
*CAP
1 *4710:A2 8.76974e-05
2 *4711:C 0
3 *4753:A2 0.000139061
4 *4729:A2 0
5 *4709:Y 0.000663079
6 *662:42 0.00027359
7 *662:20 0.000698412
8 *662:14 0.00140832
9 *4710:A2 *802:26 0.000103268
10 *4753:A2 *4753:C1 4.5663e-05
11 *4753:A2 *680:12 4.33209e-05
12 *4753:A2 *804:22 0.000308108
13 *662:14 *4702:A 0.000144773
14 *662:14 *801:10 0.000214192
15 *662:14 *801:12 9.90431e-05
16 *662:14 *802:26 2.14658e-05
17 *662:20 *4722:B 4.25619e-05
18 *662:20 *4727:B1_N 6.09476e-05
19 *662:20 *4729:A3 0.000123295
20 *662:20 *4733:A1 0
21 *662:20 *678:8 0.000394705
22 *662:20 *680:12 1.31516e-05
23 *662:42 *802:26 0.00013907
24 *4622:B *662:14 0.000175526
25 *4682:B1_N *662:14 5.33005e-05
26 *4683:B *662:14 0.00015234
27 *4704:B *662:14 2.77289e-05
28 *4707:B1 *662:14 0
29 *4710:A1 *4710:A2 2.6856e-05
30 *4729:A1 *662:20 4.66511e-05
31 *4753:A1 *4753:A2 5.23057e-05
32 *574:25 *662:14 0.00023995
33 *577:10 *662:14 0
34 *608:10 *662:14 2.61337e-05
35 *654:18 *662:14 0.000939363
36 *654:18 *662:20 0
37 *657:12 *662:20 0.00017309
38 *660:8 *662:20 4.98968e-05
39 *660:34 *662:20 0.000611301
*RES
1 *4709:Y *662:14 35.8536 
2 *662:14 *662:20 24.6071 
3 *662:20 *4729:A2 9.3 
4 *662:20 *4753:A2 14.1214 
5 *662:14 *662:42 2.66071 
6 *662:42 *4711:C 9.3 
7 *662:42 *4710:A2 11.4429 
*END

*D_NET *663 0.00165138
*CONN
*I *4723:A2 I *D sky130_fd_sc_hd__o21a_1
*I *4724:A2 I *D sky130_fd_sc_hd__o31ai_1
*I *4712:A1 I *D sky130_fd_sc_hd__o21ai_1
*I *4710:Y O *D sky130_fd_sc_hd__a21oi_1
*CAP
1 *4723:A2 0.000161504
2 *4724:A2 0
3 *4712:A1 3.60018e-05
4 *4710:Y 0
5 *663:21 0.000422171
6 *663:4 0.000296669
7 *4712:A1 *4712:A2 2.27416e-05
8 *4712:A1 *802:26 2.44318e-05
9 *4723:A2 *778:161 0.000238028
10 *663:21 *4725:B2 2.56601e-05
11 *663:21 *778:161 3.33238e-05
12 *663:21 *1011:38 0
13 *663:21 *1011:116 0
14 *4710:A1 *4712:A1 3.37729e-05
15 *4710:B1 *4712:A1 1.33343e-05
16 *4710:B1 *663:21 0.000100823
17 *4728:A *663:21 0.00024292
18 *655:10 *663:21 0
*RES
1 *4710:Y *663:4 9.3 
2 *663:4 *4712:A1 10.5679 
3 *663:4 *663:21 14.6161 
4 *663:21 *4724:A2 9.3 
5 *663:21 *4723:A2 11.6839 
*END

*D_NET *664 0.000528717
*CONN
*I *4712:A2 I *D sky130_fd_sc_hd__o21ai_1
*I *4711:X O *D sky130_fd_sc_hd__and3_1
*CAP
1 *4712:A2 0.000193097
2 *4711:X 0.000193097
3 *4712:A2 *802:26 8.81471e-06
4 *4710:A1 *4712:A2 0.00010096
5 *4710:B1 *4712:A2 1.00073e-05
6 *4712:A1 *4712:A2 2.27416e-05
*RES
1 *4711:X *4712:A2 21.1893 
*END

*D_NET *665 0.000633456
*CONN
*I *4713:C1 I *D sky130_fd_sc_hd__o211a_1
*I *4712:Y O *D sky130_fd_sc_hd__o21ai_1
*CAP
1 *4713:C1 0.000161824
2 *4712:Y 0.000161824
3 *4713:C1 *778:29 0.000125717
4 *4713:C1 *802:26 0.000140933
5 *4713:C1 *1011:40 4.03318e-05
6 *4713:C1 *1011:42 2.8266e-06
*RES
1 *4712:Y *4713:C1 30.6 
*END

*D_NET *666 0.000972698
*CONN
*I *4718:A I *D sky130_fd_sc_hd__xor2_1
*I *4714:Y O *D sky130_fd_sc_hd__a21oi_1
*CAP
1 *4718:A 0.000374557
2 *4714:Y 0.000374557
3 *4697:B *4718:A 0.000124045
4 *4714:A1 *4718:A 7.06362e-05
5 *623:12 *4718:A 2.89016e-05
6 *650:12 *4718:A 0
*RES
1 *4714:Y *4718:A 34.9393 
*END

*D_NET *667 0.00121301
*CONN
*I *4717:A2 I *D sky130_fd_sc_hd__a21bo_1
*I *4716:C1 I *D sky130_fd_sc_hd__a211o_1
*I *4715:X O *D sky130_fd_sc_hd__mux2_1
*CAP
1 *4717:A2 6.17109e-05
2 *4716:C1 0.000166802
3 *4715:X 0.000115722
4 *667:8 0.000344235
5 *4716:C1 *4717:B1_N 0
6 *4717:A2 *4717:B1_N 0
7 *4715:S *667:8 2.89114e-05
8 *4716:A1 *4716:C1 5.58681e-05
9 *4716:B1 *4716:C1 0.000173844
10 *4717:A1 *4716:C1 4.73656e-05
11 *4717:A1 *4717:A2 0.000128154
12 *617:42 *4716:C1 6.44649e-05
13 *644:12 *667:8 2.59355e-05
*RES
1 *4715:X *667:8 15.1571 
2 *667:8 *4716:C1 18.0321 
3 *667:8 *4717:A2 15.4429 
*END

*D_NET *668 0.000580337
*CONN
*I *4717:B1_N I *D sky130_fd_sc_hd__a21bo_1
*I *4716:X O *D sky130_fd_sc_hd__a211o_1
*CAP
1 *4717:B1_N 0.000267644
2 *4716:X 0.000267644
3 *4716:C1 *4717:B1_N 0
4 *4717:A2 *4717:B1_N 0
5 *617:42 *4717:B1_N 2.98475e-05
6 *621:10 *4717:B1_N 1.52013e-05
*RES
1 *4716:X *4717:B1_N 32.2071 
*END

*D_NET *669 0.00237214
*CONN
*I *4718:B I *D sky130_fd_sc_hd__xor2_1
*I *4717:X O *D sky130_fd_sc_hd__a21bo_1
*CAP
1 *4718:B 0.000908794
2 *4717:X 0.000908794
3 *4669:A *4718:B 4.16869e-05
4 *4669:B *4718:B 0.00040279
5 *623:12 *4718:B 0.000110076
*RES
1 *4717:X *4718:B 34.35 
*END

*D_NET *670 0.0048601
*CONN
*I *4719:C1 I *D sky130_fd_sc_hd__o211a_4
*I *4718:X O *D sky130_fd_sc_hd__xor2_1
*CAP
1 *4719:C1 0.00155391
2 *4718:X 0.000263001
3 *670:8 0.00181691
4 *4641:B *4719:C1 0.000129868
5 *4643:B1 *4719:C1 0
6 *4675:A1 *4719:C1 0
7 *566:10 *4719:C1 0
8 *578:10 *4719:C1 0
9 *624:12 *4719:C1 4.35048e-05
10 *650:12 *4719:C1 0
11 *651:14 *4719:C1 0.00105291
*RES
1 *4718:X *670:8 18.0321 
2 *670:8 *4719:C1 48.2286 
*END

*D_NET *671 0.0208768
*CONN
*I *4934:A I *D sky130_fd_sc_hd__clkbuf_1
*I *4954:A I *D sky130_fd_sc_hd__clkbuf_2
*I *5111:A I *D sky130_fd_sc_hd__dlygate4sd1_1
*I *4952:A I *D sky130_fd_sc_hd__buf_2
*I *4953:A I *D sky130_fd_sc_hd__buf_4
*I *4955:A I *D sky130_fd_sc_hd__buf_12
*I *4719:X O *D sky130_fd_sc_hd__o211a_4
*CAP
1 *4934:A 9.85495e-05
2 *4954:A 0
3 *5111:A 0.000101269
4 *4952:A 0.000272002
5 *4953:A 0.000219501
6 *4955:A 0
7 *4719:X 0.00139339
8 *671:51 0.000573257
9 *671:47 0.00107253
10 *671:39 0.00196028
11 *671:27 0.00201257
12 *671:14 0.00241889
13 *671:12 0.00296903
14 *4934:A *4735:B1_N 0.000229456
15 *4934:A *856:8 0.000170964
16 *4934:A *856:30 5.7661e-06
17 *4952:A *971:37 0.000656833
18 *4953:A *722:10 0.000343203
19 *4953:A *813:25 0
20 *4953:A *836:46 0
21 *5111:A *4805:C 0.000358977
22 *5111:A *4805:D 0.000315165
23 *5111:A *1002:28 2.44318e-05
24 *671:14 *4620:B1 0
25 *671:14 *4708:A1 0
26 *671:14 *4897:CLK 0
27 *671:14 *5038:A 0
28 *671:14 *799:8 0
29 *671:14 *799:14 0
30 *671:14 *849:43 0
31 *671:14 *964:14 0.000199706
32 *671:14 *964:32 2.48938e-05
33 *671:27 *4203:B 0
34 *671:27 *4734:B 0.000196097
35 *671:27 *4752:A 0
36 *671:27 *4754:B1 2.89016e-05
37 *671:27 *684:8 0
38 *671:27 *684:21 0
39 *671:27 *856:8 6.42095e-05
40 *671:27 *964:32 0.000802624
41 *671:27 *964:45 0.00035158
42 *671:39 *4740:A 0
43 *671:39 *4746:A 0.000173804
44 *671:39 *4746:B 0.000726964
45 *671:39 *4752:D 0
46 *671:39 *4754:A2 0
47 *671:39 *4754:A4 9.91086e-05
48 *671:39 *4781:A 0.000173804
49 *671:39 *4782:A1 7.30305e-05
50 *671:39 *700:10 0
51 *671:39 *702:10 4.25809e-05
52 *671:39 *804:31 1.76135e-05
53 *671:39 *804:44 0.000268952
54 *671:47 *4751:B 1.00073e-05
55 *671:47 *4783:A1 0.000274288
56 *671:47 *4783:A2 1.21258e-05
57 *671:47 *4783:B1 0.000350136
58 *671:47 *4806:B1 2.66563e-05
59 *671:47 *723:23 1.98839e-05
60 *671:47 *837:87 4.15972e-05
61 *671:47 *1002:28 8.43535e-06
62 *671:51 *722:10 3.34366e-05
63 *671:51 *722:25 0.000117903
64 *671:51 *836:46 0
65 *4651:A *671:14 0
66 *4651:B *671:12 9.10594e-05
67 *4653:A *671:14 0
68 *4678:A1 *671:12 3.65069e-05
69 *4678:A2 *671:12 0.00031119
70 *4681:B *671:14 9.57064e-05
71 *4701:B *671:12 0.000186662
72 *4709:B1 *671:14 8.06427e-05
73 *4719:B1 *671:12 0.000144773
74 *4897:D *671:14 3.71496e-05
75 *183:69 *671:39 0.000337429
76 *634:10 *671:14 9.34004e-05
77 *635:12 *671:14 8.08376e-05
78 *652:8 *671:12 4.69993e-05
*RES
1 *4719:X *671:12 34.2821 
2 *671:12 *671:14 30.1786 
3 *671:14 *4955:A 13.8 
4 *671:14 *671:27 24.0179 
5 *671:27 *671:39 35.0893 
6 *671:39 *671:47 13.0179 
7 *671:47 *671:51 6.44643 
8 *671:51 *4953:A 18.7821 
9 *671:51 *4952:A 20.0857 
10 *671:47 *5111:A 13.55 
11 *671:39 *4954:A 9.3 
12 *671:27 *4934:A 12.7286 
*END

*D_NET *672 0.00215028
*CONN
*I *4722:A I *D sky130_fd_sc_hd__or2_1
*I *4728:B I *D sky130_fd_sc_hd__or2_4
*I *4727:A2 I *D sky130_fd_sc_hd__o21ba_4
*I *4720:Y O *D sky130_fd_sc_hd__nor2_1
*CAP
1 *4722:A 0
2 *4728:B 7.38373e-05
3 *4727:A2 0
4 *4720:Y 0.000381941
5 *672:14 0.000173638
6 *672:8 0.000481742
7 *4728:B *679:14 0.000188586
8 *4728:B *847:86 9.31794e-05
9 *672:8 *4721:B 0.000188586
10 *672:8 *4722:B 9.7659e-05
11 *672:8 *778:161 4.72595e-05
12 *4727:A1 *4728:B 5.52302e-05
13 *4727:A1 *672:14 0.000209483
14 *655:10 *672:14 3.51442e-05
15 *660:34 *672:14 0.000123996
*RES
1 *4720:Y *672:8 14.7821 
2 *672:8 *672:14 12.1607 
3 *672:14 *4727:A2 9.3 
4 *672:14 *4728:B 11.9071 
5 *672:8 *4722:A 9.3 
*END

*D_NET *673 0.000859779
*CONN
*I *4727:B1_N I *D sky130_fd_sc_hd__o21ba_4
*I *4722:B I *D sky130_fd_sc_hd__or2_1
*I *4721:X O *D sky130_fd_sc_hd__and2_4
*CAP
1 *4727:B1_N 9.59641e-05
2 *4722:B 9.24555e-05
3 *4721:X 0
4 *673:6 0.00018842
5 *4722:B *778:161 9.47028e-05
6 *4722:B *803:12 2.10446e-05
7 *4727:B1_N *4588:B1 3.30237e-05
8 *4727:B1_N *798:59 9.90367e-05
9 *4727:B1_N *803:12 2.1527e-05
10 *4727:B1_N *847:86 1.24368e-05
11 *662:20 *4722:B 4.25619e-05
12 *662:20 *4727:B1_N 6.09476e-05
13 *672:8 *4722:B 9.7659e-05
*RES
1 *4721:X *673:6 13.8 
2 *673:6 *4722:B 16.6036 
3 *673:6 *4727:B1_N 16.3893 
*END

*D_NET *674 0.00118043
*CONN
*I *4723:B1 I *D sky130_fd_sc_hd__o21a_1
*I *4724:A3 I *D sky130_fd_sc_hd__o31ai_1
*I *4722:X O *D sky130_fd_sc_hd__or2_1
*CAP
1 *4723:B1 0.000138564
2 *4724:A3 2.06112e-05
3 *4722:X 0.000180261
4 *674:6 0.000339436
5 *4723:B1 *4725:A1 0.000174745
6 *4724:A3 *4725:A1 0
7 *674:6 *778:161 1.02821e-05
8 *4703:A *674:6 5.71472e-05
9 *4723:A1 *4723:B1 4.72818e-05
10 *4723:A1 *4724:A3 3.99614e-06
11 *4723:A1 *674:6 6.71755e-05
12 *656:23 *674:6 0.000140933
*RES
1 *4722:X *674:6 12.7107 
2 *674:6 *4724:A3 9.72857 
3 *674:6 *4723:B1 12.3179 
*END

*D_NET *675 0.000617795
*CONN
*I *4725:B1 I *D sky130_fd_sc_hd__o221a_1
*I *4723:X O *D sky130_fd_sc_hd__o21a_1
*CAP
1 *4725:B1 0.000105736
2 *4723:X 0.000105736
3 *4725:B1 *4725:A1 0.000148189
4 *4725:B1 *4725:A2 3.34295e-05
5 *4725:B1 *4725:B2 5.52238e-05
6 *4725:B1 *778:25 5.64858e-05
7 *4725:B1 *798:59 4.43256e-05
8 *4725:B1 *846:41 6.86693e-05
*RES
1 *4723:X *4725:B1 30.9036 
*END

*D_NET *676 0.00084616
*CONN
*I *4725:B2 I *D sky130_fd_sc_hd__o221a_1
*I *4724:Y O *D sky130_fd_sc_hd__o31ai_1
*CAP
1 *4725:B2 0.00019893
2 *4724:Y 0.00019893
3 *4725:B2 *778:27 0
4 *4725:B2 *798:59 0.000228558
5 *4725:B2 *846:41 2.95641e-05
6 *4725:B2 *846:47 9.90431e-05
7 *4725:B2 *1011:116 1.02504e-05
8 *4725:B1 *4725:B2 5.52238e-05
9 *4728:A *4725:B2 0
10 *663:21 *4725:B2 2.56601e-05
*RES
1 *4724:Y *4725:B2 32.3321 
*END

*D_NET *677 0.00124554
*CONN
*I *4730:A I *D sky130_fd_sc_hd__or2_4
*I *4752:B I *D sky130_fd_sc_hd__or4_4
*I *4731:A I *D sky130_fd_sc_hd__nand2_1
*I *4726:Y O *D sky130_fd_sc_hd__xnor2_4
*CAP
1 *4730:A 4.27191e-05
2 *4752:B 0.000119074
3 *4731:A 0
4 *4726:Y 0
5 *677:10 0.000218887
6 *677:4 0.000142532
7 *4730:A *4730:B 5.71472e-05
8 *4730:A *838:118 0.000147585
9 *4752:B *4731:B 5.52238e-05
10 *4752:B *4752:C 0.000137273
11 *4752:B *966:94 0.000142043
12 *677:10 *4731:B 0.000148189
13 *677:10 *681:10 0
14 *4204:B2 *4730:A 3.48705e-05
*RES
1 *4726:Y *677:4 9.3 
2 *677:4 *677:10 10.9464 
3 *677:10 *4731:A 9.3 
4 *677:10 *4752:B 13.1571 
5 *677:4 *4730:A 11.0857 
*END

*D_NET *678 0.0017714
*CONN
*I *4729:A3 I *D sky130_fd_sc_hd__a31o_1
*I *4753:A3 I *D sky130_fd_sc_hd__a311o_1
*I *4727:X O *D sky130_fd_sc_hd__o21ba_4
*CAP
1 *4729:A3 4.29171e-05
2 *4753:A3 0.000389307
3 *4727:X 0.000189849
4 *678:8 0.000622073
5 *4729:A3 *680:12 9.25014e-06
6 *4753:A3 *4753:B1 0
7 *662:20 *4729:A3 0.000123295
8 *662:20 *678:8 0.000394705
*RES
1 *4727:X *678:8 18.7821 
2 *678:8 *4753:A3 27.8536 
3 *678:8 *4729:A3 15.4429 
*END

*D_NET *679 0.00220579
*CONN
*I *4729:B1 I *D sky130_fd_sc_hd__a31o_1
*I *4753:C1 I *D sky130_fd_sc_hd__a311o_1
*I *4728:X O *D sky130_fd_sc_hd__or2_4
*CAP
1 *4729:B1 0
2 *4753:C1 0.000117859
3 *4728:X 0.000625719
4 *679:14 0.000743578
5 *4753:C1 *680:12 6.75704e-05
6 *4753:C1 *804:22 1.57523e-05
7 *679:14 *798:59 2.15245e-05
8 *679:14 *804:22 7.69055e-05
9 *679:14 *847:86 1.39726e-05
10 *4728:B *679:14 0.000188586
11 *4729:A1 *679:14 0
12 *4753:A1 *4753:C1 0.000228573
13 *4753:A2 *4753:C1 4.5663e-05
14 *660:34 *679:14 6.00883e-05
*RES
1 *4728:X *679:14 29.1571 
2 *679:14 *4753:C1 12.7464 
3 *679:14 *4729:B1 9.3 
*END

*D_NET *680 0.00123956
*CONN
*I *4731:B I *D sky130_fd_sc_hd__nand2_1
*I *4730:B I *D sky130_fd_sc_hd__or2_4
*I *4729:X O *D sky130_fd_sc_hd__a31o_1
*CAP
1 *4731:B 9.62686e-05
2 *4730:B 2.20249e-05
3 *4729:X 0.000180532
4 *680:12 0.000298826
5 *4730:B *838:118 2.14757e-05
6 *4731:B *4752:D 4.1331e-06
7 *4731:B *4753:B1 3.84291e-05
8 *4731:B *681:10 0
9 *4731:B *966:94 5.52238e-05
10 *680:12 *4753:B1 7.54519e-05
11 *4204:B2 *4730:B 5.33433e-05
12 *4729:A3 *680:12 9.25014e-06
13 *4730:A *4730:B 5.71472e-05
14 *4752:B *4731:B 5.52238e-05
15 *4753:A2 *680:12 4.33209e-05
16 *4753:C1 *680:12 6.75704e-05
17 *662:20 *680:12 1.31516e-05
18 *677:10 *4731:B 0.000148189
*RES
1 *4729:X *680:12 17.6214 
2 *680:12 *4730:B 14.7464 
3 *680:12 *4731:B 16.5857 
*END

*D_NET *681 0.00341802
*CONN
*I *4732:A1 I *D sky130_fd_sc_hd__a21bo_1
*I *4742:B1 I *D sky130_fd_sc_hd__a2bb2o_4
*I *4735:B1_N I *D sky130_fd_sc_hd__a21bo_1
*I *4730:X O *D sky130_fd_sc_hd__or2_4
*CAP
1 *4732:A1 6.20375e-05
2 *4742:B1 1.99482e-05
3 *4735:B1_N 0.000591066
4 *4730:X 1.62167e-05
5 *681:10 0.000938819
6 *681:6 0.000406059
7 *4732:A1 *4732:B1_N 5.52238e-05
8 *4732:A1 *838:118 0.00022266
9 *4735:B1_N *856:8 2.77173e-05
10 *4735:B1_N *856:30 0.00018796
11 *4735:B1_N *856:38 0.000188586
12 *4742:B1 *4742:B2 1.02504e-05
13 *4742:B1 *689:25 0
14 *4742:B1 *847:86 1.78447e-05
15 *4742:B1 *856:38 3.34366e-05
16 *681:6 *838:118 9.90367e-05
17 *681:10 *4752:C 0
18 *681:10 *847:86 0.00017875
19 *4204:B2 *4732:A1 7.66477e-05
20 *4204:B2 *681:6 5.62995e-05
21 *4731:B *681:10 0
22 *4934:A *4735:B1_N 0.000229456
23 *677:10 *681:10 0
*RES
1 *4730:X *681:6 10.2464 
2 *681:6 *681:10 11 
3 *681:10 *4735:B1_N 22.1393 
4 *681:10 *4742:B1 14.5321 
5 *681:6 *4732:A1 11.4786 
*END

*D_NET *682 0.00182475
*CONN
*I *4732:A2 I *D sky130_fd_sc_hd__a21bo_1
*I *4731:Y O *D sky130_fd_sc_hd__nand2_1
*CAP
1 *4732:A2 0.000517796
2 *4731:Y 0.000517796
3 *4732:A2 *4902:CLK 0.00012401
4 *4732:A2 *846:62 1.02504e-05
5 *4732:A2 *966:94 0.000654896
*RES
1 *4731:Y *4732:A2 35.5286 
*END

*D_NET *683 0.000388955
*CONN
*I *4733:C1 I *D sky130_fd_sc_hd__o211a_1
*I *4732:X O *D sky130_fd_sc_hd__a21bo_1
*CAP
1 *4733:C1 0.000105981
2 *4732:X 0.000105981
3 *4733:C1 *4733:A2 4.28157e-06
4 *4733:C1 *4902:CLK 7.34839e-06
5 *4733:C1 *846:62 0.000149171
6 *4902:D *4733:C1 1.61917e-05
*RES
1 *4732:X *4733:C1 29.8232 
*END

*D_NET *684 0.00201816
*CONN
*I *4737:A1 I *D sky130_fd_sc_hd__o21ai_1
*I *4752:A I *D sky130_fd_sc_hd__or4_4
*I *4736:A2 I *D sky130_fd_sc_hd__a21boi_1
*I *4734:Y O *D sky130_fd_sc_hd__xnor2_4
*CAP
1 *4737:A1 0
2 *4752:A 0.000492353
3 *4736:A2 0.000171352
4 *4734:Y 0.000136321
5 *684:21 0.000500221
6 *684:8 0.000315541
7 *4736:A2 *971:41 2.21972e-05
8 *4752:A *4203:B 0
9 *4752:A *966:94 0.000380173
10 *4752:A *971:41 0
11 *684:8 *4734:B 0
12 *684:8 *4754:B1 0
13 *684:8 *700:10 0
14 *684:8 *971:41 0
15 *671:27 *4752:A 0
16 *671:27 *684:8 0
17 *671:27 *684:21 0
*RES
1 *4734:Y *684:8 16.2018 
2 *684:8 *4736:A2 15.8446 
3 *684:8 *684:21 0.276786 
4 *684:21 *4752:A 23.05 
5 *684:21 *4737:A1 13.8 
*END

*D_NET *685 0.00134452
*CONN
*I *4736:A1 I *D sky130_fd_sc_hd__a21boi_1
*I *4737:A2 I *D sky130_fd_sc_hd__o21ai_1
*I *4735:X O *D sky130_fd_sc_hd__a21bo_1
*CAP
1 *4736:A1 0.000100097
2 *4737:A2 0
3 *4735:X 0.000170954
4 *685:12 0.000271051
5 *4736:A1 *4737:B1 5.92418e-05
6 *4736:A1 *4738:C1 9.90431e-05
7 *4736:A1 *971:62 4.14279e-05
8 *685:12 *4734:B 0.000128161
9 *685:12 *4740:B 5.33005e-05
10 *685:12 *700:10 7.83366e-05
11 *685:12 *964:45 3.17148e-05
12 *685:12 *971:62 0.00031119
*RES
1 *4735:X *685:12 23.2464 
2 *685:12 *4737:A2 9.3 
3 *685:12 *4736:A1 12.4786 
*END

*D_NET *686 0.000306425
*CONN
*I *4737:B1 I *D sky130_fd_sc_hd__o21ai_1
*I *4736:Y O *D sky130_fd_sc_hd__a21boi_1
*CAP
1 *4737:B1 5.75582e-05
2 *4736:Y 5.75582e-05
3 *4737:B1 *4738:C1 3.30237e-05
4 *4737:B1 *971:62 9.90431e-05
5 *4736:A1 *4737:B1 5.92418e-05
*RES
1 *4736:Y *4737:B1 20.3679 
*END

*D_NET *687 0.00152356
*CONN
*I *4738:C1 I *D sky130_fd_sc_hd__o211a_1
*I *4737:Y O *D sky130_fd_sc_hd__o21ai_1
*CAP
1 *4738:C1 0.000568697
2 *4737:Y 0.000568697
3 *4738:C1 *4734:A 9.59415e-05
4 *4738:C1 *4736:B1_N 0.000154027
5 *4738:C1 *805:16 4.1331e-06
6 *4738:C1 *971:41 0
7 *4736:A1 *4738:C1 9.90431e-05
8 *4737:B1 *4738:C1 3.30237e-05
*RES
1 *4737:Y *4738:C1 37.0286 
*END

*D_NET *688 0.00049571
*CONN
*I *4747:B1 I *D sky130_fd_sc_hd__o21a_1
*I *4739:Y O *D sky130_fd_sc_hd__nand2_1
*CAP
1 *4747:B1 9.91068e-05
2 *4739:Y 9.91068e-05
3 *4747:B1 *4739:A 9.60939e-05
4 *4747:B1 *4743:A 2.44318e-05
5 *4747:B1 *689:25 2.14757e-05
6 *4747:B1 *691:12 1.55885e-05
7 *4747:B1 *806:37 0.000139907
*RES
1 *4739:Y *4747:B1 21.2071 
*END

*D_NET *689 0.00280609
*CONN
*I *4743:A I *D sky130_fd_sc_hd__xnor2_2
*I *4747:A1 I *D sky130_fd_sc_hd__o21a_1
*I *4752:C I *D sky130_fd_sc_hd__or4_4
*I *4740:Y O *D sky130_fd_sc_hd__xnor2_2
*CAP
1 *4743:A 0.000151648
2 *4747:A1 0
3 *4752:C 0.000421887
4 *4740:Y 4.42861e-05
5 *689:25 0.000397193
6 *689:8 0.000711719
7 *4743:A *4739:A 5.52302e-05
8 *4743:A *4743:B 0.000344614
9 *4743:A *806:37 0.000174348
10 *4752:C *4752:D 0
11 *4752:C *966:94 3.80385e-05
12 *689:8 *971:62 1.40306e-05
13 *689:25 *4739:A 5.52238e-05
14 *689:25 *4742:A1_N 0.000104236
15 *689:25 *4743:B 5.52238e-05
16 *689:25 *4752:D 0
17 *689:25 *691:12 5.52302e-05
18 *689:25 *856:38 0
19 *4742:B1 *689:25 0
20 *4747:B1 *4743:A 2.44318e-05
21 *4747:B1 *689:25 2.14757e-05
22 *4752:B *4752:C 0.000137273
23 *681:10 *4752:C 0
*RES
1 *4740:Y *689:8 14.3357 
2 *689:8 *4752:C 19.9696 
3 *689:8 *689:25 9.51786 
4 *689:25 *4747:A1 9.3 
5 *689:25 *4743:A 14.4964 
*END

*D_NET *690 0.000629867
*CONN
*I *4742:B2 I *D sky130_fd_sc_hd__a2bb2o_4
*I *4741:Y O *D sky130_fd_sc_hd__o21ai_1
*CAP
1 *4742:B2 0.000129401
2 *4741:Y 0.000129401
3 *4742:B2 *4741:B1 6.65302e-05
4 *4742:B2 *847:86 0.000180408
5 *4742:B2 *856:38 0.000113877
6 *4742:B1 *4742:B2 1.02504e-05
*RES
1 *4741:Y *4742:B2 31.975 
*END

*D_NET *691 0.00144542
*CONN
*I *4743:B I *D sky130_fd_sc_hd__xnor2_2
*I *4747:A2 I *D sky130_fd_sc_hd__o21a_1
*I *4742:X O *D sky130_fd_sc_hd__a2bb2o_4
*CAP
1 *4743:B 0.000267167
2 *4747:A2 0
3 *4742:X 0.00019422
4 *691:12 0.000461387
5 *691:12 *4748:B 1.40415e-05
6 *691:12 *4752:D 3.79467e-05
7 *4743:A *4743:B 0.000344614
8 *4747:B1 *691:12 1.55885e-05
9 *689:25 *4743:B 5.52238e-05
10 *689:25 *691:12 5.52302e-05
*RES
1 *4742:X *691:12 21.8179 
2 *691:12 *4747:A2 9.3 
3 *691:12 *4743:B 14.3714 
*END

*D_NET *692 0.000372214
*CONN
*I *4744:B I *D sky130_fd_sc_hd__nand2_1
*I *4743:Y O *D sky130_fd_sc_hd__xnor2_2
*CAP
1 *4744:B 0.0001024
2 *4743:Y 0.0001024
3 *4744:B *4745:A1 6.74911e-05
4 *4744:B *4745:C1 3.69697e-05
5 *4744:B *806:37 5.71472e-05
6 *4744:B *833:95 5.80706e-06
7 *181:60 *4744:B 0
*RES
1 *4743:Y *4744:B 29.7786 
*END

*D_NET *693 0.000486908
*CONN
*I *4745:C1 I *D sky130_fd_sc_hd__o211a_1
*I *4744:Y O *D sky130_fd_sc_hd__nand2_1
*CAP
1 *4745:C1 0.00019764
2 *4744:Y 0.00019764
3 *4745:C1 *4219:A 4.88515e-05
4 *4745:C1 *4745:A1 0
5 *4745:C1 *4745:B1 5.80706e-06
6 *4744:B *4745:C1 3.69697e-05
7 *181:60 *4745:C1 0
*RES
1 *4744:Y *4745:C1 30.6 
*END

*D_NET *694 0.00254588
*CONN
*I *4748:A I *D sky130_fd_sc_hd__xnor2_1
*I *4752:D I *D sky130_fd_sc_hd__or4_4
*I *4746:Y O *D sky130_fd_sc_hd__xnor2_1
*CAP
1 *4748:A 3.21518e-05
2 *4752:D 0.000693016
3 *4746:Y 0.000239938
4 *694:8 0.000965106
5 *4752:D *4739:A 0
6 *4752:D *4740:A 0.000184153
7 *4752:D *4742:A1_N 0
8 *4752:D *4748:B 0.000263763
9 *4752:D *4754:A2 7.04444e-05
10 *694:8 *4746:B 5.52302e-05
11 *4731:B *4752:D 4.1331e-06
12 *4752:C *4752:D 0
13 *671:39 *4752:D 0
14 *689:25 *4752:D 0
15 *691:12 *4752:D 3.79467e-05
*RES
1 *4746:Y *694:8 13.4429 
2 *694:8 *4752:D 32.9964 
3 *694:8 *4748:A 9.83571 
*END

*D_NET *695 0.00107108
*CONN
*I *4748:B I *D sky130_fd_sc_hd__xnor2_1
*I *4747:X O *D sky130_fd_sc_hd__o21a_1
*CAP
1 *4748:B 0.00039664
2 *4747:X 0.00039664
3 *4748:B *4742:A1_N 0
4 *4748:B *805:53 0
5 *4748:B *833:74 0
6 *4752:D *4748:B 0.000263763
7 *691:12 *4748:B 1.40415e-05
*RES
1 *4747:X *4748:B 35.35 
*END

*D_NET *696 0.000335761
*CONN
*I *4749:B I *D sky130_fd_sc_hd__nand2_1
*I *4748:Y O *D sky130_fd_sc_hd__xnor2_1
*CAP
1 *4749:B 0.000167881
2 *4748:Y 0.000167881
3 *4749:B *833:87 0
*RES
1 *4748:Y *4749:B 21.5107 
*END

*D_NET *697 0.000204729
*CONN
*I *4750:C1 I *D sky130_fd_sc_hd__o211a_1
*I *4749:Y O *D sky130_fd_sc_hd__nand2_1
*CAP
1 *4750:C1 6.33506e-05
2 *4749:Y 6.33506e-05
3 *4750:C1 *833:87 7.80274e-05
*RES
1 *4749:Y *4750:C1 19.975 
*END

*D_NET *698 0.0023069
*CONN
*I *4757:A I *D sky130_fd_sc_hd__or2_4
*I *4758:A I *D sky130_fd_sc_hd__nand2_1
*I *4781:A I *D sky130_fd_sc_hd__or4_1
*I *4751:Y O *D sky130_fd_sc_hd__xnor2_1
*CAP
1 *4757:A 4.45689e-05
2 *4758:A 0
3 *4781:A 0.000262333
4 *4751:Y 0.000235929
5 *698:25 0.000207751
6 *698:8 0.000661444
7 *4757:A *4757:B 5.71472e-05
8 *4757:A *833:46 4.88637e-05
9 *4781:A *4746:B 0.000118189
10 *4781:A *4761:B 4.87854e-05
11 *4781:A *4781:C 3.34295e-05
12 *4781:A *4782:A1 2.94103e-05
13 *4781:A *4782:B1 0
14 *4781:A *707:6 7.43578e-06
15 *4781:A *707:23 5.33334e-05
16 *698:8 *4782:A1 4.87854e-05
17 *698:8 *725:6 8.07313e-05
18 *698:8 *833:46 9.40071e-05
19 *698:25 *4757:B 4.71256e-05
20 *698:25 *833:46 5.38242e-05
21 *671:39 *4781:A 0.000173804
*RES
1 *4751:Y *698:8 14.3714 
2 *698:8 *4781:A 24.5321 
3 *698:8 *698:25 3.01786 
4 *698:25 *4758:A 9.3 
5 *698:25 *4757:A 10.6571 
*END

*D_NET *699 0.00133251
*CONN
*I *4753:B1 I *D sky130_fd_sc_hd__a311o_1
*I *4752:X O *D sky130_fd_sc_hd__or4_4
*CAP
1 *4753:B1 0.000450266
2 *4752:X 0.000450266
3 *4753:B1 *966:94 0.000318101
4 *4731:B *4753:B1 3.84291e-05
5 *4753:A3 *4753:B1 0
6 *680:12 *4753:B1 7.54519e-05
*RES
1 *4752:X *4753:B1 34.975 
*END

*D_NET *700 0.0050042
*CONN
*I *4782:A2 I *D sky130_fd_sc_hd__a21o_1
*I *4756:A I *D sky130_fd_sc_hd__and2_4
*I *4753:X O *D sky130_fd_sc_hd__a311o_1
*CAP
1 *4782:A2 0.000104052
2 *4756:A 0
3 *4753:X 0.000891713
4 *700:10 0.000995765
5 *4782:A2 *4782:A1 0.000216771
6 *4782:A2 *4782:B1 4.1331e-06
7 *4782:A2 *702:10 1.02504e-05
8 *700:10 *4734:B 1.46624e-05
9 *700:10 *4746:A 6.26559e-05
10 *700:10 *4754:A4 3.15739e-05
11 *700:10 *4754:B1 0.000589019
12 *700:10 *4755:A 0.000347347
13 *700:10 *702:10 0.000125731
14 *700:10 *804:22 0.000378671
15 *700:10 *804:31 0.000543465
16 *700:10 *804:44 0.000438573
17 *700:10 *964:32 5.94737e-05
18 *700:10 *964:45 0.000112006
19 *671:39 *700:10 0
20 *684:8 *700:10 0
21 *685:12 *700:10 7.83366e-05
*RES
1 *4753:X *700:10 39.8893 
2 *700:10 *4756:A 13.8 
3 *700:10 *4782:A2 16.6571 
*END

*D_NET *701 0.00101919
*CONN
*I *4755:A I *D sky130_fd_sc_hd__inv_2
*I *4754:X O *D sky130_fd_sc_hd__o41a_1
*CAP
1 *4755:A 0.000263535
2 *4754:X 0.000263535
3 *4755:A *4233:A 0
4 *4755:A *813:8 0
5 *4755:A *813:62 0
6 *4755:A *970:33 0.000144773
7 *700:10 *4755:A 0.000347347
*RES
1 *4754:X *4755:A 33.3321 
*END

*D_NET *702 0.00106921
*CONN
*I *4782:A1 I *D sky130_fd_sc_hd__a21o_1
*I *4756:B I *D sky130_fd_sc_hd__and2_4
*I *4755:Y O *D sky130_fd_sc_hd__inv_2
*CAP
1 *4782:A1 0.000104698
2 *4756:B 0
3 *4755:Y 0.000107107
4 *702:10 0.000211805
5 *4782:A1 *4782:B1 0
6 *4782:A1 *833:46 9.90367e-05
7 *4781:A *4782:A1 2.94103e-05
8 *4782:A2 *4782:A1 0.000216771
9 *4782:A2 *702:10 1.02504e-05
10 *671:39 *4782:A1 7.30305e-05
11 *671:39 *702:10 4.25809e-05
12 *698:8 *4782:A1 4.87854e-05
13 *700:10 *702:10 0.000125731
*RES
1 *4755:Y *702:10 15.9786 
2 *702:10 *4756:B 13.8 
3 *702:10 *4782:A1 17.9071 
*END

*D_NET *703 0.000794662
*CONN
*I *4757:B I *D sky130_fd_sc_hd__or2_4
*I *4758:B I *D sky130_fd_sc_hd__nand2_1
*I *4756:X O *D sky130_fd_sc_hd__and2_4
*CAP
1 *4757:B 5.18926e-05
2 *4758:B 0
3 *4756:X 0.000123221
4 *703:12 0.000175114
5 *4757:B *833:46 0.00014183
6 *703:12 *4233:A 3.18676e-05
7 *703:12 *4746:B 0.000108848
8 *703:12 *4759:A1 5.7616e-05
9 *4757:A *4757:B 5.71472e-05
10 *698:25 *4757:B 4.71256e-05
*RES
1 *4756:X *703:12 21.3893 
2 *703:12 *4758:B 9.3 
3 *703:12 *4757:B 11.0857 
*END

*D_NET *704 0.00236298
*CONN
*I *4770:B1 I *D sky130_fd_sc_hd__a2bb2o_4
*I *4762:B1_N I *D sky130_fd_sc_hd__a21bo_1
*I *4759:A2 I *D sky130_fd_sc_hd__a21bo_1
*I *4757:X O *D sky130_fd_sc_hd__or2_4
*CAP
1 *4770:B1 0.000119474
2 *4762:B1_N 2.21543e-05
3 *4759:A2 1.98408e-05
4 *4757:X 0.000118818
5 *704:25 0.000355757
6 *704:12 0.000352787
7 *4759:A2 *4760:C1 1.58163e-05
8 *4762:B1_N *4762:A2 9.90367e-05
9 *4762:B1_N *707:23 5.33005e-05
10 *4762:B1_N *809:24 2.28499e-05
11 *4770:B1 *4762:A1 4.46186e-06
12 *4770:B1 *4770:B2 0.000153047
13 *4770:B1 *963:34 0
14 *704:12 *4759:A1 0
15 *704:12 *4760:B1 0.000148189
16 *704:12 *4760:C1 9.91086e-05
17 *704:12 *809:20 0
18 *704:12 *833:59 9.60875e-05
19 *704:25 *4760:B1 5.33433e-05
20 *704:25 *4760:C1 8.43535e-06
21 *704:25 *4762:A1 2.16719e-05
22 *704:25 *707:23 0.000223592
23 *704:25 *809:20 0.000179053
24 *704:25 *963:23 0
25 *183:69 *4759:A2 5.52238e-05
26 *183:69 *704:25 0.000140933
*RES
1 *4757:X *704:12 21.4964 
2 *704:12 *4759:A2 9.83571 
3 *704:12 *704:25 10.8393 
4 *704:25 *4762:B1_N 14.7464 
5 *704:25 *4770:B1 16.3536 
*END

*D_NET *705 0.00102456
*CONN
*I *4759:A1 I *D sky130_fd_sc_hd__a21bo_1
*I *4758:Y O *D sky130_fd_sc_hd__nand2_1
*CAP
1 *4759:A1 0.000272137
2 *4758:Y 0.000272137
3 *4759:A1 *4746:B 6.07532e-05
4 *4759:A1 *4759:B1_N 0
5 *4759:A1 *4760:C1 0
6 *183:69 *4759:A1 0.00036192
7 *703:12 *4759:A1 5.7616e-05
8 *704:12 *4759:A1 0
*RES
1 *4758:Y *4759:A1 33.8679 
*END

*D_NET *706 0.000476653
*CONN
*I *4760:C1 I *D sky130_fd_sc_hd__o211a_1
*I *4759:X O *D sky130_fd_sc_hd__a21bo_1
*CAP
1 *4760:C1 0.000163857
2 *4759:X 0.000163857
3 *4760:C1 *4759:B1_N 0
4 *4760:C1 *4760:B1 2.55788e-05
5 *4759:A1 *4760:C1 0
6 *4759:A2 *4760:C1 1.58163e-05
7 *704:12 *4760:C1 9.91086e-05
8 *704:25 *4760:C1 8.43535e-06
*RES
1 *4759:X *4760:C1 30.1893 
*END

*D_NET *707 0.00313163
*CONN
*I *4764:A1 I *D sky130_fd_sc_hd__o21ai_1
*I *4763:A2 I *D sky130_fd_sc_hd__a21boi_1
*I *4781:B I *D sky130_fd_sc_hd__or4_1
*I *4761:Y O *D sky130_fd_sc_hd__xnor2_1
*CAP
1 *4764:A1 6.61554e-06
2 *4763:A2 0
3 *4781:B 2.23854e-05
4 *4761:Y 0.000122958
5 *707:23 0.000824041
6 *707:6 0.000962768
7 *4764:A1 *4764:A2 2.44318e-05
8 *4764:A1 *4764:B1 5.71472e-05
9 *707:6 *4761:B 9.27866e-05
10 *707:6 *4782:B1 9.90431e-05
11 *707:23 *4761:B 2.15245e-05
12 *707:23 *4762:A2 6.71854e-05
13 *707:23 *4764:A2 3.18676e-05
14 *707:23 *4764:B1 0.000144773
15 *707:23 *708:6 0.000178459
16 *707:23 *809:24 0.000137983
17 *707:23 *963:23 0
18 *4762:B1_N *707:23 5.33005e-05
19 *4781:A *707:6 7.43578e-06
20 *4781:A *707:23 5.33334e-05
21 *704:25 *707:23 0.000223592
*RES
1 *4761:Y *707:6 12.3 
2 *707:6 *4781:B 9.72857 
3 *707:6 *707:23 25.6607 
4 *707:23 *4763:A2 9.3 
5 *707:23 *4764:A1 9.83571 
*END

*D_NET *708 0.000904972
*CONN
*I *4764:A2 I *D sky130_fd_sc_hd__o21ai_1
*I *4763:A1 I *D sky130_fd_sc_hd__a21boi_1
*I *4762:X O *D sky130_fd_sc_hd__a21bo_1
*CAP
1 *4764:A2 0.000123419
2 *4763:A1 0
3 *4762:X 0.00020297
4 *708:6 0.000326389
5 *4764:A2 *4764:B1 1.74352e-05
6 *4764:A1 *4764:A2 2.44318e-05
7 *707:23 *4764:A2 3.18676e-05
8 *707:23 *708:6 0.000178459
*RES
1 *4762:X *708:6 12.3 
2 *708:6 *4763:A1 9.3 
3 *708:6 *4764:A2 11.3893 
*END

*D_NET *709 0.000485142
*CONN
*I *4764:B1 I *D sky130_fd_sc_hd__o21ai_1
*I *4763:Y O *D sky130_fd_sc_hd__a21boi_1
*CAP
1 *4764:B1 0.000132894
2 *4763:Y 0.000132894
3 *4764:A1 *4764:B1 5.71472e-05
4 *4764:A2 *4764:B1 1.74352e-05
5 *707:23 *4764:B1 0.000144773
*RES
1 *4763:Y *4764:B1 21.6 
*END

*D_NET *710 0.000438636
*CONN
*I *4765:C1 I *D sky130_fd_sc_hd__o211a_1
*I *4764:Y O *D sky130_fd_sc_hd__o21ai_1
*CAP
1 *4765:C1 0.000133722
2 *4764:Y 0.000133722
3 *4765:C1 *4763:B1_N 0
4 *4765:C1 *4765:A1 9.90431e-05
5 *4765:C1 *780:101 1.88048e-05
6 *4765:C1 *810:12 5.33433e-05
7 *4765:C1 *847:39 0
*RES
1 *4764:Y *4765:C1 30.4929 
*END

*D_NET *711 0.000439407
*CONN
*I *4768:A I *D sky130_fd_sc_hd__nand2_1
*I *4766:X O *D sky130_fd_sc_hd__or2_1
*CAP
1 *4768:A 4.32919e-05
2 *4766:X 4.32919e-05
3 *4768:A *4767:A 5.52302e-05
4 *4768:A *4767:B 1.04232e-05
5 *4768:A *4768:B 0.000151208
6 *4768:A *4774:B 4.88637e-05
7 *4768:A *4775:B1 5.52302e-05
8 *4768:A *963:49 3.18676e-05
*RES
1 *4766:X *4768:A 20.7964 
*END

*D_NET *712 0.00142682
*CONN
*I *4768:B I *D sky130_fd_sc_hd__nand2_1
*I *4775:B1 I *D sky130_fd_sc_hd__o21a_1
*I *4767:Y O *D sky130_fd_sc_hd__nand2_1
*CAP
1 *4768:B 0.000188378
2 *4775:B1 0.000241488
3 *4767:Y 0
4 *712:4 0.000429866
5 *4768:B *963:49 1.39726e-05
6 *4775:B1 *4767:A 3.9846e-05
7 *4775:B1 *4776:A 0
8 *4775:B1 *713:27 0.000125724
9 *4775:B1 *811:12 3.92757e-05
10 *4775:B1 *811:29 0.00014183
11 *4768:A *4768:B 0.000151208
12 *4768:A *4775:B1 5.52302e-05
*RES
1 *4767:Y *712:4 9.3 
2 *712:4 *4775:B1 22.5321 
3 *712:4 *4768:B 12.2107 
*END

*D_NET *713 0.00343704
*CONN
*I *4771:A I *D sky130_fd_sc_hd__xnor2_1
*I *4775:A1 I *D sky130_fd_sc_hd__o21a_1
*I *4781:C I *D sky130_fd_sc_hd__or4_1
*I *4768:Y O *D sky130_fd_sc_hd__nand2_1
*CAP
1 *4771:A 3.73463e-05
2 *4775:A1 0
3 *4781:C 0.000540255
4 *4768:Y 0.000268575
5 *713:27 0.000218107
6 *713:6 0.000989591
7 *4771:A *4775:A2 9.90367e-05
8 *4771:A *811:12 6.87574e-05
9 *4781:C *4746:B 4.98055e-06
10 *4781:C *4774:B 3.97677e-05
11 *4781:C *4780:A2 0.000293408
12 *4781:C *4781:D 0.000296019
13 *713:6 *4774:B 0.000170964
14 *713:6 *963:49 4.58976e-05
15 *713:27 *4766:B 7.90803e-05
16 *713:27 *4775:A2 5.71472e-05
17 *713:27 *4780:A2 7.79781e-06
18 *713:27 *715:10 0
19 *713:27 *811:12 6.11504e-05
20 *4775:B1 *713:27 0.000125724
21 *4781:A *4781:C 3.34295e-05
*RES
1 *4768:Y *713:6 13.1214 
2 *713:6 *4781:C 29.3 
3 *713:6 *713:27 13.1071 
4 *713:27 *4775:A1 9.3 
5 *713:27 *4771:A 10.6571 
*END

*D_NET *714 0.00103681
*CONN
*I *4770:B2 I *D sky130_fd_sc_hd__a2bb2o_4
*I *4769:Y O *D sky130_fd_sc_hd__o21ai_1
*CAP
1 *4770:B2 0.000284301
2 *4769:Y 0.000284301
3 *4770:B2 *4762:A2 0.000315165
4 *4770:B2 *4763:B1_N 0
5 *4770:B2 *834:18 0
6 *4770:B1 *4770:B2 0.000153047
*RES
1 *4769:Y *4770:B2 32.5464 
*END

*D_NET *715 0.00115493
*CONN
*I *4771:B I *D sky130_fd_sc_hd__xnor2_1
*I *4775:A2 I *D sky130_fd_sc_hd__o21a_1
*I *4770:X O *D sky130_fd_sc_hd__a2bb2o_4
*CAP
1 *4771:B 0
2 *4775:A2 5.66734e-05
3 *4770:X 0.000440633
4 *715:10 0.000497307
5 *715:10 *4766:B 0
6 *715:10 *4769:A1 4.1331e-06
7 *715:10 *963:49 0
8 *4771:A *4775:A2 9.90367e-05
9 *713:27 *4775:A2 5.71472e-05
10 *713:27 *715:10 0
*RES
1 *4770:X *715:10 25.4071 
2 *715:10 *4775:A2 10.6571 
3 *715:10 *4771:B 9.3 
*END

*D_NET *716 0.000527893
*CONN
*I *4772:B I *D sky130_fd_sc_hd__nand2_1
*I *4771:Y O *D sky130_fd_sc_hd__xnor2_1
*CAP
1 *4772:B 0.000162501
2 *4771:Y 0.000162501
3 *4772:B *811:12 0.000202891
*RES
1 *4771:Y *4772:B 22.7429 
*END

*D_NET *717 0.000224985
*CONN
*I *4773:C1 I *D sky130_fd_sc_hd__o211a_1
*I *4772:Y O *D sky130_fd_sc_hd__nand2_1
*CAP
1 *4773:C1 5.34002e-05
2 *4772:Y 5.34002e-05
3 *4773:C1 *4773:A2 7.09948e-06
4 *4773:C1 *4773:B1 1.01249e-05
5 *4773:C1 *811:12 0.00010096
*RES
1 *4772:Y *4773:C1 19.975 
*END

*D_NET *718 0.00384827
*CONN
*I *4781:D I *D sky130_fd_sc_hd__or4_1
*I *4776:A I *D sky130_fd_sc_hd__xnor2_1
*I *4774:Y O *D sky130_fd_sc_hd__xnor2_1
*CAP
1 *4781:D 0.000292808
2 *4776:A 0.000293417
3 *4774:Y 0.000240339
4 *718:6 0.000826565
5 *4776:A *4776:B 0.000127446
6 *4776:A *4780:A2 0
7 *4776:A *811:12 0
8 *4776:A *812:19 0
9 *4781:D *4746:B 3.34295e-05
10 *4781:D *4766:B 0.000356417
11 *4781:D *4774:B 0.000225609
12 *4781:D *4780:A2 0.000315873
13 *4781:D *962:88 0.000142797
14 *4781:D *962:90 0.000166269
15 *718:6 *4774:B 0.00053128
16 *4775:B1 *4776:A 0
17 *4781:C *4781:D 0.000296019
*RES
1 *4774:Y *718:6 14.3536 
2 *718:6 *4776:A 23.8893 
3 *718:6 *4781:D 29.4071 
*END

*D_NET *719 0.000511148
*CONN
*I *4776:B I *D sky130_fd_sc_hd__xnor2_1
*I *4775:X O *D sky130_fd_sc_hd__o21a_1
*CAP
1 *4776:B 0.000191384
2 *4775:X 0.000191384
3 *4776:B *811:12 9.33978e-07
4 *4776:A *4776:B 0.000127446
*RES
1 *4775:X *4776:B 30.6 
*END

*D_NET *720 0.00118788
*CONN
*I *4778:A1 I *D sky130_fd_sc_hd__a211oi_1
*I *4776:Y O *D sky130_fd_sc_hd__xnor2_1
*CAP
1 *4778:A1 0.000557325
2 *4776:Y 0.000557325
3 *4778:A1 *4231:A 0
4 *4778:A1 *812:19 0
5 *4778:A1 *1002:12 7.32272e-05
*RES
1 *4776:Y *4778:A1 36.5107 
*END

*D_NET *721 0.000822363
*CONN
*I *4778:B1 I *D sky130_fd_sc_hd__a211oi_1
*I *4777:Y O *D sky130_fd_sc_hd__nor2_1
*CAP
1 *4778:B1 0.000200498
2 *4777:Y 0.000200498
3 *4778:B1 *4778:A2 0
4 *4778:B1 *4790:A 0.00010326
5 *4778:B1 *1002:12 4.38128e-05
6 *4778:B1 *1002:22 0.000274294
7 *4909:D *4778:B1 0
*RES
1 *4777:Y *4778:B1 31.9393 
*END

*D_NET *722 0.00345256
*CONN
*I *4783:B1 I *D sky130_fd_sc_hd__a21o_1
*I *4805:A I *D sky130_fd_sc_hd__or4_1
*I *4784:A I *D sky130_fd_sc_hd__nand3_1
*I *4779:Y O *D sky130_fd_sc_hd__xnor2_1
*CAP
1 *4783:B1 9.61845e-05
2 *4805:A 0
3 *4784:A 0.000236851
4 *4779:Y 0.000194735
5 *722:25 0.000168806
6 *722:10 0.000504208
7 *4783:B1 *4806:B1 0.000137437
8 *4783:B1 *837:87 2.58821e-05
9 *4783:B1 *1002:28 6.05161e-06
10 *4784:A *4785:A1 0.000249445
11 *4784:A *4785:A2 7.50421e-05
12 *4784:A *4936:A 5.33005e-05
13 *4784:A *833:6 0.00014183
14 *4784:A *833:13 0.000129515
15 *4784:A *833:46 0.000216121
16 *4784:A *971:37 0.000116209
17 *722:10 *4779:B 4.01768e-05
18 *722:10 *4936:A 1.76039e-05
19 *722:10 *813:25 0.000122449
20 *722:25 *4936:A 7.60306e-05
21 *4953:A *722:10 0.000343203
22 *671:47 *4783:B1 0.000350136
23 *671:51 *722:10 3.34366e-05
24 *671:51 *722:25 0.000117903
*RES
1 *4779:Y *722:10 19.425 
2 *722:10 *4784:A 20.925 
3 *722:10 *722:25 6.44643 
4 *722:25 *4805:A 9.3 
5 *722:25 *4783:B1 12.7107 
*END

*D_NET *723 0.00261739
*CONN
*I *4806:A1 I *D sky130_fd_sc_hd__a21oi_2
*I *4783:A1 I *D sky130_fd_sc_hd__a21o_1
*I *4784:B I *D sky130_fd_sc_hd__nand3_1
*I *4780:Y O *D sky130_fd_sc_hd__o41ai_2
*CAP
1 *4806:A1 0
2 *4783:A1 5.58217e-05
3 *4784:B 5.7408e-05
4 *4780:Y 0.000413049
5 *723:23 7.44611e-05
6 *723:10 0.000489097
7 *4783:A1 *4783:A2 0.000220189
8 *4783:A1 *4806:B1 1.74352e-05
9 *4784:B *725:14 0.000148189
10 *4784:B *780:12 0.000144038
11 *723:10 *4751:A 0
12 *723:10 *4780:A4 0
13 *723:10 *725:14 9.25014e-06
14 *723:10 *780:10 0.000126439
15 *723:10 *780:12 0.000209491
16 *723:10 *780:47 0.000202842
17 *723:10 *962:75 7.77751e-05
18 *723:10 *962:86 2.44318e-05
19 *723:23 *4783:A2 5.33005e-05
20 *671:47 *4783:A1 0.000274288
21 *671:47 *723:23 1.98839e-05
*RES
1 *4780:Y *723:10 22.3714 
2 *723:10 *4784:B 15.7464 
3 *723:10 *723:23 5.03571 
4 *723:23 *4783:A1 12.3179 
5 *723:23 *4806:A1 9.3 
*END

*D_NET *724 0.000754879
*CONN
*I *4782:B1 I *D sky130_fd_sc_hd__a21o_1
*I *4781:X O *D sky130_fd_sc_hd__or4_1
*CAP
1 *4782:B1 0.000325851
2 *4781:X 0.000325851
3 *4782:B1 *4751:B 0
4 *4781:A *4782:B1 0
5 *4782:A1 *4782:B1 0
6 *4782:A2 *4782:B1 4.1331e-06
7 *183:69 *4782:B1 0
8 *707:6 *4782:B1 9.90431e-05
*RES
1 *4781:X *4782:B1 32.6179 
*END

*D_NET *725 0.0022006
*CONN
*I *4784:C I *D sky130_fd_sc_hd__nand3_1
*I *4783:A2 I *D sky130_fd_sc_hd__a21o_1
*I *4806:A2 I *D sky130_fd_sc_hd__a21oi_2
*I *4782:X O *D sky130_fd_sc_hd__a21o_1
*CAP
1 *4784:C 0
2 *4783:A2 9.9847e-05
3 *4806:A2 0
4 *4782:X 0.000131621
5 *725:14 0.000203759
6 *725:6 0.000235533
7 *4783:A2 *4806:B1 3.58638e-05
8 *4783:A2 *837:87 0.000118645
9 *725:6 *833:46 0.000620822
10 *725:6 *971:37 0.000143625
11 *725:14 *4751:A 0
12 *725:14 *833:46 5.52302e-05
13 *725:14 *971:37 3.18676e-05
14 *4783:A1 *4783:A2 0.000220189
15 *4784:B *725:14 0.000148189
16 *671:47 *4783:A2 1.21258e-05
17 *698:8 *725:6 8.07313e-05
18 *723:10 *725:14 9.25014e-06
19 *723:23 *4783:A2 5.33005e-05
*RES
1 *4782:X *725:6 15.175 
2 *725:6 *725:14 11.4821 
3 *725:14 *4806:A2 9.3 
4 *725:14 *4783:A2 13.2821 
5 *725:6 *4784:C 9.3 
*END

*D_NET *726 0.00182338
*CONN
*I *4788:B1_N I *D sky130_fd_sc_hd__a21boi_1
*I *4796:B2 I *D sky130_fd_sc_hd__a2bb2o_4
*I *4785:A1 I *D sky130_fd_sc_hd__a21bo_1
*I *4783:X O *D sky130_fd_sc_hd__a21o_1
*CAP
1 *4788:B1_N 1.44544e-05
2 *4796:B2 1.1624e-05
3 *4785:A1 0.000127554
4 *4783:X 0
5 *726:21 0.000310569
6 *726:6 0.000412044
7 *4785:A1 *780:12 0
8 *4785:A1 *962:21 6.65398e-05
9 *4785:A1 *971:37 0.000137273
10 *4788:B1_N *4926:A 8.66063e-05
11 *4788:B1_N *962:51 9.90431e-05
12 *4796:B2 *4926:A 5.52238e-05
13 *4796:B2 *962:51 5.52238e-05
14 *726:21 *4796:B1 6.09572e-05
15 *726:21 *745:24 0
16 *726:21 *780:12 0
17 *726:21 *813:38 2.09495e-05
18 *726:21 *835:77 0
19 *726:21 *962:21 0.000115873
20 *4784:A *4785:A1 0.000249445
*RES
1 *4783:X *726:6 13.8 
2 *726:6 *4785:A1 17.8268 
3 *726:6 *726:21 10.0893 
4 *726:21 *4796:B2 9.83571 
5 *726:21 *4788:B1_N 10.2464 
*END

*D_NET *727 0.000351665
*CONN
*I *4785:A2 I *D sky130_fd_sc_hd__a21bo_1
*I *4784:Y O *D sky130_fd_sc_hd__nand3_1
*CAP
1 *4785:A2 0.000107674
2 *4784:Y 0.000107674
3 *4785:A2 *971:37 6.12754e-05
4 *4784:A *4785:A2 7.50421e-05
*RES
1 *4784:Y *4785:A2 20.8143 
*END

*D_NET *728 0.000627916
*CONN
*I *4786:C1 I *D sky130_fd_sc_hd__o211a_1
*I *4785:X O *D sky130_fd_sc_hd__a21bo_1
*CAP
1 *4786:C1 0.000150182
2 *4785:X 0.000150182
3 *4786:C1 *4786:B1 5.80706e-06
4 *4786:C1 *780:12 0.000321745
5 *4786:C1 *833:17 0
*RES
1 *4785:X *4786:C1 31.6714 
*END

*D_NET *729 0.00251639
*CONN
*I *4789:A I *D sky130_fd_sc_hd__xnor2_1
*I *4805:B I *D sky130_fd_sc_hd__or4_1
*I *4787:Y O *D sky130_fd_sc_hd__xnor2_1
*CAP
1 *4789:A 0.000150738
2 *4805:B 0.000266661
3 *4787:Y 0
4 *729:6 0.000417399
5 *4789:A *4787:B 0.000114724
6 *4789:A *4791:A1 5.33433e-05
7 *4789:A *837:85 4.73656e-05
8 *4789:A *1002:28 6.8646e-06
9 *4805:B *4787:B 0.000184392
10 *4805:B *4925:A 0.000239243
11 *4805:B *772:94 0.000100831
12 *4805:B *837:85 0.000875439
13 *4805:B *1002:28 5.93879e-05
*RES
1 *4787:Y *729:6 13.8 
2 *729:6 *4805:B 24.8536 
3 *729:6 *4789:A 17.1214 
*END

*D_NET *730 0.00133451
*CONN
*I *4789:B I *D sky130_fd_sc_hd__xnor2_1
*I *4788:Y O *D sky130_fd_sc_hd__a21boi_1
*CAP
1 *4789:B 0.000529148
2 *4788:Y 0.000529148
3 *4789:B *745:24 0.000276211
4 *4789:B *835:77 0
5 *4789:B *1002:28 0
*RES
1 *4788:Y *4789:B 36.6893 
*END

*D_NET *731 0.00088566
*CONN
*I *4791:A1 I *D sky130_fd_sc_hd__a211oi_1
*I *4789:Y O *D sky130_fd_sc_hd__xnor2_1
*CAP
1 *4791:A1 0.000174907
2 *4789:Y 0.000174907
3 *4791:A1 *4791:B1 1.02504e-05
4 *4791:A1 *837:85 0.000346639
5 *4791:A1 *1002:22 5.90443e-06
6 *4791:A1 *1002:28 0.000119708
7 *4789:A *4791:A1 5.33433e-05
*RES
1 *4789:Y *4791:A1 32.9214 
*END

*D_NET *732 0.00062705
*CONN
*I *4791:B1 I *D sky130_fd_sc_hd__a211oi_1
*I *4790:Y O *D sky130_fd_sc_hd__nor2_1
*CAP
1 *4791:B1 0.000136356
2 *4790:Y 0.000136356
3 *4791:B1 *837:85 0.000170289
4 *4791:B1 *1002:22 0.000173799
5 *4791:A1 *4791:B1 1.02504e-05
*RES
1 *4790:Y *4791:B1 32.2071 
*END

*D_NET *733 0.00191699
*CONN
*I *4794:A I *D sky130_fd_sc_hd__nand2_1
*I *4792:X O *D sky130_fd_sc_hd__or2_1
*CAP
1 *4794:A 0.000522792
2 *4792:X 0.000522792
3 *4794:A *4807:A3 0.000653871
4 *4794:A *968:97 0.000145753
5 *200:16 *4794:A 7.17836e-05
*RES
1 *4792:X *4794:A 35.8321 
*END

*D_NET *734 0.0016988
*CONN
*I *4794:B I *D sky130_fd_sc_hd__nand2_1
*I *4801:B1 I *D sky130_fd_sc_hd__o21ai_2
*I *4793:Y O *D sky130_fd_sc_hd__nand2_1
*CAP
1 *4794:B 0.000119636
2 *4801:B1 0.000132148
3 *4793:Y 0
4 *734:4 0.000251784
5 *4794:B *4807:A4 0.000166485
6 *4794:B *737:12 0.000137983
7 *4794:B *745:24 0.000107008
8 *4794:B *961:23 0.000186662
9 *4794:B *961:27 1.5424e-05
10 *4801:B1 *4807:A2 0.000135028
11 *4801:B1 *4807:A4 1.98839e-05
12 *4801:B1 *832:89 0.000169454
13 *4801:B1 *845:88 0.000167161
14 *4801:B1 *961:27 9.0145e-05
*RES
1 *4793:Y *734:4 9.3 
2 *734:4 *4801:B1 22.3179 
3 *734:4 *4794:B 13.9607 
*END

*D_NET *735 0.00341424
*CONN
*I *4797:A I *D sky130_fd_sc_hd__xnor2_2
*I *4801:A1 I *D sky130_fd_sc_hd__o21ai_2
*I *4805:C I *D sky130_fd_sc_hd__or4_1
*I *4794:Y O *D sky130_fd_sc_hd__nand2_1
*CAP
1 *4797:A 0
2 *4801:A1 0.000105066
3 *4805:C 0.000140612
4 *4794:Y 6.57803e-05
5 *735:23 0.000189319
6 *735:8 0.000290645
7 *4801:A1 *4798:B 5.52302e-05
8 *4801:A1 *4801:A2 0.000522439
9 *4801:A1 *835:54 0.000422709
10 *4805:C *4805:D 2.28499e-05
11 *4805:C *968:97 0.000195194
12 *4805:C *1002:28 0.000399841
13 *735:8 *968:97 0.000120708
14 *735:23 *4801:A2 4.18895e-05
15 *735:23 *835:54 0.000262498
16 *5111:A *4805:C 0.000358977
17 *183:53 *735:23 6.77968e-05
18 *200:16 *4805:C 0.000101586
19 *200:16 *735:8 5.10992e-05
*RES
1 *4794:Y *735:8 15.4429 
2 *735:8 *4805:C 20.175 
3 *735:8 *735:23 7.08929 
4 *735:23 *4801:A1 14.3536 
5 *735:23 *4797:A 9.3 
*END

*D_NET *736 0.000394281
*CONN
*I *4796:B1 I *D sky130_fd_sc_hd__a2bb2o_4
*I *4795:Y O *D sky130_fd_sc_hd__o21ai_1
*CAP
1 *4796:B1 0.000113884
2 *4795:Y 0.000113884
3 *4796:B1 *813:38 7.6644e-05
4 *4796:B1 *835:77 2.89114e-05
5 *726:21 *4796:B1 6.09572e-05
*RES
1 *4795:Y *4796:B1 29.7786 
*END

*D_NET *737 0.00304289
*CONN
*I *4797:B I *D sky130_fd_sc_hd__xnor2_2
*I *4801:A2 I *D sky130_fd_sc_hd__o21ai_2
*I *4796:X O *D sky130_fd_sc_hd__a2bb2o_4
*CAP
1 *4797:B 0
2 *4801:A2 0.000156198
3 *4796:X 0.000270678
4 *737:12 0.000426876
5 *4801:A2 *835:54 4.43256e-05
6 *737:12 *4792:B 8.33559e-05
7 *737:12 *4807:A4 0.000304394
8 *737:12 *745:24 0.000271915
9 *737:12 *772:94 7.53309e-05
10 *737:12 *961:23 9.29326e-05
11 *737:12 *966:104 0
12 *4794:B *737:12 0.000137983
13 *4801:A1 *4801:A2 0.000522439
14 *183:53 *4801:A2 0.000614575
15 *735:23 *4801:A2 4.18895e-05
*RES
1 *4796:X *737:12 25.6929 
2 *737:12 *4801:A2 16.0143 
3 *737:12 *4797:B 9.3 
*END

*D_NET *738 0.00182012
*CONN
*I *4798:B I *D sky130_fd_sc_hd__nand2_1
*I *4797:Y O *D sky130_fd_sc_hd__xnor2_2
*CAP
1 *4798:B 0.000270986
2 *4797:Y 0.000270986
3 *4798:B *4793:A 5.58941e-05
4 *4798:B *815:14 0.000386176
5 *4798:B *815:16 0.000161403
6 *4798:B *832:89 0.000496019
7 *4798:B *832:98 5.80706e-06
8 *4798:B *835:54 5.33005e-05
9 *4798:B *966:104 6.43134e-05
10 *4801:A1 *4798:B 5.52302e-05
*RES
1 *4797:Y *4798:B 37.6714 
*END

*D_NET *739 0.000634533
*CONN
*I *4799:C1 I *D sky130_fd_sc_hd__o211a_1
*I *4798:Y O *D sky130_fd_sc_hd__nand2_1
*CAP
1 *4799:C1 0.000237683
2 *4798:Y 0.000237683
3 *4799:C1 *845:103 3.34366e-05
4 *4799:C1 *966:104 0.000125731
5 *200:16 *4799:C1 0
*RES
1 *4798:Y *4799:C1 31.0107 
*END

*D_NET *740 0.00232831
*CONN
*I *4805:D I *D sky130_fd_sc_hd__or4_1
*I *4802:A I *D sky130_fd_sc_hd__xor2_1
*I *4800:Y O *D sky130_fd_sc_hd__xnor2_1
*CAP
1 *4805:D 0.000518038
2 *4802:A 0
3 *4800:Y 0.000134449
4 *740:10 0.000652486
5 *4805:D *961:23 0
6 *4805:D *966:104 0.000142082
7 *4805:D *970:27 0.000225609
8 *4805:D *1002:28 8.6874e-05
9 *740:10 *4800:B 5.52302e-05
10 *740:10 *961:23 0
11 *740:10 *966:104 0.000175526
12 *4805:C *4805:D 2.28499e-05
13 *5111:A *4805:D 0.000315165
*RES
1 *4800:Y *740:10 16.5857 
2 *740:10 *4802:A 13.8 
3 *740:10 *4805:D 23.675 
*END

*D_NET *741 0.00125118
*CONN
*I *4802:B I *D sky130_fd_sc_hd__xor2_1
*I *4801:Y O *D sky130_fd_sc_hd__o21ai_2
*CAP
1 *4802:B 0.00019282
2 *4801:Y 0.00019282
3 *4802:B *4804:A1 9.80173e-05
4 *4802:B *816:21 3.51442e-05
5 *4802:B *816:30 0.000314465
6 *4802:B *845:88 0.000337651
7 *4802:B *971:37 8.02593e-05
*RES
1 *4801:Y *4802:B 34.1536 
*END

*D_NET *742 0.00136312
*CONN
*I *4804:A1 I *D sky130_fd_sc_hd__a211oi_1
*I *4802:X O *D sky130_fd_sc_hd__xor2_1
*CAP
1 *4804:A1 0.000317602
2 *4802:X 0.000317602
3 *4804:A1 *4803:B 0.00010096
4 *4804:A1 *4804:A2 5.52238e-05
5 *4804:A1 *4804:B1 4.72917e-05
6 *4804:A1 *971:37 0.00042642
7 *4802:B *4804:A1 9.80173e-05
*RES
1 *4802:X *4804:A1 26.4571 
*END

*D_NET *743 0.000422391
*CONN
*I *4804:B1 I *D sky130_fd_sc_hd__a211oi_1
*I *4803:Y O *D sky130_fd_sc_hd__nor2_1
*CAP
1 *4804:B1 4.91714e-05
2 *4803:Y 4.91714e-05
3 *4804:B1 *4804:A2 5.52238e-05
4 *4804:B1 *832:61 0.000186662
5 *4804:B1 *971:37 3.48705e-05
6 *4804:A1 *4804:B1 4.72917e-05
*RES
1 *4803:Y *4804:B1 20.7786 
*END

*D_NET *744 0.000896941
*CONN
*I *4806:B1 I *D sky130_fd_sc_hd__a21oi_2
*I *4805:X O *D sky130_fd_sc_hd__or4_1
*CAP
1 *4806:B1 0.000119422
2 *4805:X 0.000119422
3 *4806:B1 *837:87 0.000440705
4 *4783:A1 *4806:B1 1.74352e-05
5 *4783:A2 *4806:B1 3.58638e-05
6 *4783:B1 *4806:B1 0.000137437
7 *671:47 *4806:B1 2.66563e-05
*RES
1 *4805:X *4806:B1 23.2607 
*END

*D_NET *745 0.006505
*CONN
*I *4825:A2 I *D sky130_fd_sc_hd__o211ai_2
*I *4808:A I *D sky130_fd_sc_hd__nor2_1
*I *4806:Y O *D sky130_fd_sc_hd__a21oi_2
*CAP
1 *4825:A2 0.000208503
2 *4808:A 0
3 *4806:Y 0.00157249
4 *745:24 0.001781
5 *4825:A2 *4808:B 5.7661e-06
6 *4825:A2 *4825:A1 8.07313e-05
7 *4825:A2 *746:6 4.88637e-05
8 *745:24 *4796:A1_N 0.000184206
9 *745:24 *4807:A4 1.78708e-05
10 *745:24 *4807:B1 4.69652e-05
11 *745:24 *4926:A 1.39841e-05
12 *745:24 *746:6 0.000320024
13 *745:24 *780:12 4.66096e-05
14 *745:24 *835:77 0.000218734
15 *745:24 *961:23 9.47613e-05
16 *745:24 *961:27 0.000428915
17 *745:24 *962:34 0.000198698
18 *745:24 *962:51 0.000536813
19 *745:24 *962:75 4.49293e-05
20 *4789:B *745:24 0.000276211
21 *4794:B *745:24 0.000107008
22 *726:21 *745:24 0
23 *737:12 *745:24 0.000271915
*RES
1 *4806:Y *745:24 48.9786 
2 *745:24 *4808:A 9.3 
3 *745:24 *4825:A2 13.5679 
*END

*D_NET *746 0.00095408
*CONN
*I *4808:B I *D sky130_fd_sc_hd__nor2_1
*I *4825:A1 I *D sky130_fd_sc_hd__o211ai_2
*I *4807:X O *D sky130_fd_sc_hd__o41a_1
*CAP
1 *4808:B 2.03441e-05
2 *4825:A1 6.32853e-05
3 *4807:X 0.000165718
4 *746:6 0.000249347
5 *4825:A2 *4808:B 5.7661e-06
6 *4825:A2 *4825:A1 8.07313e-05
7 *4825:A2 *746:6 4.88637e-05
8 *745:24 *746:6 0.000320024
*RES
1 *4807:X *746:6 13.1214 
2 *746:6 *4825:A1 10.6571 
3 *746:6 *4808:B 9.72857 
*END

*D_NET *747 0.00163172
*CONN
*I *4813:A I *D sky130_fd_sc_hd__xnor2_1
*I *4817:A1 I *D sky130_fd_sc_hd__o21ba_1
*I *4808:Y O *D sky130_fd_sc_hd__nor2_1
*CAP
1 *4813:A 0.000420486
2 *4817:A1 0.000135049
3 *4808:Y 0.000233658
4 *747:8 0.000789193
5 *4813:A *4814:B 5.33334e-05
6 *4813:A *838:124 0
7 *747:8 *838:124 0
*RES
1 *4808:Y *747:8 17.8714 
2 *747:8 *4817:A1 15.9786 
3 *747:8 *4813:A 21.3714 
*END

*D_NET *748 0.0006691
*CONN
*I *4817:B1_N I *D sky130_fd_sc_hd__o21ba_1
*I *4811:A I *D sky130_fd_sc_hd__or2_1
*I *4809:X O *D sky130_fd_sc_hd__and2_1
*CAP
1 *4817:B1_N 0.000128035
2 *4811:A 0
3 *4809:X 8.45577e-05
4 *748:6 0.000212592
5 *4817:B1_N *4812:A 4.1331e-06
6 *4817:B1_N *4813:B 3.79104e-05
7 *4817:B1_N *750:10 5.38886e-05
8 *4817:B1_N *849:12 9.27592e-05
9 *748:6 *4811:B 5.52238e-05
*RES
1 *4809:X *748:6 10.6571 
2 *748:6 *4811:A 9.3 
3 *748:6 *4817:B1_N 21.9964 
*END

*D_NET *749 0.000612442
*CONN
*I *4811:B I *D sky130_fd_sc_hd__or2_1
*I *4810:Y O *D sky130_fd_sc_hd__nor2_1
*CAP
1 *4811:B 0.000188816
2 *4810:Y 0.000188816
3 *4811:B *4810:B 9.60875e-05
4 *4811:B *817:14 2.44318e-05
5 *4811:B *961:52 5.33005e-05
6 *4811:B *961:65 5.7661e-06
7 *748:6 *4811:B 5.52238e-05
*RES
1 *4810:Y *4811:B 22.1536 
*END

*D_NET *750 0.00158961
*CONN
*I *4813:B I *D sky130_fd_sc_hd__xnor2_1
*I *4817:A2 I *D sky130_fd_sc_hd__o21ba_1
*I *4812:A I *D sky130_fd_sc_hd__inv_2
*I *4811:X O *D sky130_fd_sc_hd__or2_1
*CAP
1 *4813:B 0.000103619
2 *4817:A2 0
3 *4812:A 0.000171482
4 *4811:X 8.5642e-05
5 *750:10 0.000218448
6 *750:8 0.000236227
7 *4812:A *4825:B1 6.97494e-05
8 *4812:A *838:124 0.000177948
9 *4812:A *849:12 0
10 *4813:B *838:124 0.000277524
11 *4813:B *849:12 0
12 *750:10 *838:124 0.00015304
13 *4817:B1_N *4812:A 4.1331e-06
14 *4817:B1_N *4813:B 3.79104e-05
15 *4817:B1_N *750:10 5.38886e-05
*RES
1 *4811:X *750:8 14.7464 
2 *750:8 *750:10 1.94643 
3 *750:10 *4812:A 17.8179 
4 *750:10 *4817:A2 13.8 
5 *750:8 *4813:B 17.2643 
*END

*D_NET *751 0.000791425
*CONN
*I *4825:B1 I *D sky130_fd_sc_hd__o211ai_2
*I *4812:Y O *D sky130_fd_sc_hd__inv_2
*CAP
1 *4825:B1 0.000332951
2 *4812:Y 0.000332951
3 *4825:B1 *838:124 5.57727e-05
4 *4825:B1 *849:12 0
5 *4812:A *4825:B1 6.97494e-05
*RES
1 *4812:Y *4825:B1 32.5464 
*END

*D_NET *752 0.000680406
*CONN
*I *4814:B I *D sky130_fd_sc_hd__nand2_1
*I *4813:Y O *D sky130_fd_sc_hd__xnor2_1
*CAP
1 *4814:B 0.00031147
2 *4813:Y 0.00031147
3 *4814:B *4239:B 4.1331e-06
4 *4814:B *779:56 0
5 *4814:B *838:124 0
6 *4813:A *4814:B 5.33334e-05
*RES
1 *4813:Y *4814:B 32.4393 
*END

*D_NET *753 0.00204231
*CONN
*I *4815:C1 I *D sky130_fd_sc_hd__o211a_1
*I *4814:Y O *D sky130_fd_sc_hd__nand2_1
*CAP
1 *4815:C1 0.000361782
2 *4814:Y 0.000361782
3 *4815:C1 *4239:A 2.55587e-05
4 *4815:C1 *4815:A1 0.00114953
5 *4815:C1 *4815:A2 9.98555e-05
6 *4240:B2 *4815:C1 4.37999e-05
*RES
1 *4814:Y *4815:C1 30.1357 
*END

*D_NET *754 0.00127179
*CONN
*I *4825:C1 I *D sky130_fd_sc_hd__o211ai_2
*I *4818:A I *D sky130_fd_sc_hd__xor2_1
*I *4816:X O *D sky130_fd_sc_hd__xor2_1
*CAP
1 *4825:C1 7.38832e-05
2 *4818:A 0
3 *4816:X 0.000218629
4 *754:12 0.000292512
5 *4825:C1 *762:10 4.88631e-05
6 *754:12 *4816:B 0.000265453
7 *754:12 *849:12 9.61995e-05
8 *754:12 *961:35 4.18895e-05
9 *754:12 *961:50 0.000172925
10 *754:12 *970:100 6.20855e-06
11 *183:53 *754:12 5.52302e-05
*RES
1 *4816:X *754:12 23.8536 
2 *754:12 *4818:A 9.3 
3 *754:12 *4825:C1 10.6571 
*END

*D_NET *755 0.000870391
*CONN
*I *4818:B I *D sky130_fd_sc_hd__xor2_1
*I *4817:X O *D sky130_fd_sc_hd__o21ba_1
*CAP
1 *4818:B 0.000188773
2 *4817:X 0.000188773
3 *4818:B *849:12 0.000320016
4 *4818:B *961:50 0.000172829
*RES
1 *4817:X *4818:B 32.6179 
*END

*D_NET *756 0.00211002
*CONN
*I *4820:A2 I *D sky130_fd_sc_hd__a211oi_1
*I *4818:X O *D sky130_fd_sc_hd__xor2_1
*CAP
1 *4820:A2 0.000502153
2 *4818:X 0.000502153
3 *4820:A2 *970:19 9.25014e-06
4 *4820:A2 *970:100 0.000400048
5 *4820:A2 *1002:30 0.00048402
6 *198:10 *4820:A2 0.000212393
*RES
1 *4818:X *4820:A2 41.225 
*END

*D_NET *757 0.000596494
*CONN
*I *4820:B1 I *D sky130_fd_sc_hd__a211oi_1
*I *4819:Y O *D sky130_fd_sc_hd__nor2_1
*CAP
1 *4820:B1 0.000227131
2 *4819:Y 0.000227131
3 *4820:B1 *4819:B 3.97168e-05
4 *4820:B1 *4915:CLK 1.92789e-05
5 *4915:D *4820:B1 8.32354e-05
*RES
1 *4819:Y *4820:B1 30.8143 
*END

*D_NET *758 0.000355171
*CONN
*I *4823:A I *D sky130_fd_sc_hd__nor2_1
*I *4821:Y O *D sky130_fd_sc_hd__nor2_1
*CAP
1 *4823:A 0.000140258
2 *4821:Y 0.000140258
3 *4823:A *4822:A 2.89016e-05
4 *4823:A *4828:B 0
5 *4823:A *1009:121 4.57538e-05
*RES
1 *4821:Y *4823:A 30.0821 
*END

*D_NET *759 0.00179375
*CONN
*I *4834:A1 I *D sky130_fd_sc_hd__o31a_1
*I *4823:B I *D sky130_fd_sc_hd__nor2_1
*I *4833:A1 I *D sky130_fd_sc_hd__o21ai_1
*I *4822:X O *D sky130_fd_sc_hd__and2_1
*CAP
1 *4834:A1 7.08906e-05
2 *4823:B 7.16925e-05
3 *4833:A1 0.000176803
4 *4822:X 0
5 *759:10 0.000323402
6 *759:6 0.000145797
7 *4823:B *4824:A 5.30637e-06
8 *4823:B *1009:121 0.000142856
9 *4833:A1 *1009:121 0.000443654
10 *4834:A1 *4832:B 0.000140933
11 *4834:A1 *4836:A2 9.90431e-05
12 *4834:A1 *764:12 2.14658e-05
13 *4834:A1 *844:81 2.46999e-05
14 *4834:A1 *1009:121 2.8833e-05
15 *759:10 *844:81 5.26184e-05
16 *759:10 *1009:121 4.57538e-05
*RES
1 *4822:X *759:6 13.8 
2 *759:6 *759:10 6.44643 
3 *759:10 *4833:A1 13.5321 
4 *759:10 *4823:B 11.0679 
5 *759:6 *4834:A1 16.1929 
*END

*D_NET *760 0.00088739
*CONN
*I *4824:A I *D sky130_fd_sc_hd__inv_2
*I *4823:Y O *D sky130_fd_sc_hd__nor2_1
*CAP
1 *4824:A 0.000400446
2 *4823:Y 0.000400446
3 *4824:A *4828:B 7.83659e-05
4 *4824:A *4829:B 0
5 *4824:A *820:16 2.8266e-06
6 *4824:A *1009:121 0
7 *4823:B *4824:A 5.30637e-06
*RES
1 *4823:Y *4824:A 32.9571 
*END

*D_NET *761 0.00119074
*CONN
*I *4827:B1 I *D sky130_fd_sc_hd__a21oi_1
*I *4828:B I *D sky130_fd_sc_hd__and3_1
*I *4824:Y O *D sky130_fd_sc_hd__inv_2
*CAP
1 *4827:B1 8.72474e-05
2 *4828:B 0.000305421
3 *4824:Y 0
4 *761:4 0.000392668
5 *4827:B1 *4822:A 0
6 *4827:B1 *961:65 0
7 *4827:B1 *961:77 0.000104956
8 *4828:B *4828:C 3.5417e-05
9 *4828:B *4829:B 0.000186662
10 *4823:A *4828:B 0
11 *4824:A *4828:B 7.83659e-05
*RES
1 *4824:Y *761:4 9.3 
2 *761:4 *4828:B 24.3 
3 *761:4 *4827:B1 11.2821 
*END

*D_NET *762 0.00281286
*CONN
*I *4827:A1 I *D sky130_fd_sc_hd__a21oi_1
*I *4828:A I *D sky130_fd_sc_hd__and3_1
*I *4825:Y O *D sky130_fd_sc_hd__o211ai_2
*CAP
1 *4827:A1 0.000332694
2 *4828:A 0
3 *4825:Y 0.000741882
4 *762:10 0.00107458
5 *4827:A1 *4243:A 1.76039e-05
6 *4827:A1 *4826:A2 7.32272e-05
7 *4827:A1 *4827:A2 0.00014285
8 *4827:A1 *818:23 0.000124723
9 *4827:A1 *845:18 0
10 *4827:A1 *961:65 1.02936e-05
11 *4827:A1 *961:77 2.78608e-05
12 *762:10 *5045:A 5.62995e-05
13 *762:10 *818:23 0.000161993
14 *762:10 *845:18 0
15 *4825:C1 *762:10 4.88631e-05
*RES
1 *4825:Y *762:10 24.2643 
2 *762:10 *4828:A 13.8 
3 *762:10 *4827:A1 20.675 
*END

*D_NET *763 0.0008672
*CONN
*I *4827:A2 I *D sky130_fd_sc_hd__a21oi_1
*I *4828:C I *D sky130_fd_sc_hd__and3_1
*I *4826:Y O *D sky130_fd_sc_hd__o21ai_1
*CAP
1 *4827:A2 7.41533e-05
2 *4828:C 0.00015029
3 *4826:Y 0
4 *763:6 0.000224443
5 *4827:A2 *4829:B 0
6 *4827:A2 *818:23 4.25523e-05
7 *4827:A2 *961:65 2.14658e-05
8 *4827:A2 *961:77 0.00010096
9 *4828:C *4829:B 0
10 *4828:C *818:23 7.50697e-05
11 *4827:A1 *4827:A2 0.00014285
12 *4828:B *4828:C 3.5417e-05
*RES
1 *4826:Y *763:6 13.8 
2 *763:6 *4828:C 16.7643 
3 *763:6 *4827:A2 16.1929 
*END

*D_NET *764 0.00320846
*CONN
*I *4829:A I *D sky130_fd_sc_hd__or2_4
*I *4834:A2 I *D sky130_fd_sc_hd__o31a_1
*I *4833:A2 I *D sky130_fd_sc_hd__o21ai_1
*I *4827:Y O *D sky130_fd_sc_hd__a21oi_1
*CAP
1 *4829:A 7.8296e-05
2 *4834:A2 0
3 *4833:A2 0.000254116
4 *4827:Y 3.76435e-05
5 *764:12 0.000858147
6 *764:6 0.000719971
7 *4829:A *4243:A 0
8 *4829:A *4829:B 5.33882e-05
9 *4829:A *820:16 0
10 *4833:A2 *844:81 0.00010326
11 *4833:A2 *1009:121 0.000173921
12 *4833:A2 *1010:146 5.10822e-05
13 *764:6 *961:77 4.54062e-05
14 *764:12 *4832:B 2.73339e-05
15 *764:12 *4836:A2 0.000139907
16 *764:12 *844:81 0.00010326
17 *764:12 *961:77 0.00044852
18 *764:12 *961:79 6.87574e-05
19 *764:12 *1010:146 2.39876e-05
20 *4834:A1 *764:12 2.14658e-05
*RES
1 *4827:Y *764:6 9.8625 
2 *764:6 *764:12 13.7679 
3 *764:12 *4833:A2 18.1393 
4 *764:12 *4834:A2 13.8 
5 *764:6 *4829:A 19.9429 
*END

*D_NET *765 0.000931469
*CONN
*I *4829:B I *D sky130_fd_sc_hd__or2_4
*I *4828:X O *D sky130_fd_sc_hd__and3_1
*CAP
1 *4829:B 0.000345709
2 *4828:X 0.000345709
3 *4829:B *4243:A 0
4 *4824:A *4829:B 0
5 *4827:A2 *4829:B 0
6 *4828:B *4829:B 0.000186662
7 *4828:C *4829:B 0
8 *4829:A *4829:B 5.33882e-05
*RES
1 *4828:X *4829:B 33.1357 
*END

*D_NET *766 0.00130106
*CONN
*I *4831:A1 I *D sky130_fd_sc_hd__a211oi_2
*I *4829:X O *D sky130_fd_sc_hd__or2_4
*CAP
1 *4831:A1 0.000369323
2 *4829:X 0.000369323
3 *4831:A1 *4244:A2 0.000129595
4 *4831:A1 *4830:A 0.00010096
5 *4831:A1 *4831:B1 5.12779e-05
6 *4831:A1 *4914:CLK 9.25014e-06
7 *4831:A1 *820:16 0.000216098
8 *4831:A1 *1009:121 5.52302e-05
*RES
1 *4829:X *4831:A1 36.8321 
*END

*D_NET *767 0.000610767
*CONN
*I *4831:B1 I *D sky130_fd_sc_hd__a211oi_2
*I *4830:Y O *D sky130_fd_sc_hd__nor2_1
*CAP
1 *4831:B1 0.000188434
2 *4830:Y 0.000188434
3 *4831:B1 *4244:A2 3.97657e-05
4 *4831:B1 *4830:A 8.76257e-05
5 *4831:B1 *1009:121 5.52302e-05
6 *4831:A1 *4831:B1 5.12779e-05
*RES
1 *4830:Y *4831:B1 22.4393 
*END

*D_NET *768 0.000926649
*CONN
*I *4834:A3 I *D sky130_fd_sc_hd__o31a_1
*I *4833:B1 I *D sky130_fd_sc_hd__o21ai_1
*I *4832:Y O *D sky130_fd_sc_hd__xnor2_1
*CAP
1 *4834:A3 8.06238e-05
2 *4833:B1 0.000206127
3 *4832:Y 0
4 *768:4 0.000286751
5 *4833:B1 *4832:A 1.24368e-05
6 *4833:B1 *4832:B 0.000144773
7 *4833:B1 *4836:A1 0
8 *4833:B1 *4836:A2 1.02936e-05
9 *4833:B1 *1002:78 0
10 *4833:B1 *1010:146 0
11 *4834:A3 *4832:B 0.000185643
*RES
1 *4832:Y *768:4 9.3 
2 *768:4 *4833:B1 22.0143 
3 *768:4 *4834:A3 11.0679 
*END

*D_NET *769 0.00076654
*CONN
*I *4836:A1 I *D sky130_fd_sc_hd__a211oi_1
*I *4833:Y O *D sky130_fd_sc_hd__o21ai_1
*CAP
1 *4836:A1 0.000291601
2 *4833:Y 0.000291601
3 *4836:A1 *4831:C1 1.19309e-05
4 *4836:A1 *4836:B1 3.92854e-05
5 *4836:A1 *1002:78 2.00751e-05
6 *4836:A1 *1009:121 0.000112047
7 *4833:B1 *4836:A1 0
*RES
1 *4833:Y *4836:A1 32.1357 
*END

*D_NET *770 0.0011491
*CONN
*I *4836:A2 I *D sky130_fd_sc_hd__a211oi_1
*I *4834:X O *D sky130_fd_sc_hd__o31a_1
*CAP
1 *4836:A2 0.000292739
2 *4834:X 0.000292739
3 *4836:A2 *4832:A 0.000105163
4 *4836:A2 *4832:B 0.000209219
5 *4833:B1 *4836:A2 1.02936e-05
6 *4834:A1 *4836:A2 9.90431e-05
7 *764:12 *4836:A2 0.000139907
*RES
1 *4834:X *4836:A2 25.2964 
*END

*D_NET *771 0.000479705
*CONN
*I *4836:B1 I *D sky130_fd_sc_hd__a211oi_1
*I *4835:Y O *D sky130_fd_sc_hd__nor2_1
*CAP
1 *4836:B1 0.000159148
2 *4835:Y 0.000159148
3 *4836:B1 *4835:B 1.58163e-05
4 *4836:B1 *1002:78 7.83659e-05
5 *4836:B1 *1009:121 2.79421e-05
6 *4836:A1 *4836:B1 3.92854e-05
*RES
1 *4835:Y *4836:B1 29.9929 
*END

*D_NET *772 0.0429523
*CONN
*I *4923:A I *D sky130_fd_sc_hd__clkbuf_16
*I *4924:A I *D sky130_fd_sc_hd__clkbuf_16
*I *4925:A I *D sky130_fd_sc_hd__clkbuf_16
*I *4926:A I *D sky130_fd_sc_hd__clkbuf_16
*I *4922:A I *D sky130_fd_sc_hd__clkbuf_16
*I *4921:A I *D sky130_fd_sc_hd__clkbuf_16
*I *4919:A I *D sky130_fd_sc_hd__clkbuf_16
*I *4920:A I *D sky130_fd_sc_hd__clkbuf_16
*I *4918:X O *D sky130_fd_sc_hd__clkbuf_16
*CAP
1 *4923:A 0.000260661
2 *4924:A 0.000101448
3 *4925:A 6.21259e-05
4 *4926:A 0.000204812
5 *4922:A 0
6 *4921:A 0
7 *4919:A 0.000366166
8 *4920:A 0.000336077
9 *4918:X 0.000527922
10 *772:118 0.000418386
11 *772:114 0.00395882
12 *772:94 0.0018814
13 *772:48 0.00191083
14 *772:46 0.00236019
15 *772:38 0.00256253
16 *772:32 0.00264769
17 *772:16 0.00396507
18 *772:6 0.00554432
19 *4919:A *4382:B 9.41642e-05
20 *4920:A *4199:A1 5.90443e-06
21 *4920:A *4199:A2 0.00040576
22 *4920:A *4427:B 5.97767e-05
23 *4920:A *4473:A2 5.33005e-05
24 *4920:A *988:55 0.000213679
25 *4920:A *988:66 3.34295e-05
26 *4920:A *990:18 5.52238e-05
27 *4920:A *990:44 1.43349e-05
28 *4920:A *995:48 8.86597e-05
29 *4920:A *995:68 0.00026367
30 *4920:A *995:110 4.18895e-05
31 *4923:A *4902:CLK 0.000551271
32 *4923:A *846:47 7.60306e-05
33 *4923:A *846:62 1.18451e-05
34 *4923:A *847:86 0.000729762
35 *4925:A *4787:B 0.000227021
36 *4925:A *1002:28 1.18064e-05
37 *4926:A *4788:A1 0.000397918
38 *4926:A *4807:A4 0.000225616
39 *4926:A *962:38 5.33005e-05
40 *4926:A *962:51 0.000331126
41 *772:16 *832:29 0.00010326
42 *772:16 *838:124 0
43 *772:16 *849:16 0
44 *772:32 *4935:A 0.000226507
45 *772:32 *832:23 0.000107977
46 *772:32 *849:16 0
47 *772:48 *4192:A1 7.83587e-05
48 *772:48 *4195:A1 0.000343737
49 *772:48 *4199:A2 0.00112588
50 *772:48 *4303:A2 7.79781e-06
51 *772:48 *859:29 0.000130152
52 *772:48 *973:35 0.000164554
53 *772:48 *988:66 0.000762629
54 *772:48 *988:102 9.88136e-05
55 *772:48 *1007:136 0.000165895
56 *772:94 *4792:B 0.000190798
57 *772:94 *4795:A1 0.000137437
58 *772:94 *832:23 1.58163e-05
59 *772:94 *835:54 0.00024744
60 *772:94 *845:43 0.000528337
61 *772:94 *961:23 5.84547e-05
62 *772:94 *968:97 0
63 *772:94 *970:27 0.000422171
64 *772:94 *970:33 1.76135e-05
65 *772:94 *1002:28 4.78056e-05
66 *772:114 *4588:A1 1.39726e-05
67 *772:114 *1012:23 7.77751e-05
68 *772:118 *846:47 9.33907e-05
69 *772:118 *847:86 0.000176226
70 *4192:B1 *772:48 5.10822e-05
71 *4327:A *772:46 2.59355e-05
72 *4358:C *772:38 0.000276211
73 *4401:B *772:32 0.000455103
74 *4448:B *772:32 4.69963e-05
75 *4448:C *772:32 5.52238e-05
76 *4451:A1 *772:32 9.90367e-05
77 *4451:A2 *772:32 0.00010096
78 *4455:A2 *772:16 4.16114e-05
79 *4456:C1 *772:16 0.00010326
80 *4477:A1 *4919:A 1.65169e-05
81 *4477:A1 *4920:A 2.23987e-05
82 *4493:A1 *772:6 0.000219818
83 *4493:A1 *772:114 7.32955e-05
84 *4493:A2 *772:6 3.06878e-06
85 *4496:B *772:16 2.00751e-05
86 *4500:A1 *772:16 6.39434e-05
87 *4585:A1 *772:114 9.76689e-05
88 *4586:A *772:114 3.57315e-05
89 *4587:B *772:114 6.97409e-05
90 *4788:B1_N *4926:A 8.66063e-05
91 *4796:B2 *4926:A 5.52238e-05
92 *4805:B *4925:A 0.000239243
93 *4805:B *772:94 0.000100831
94 *194:12 *772:46 0
95 *194:12 *772:48 0
96 *196:14 *772:48 0.0004495
97 *200:8 *772:94 3.69047e-06
98 *200:16 *772:94 0.000422992
99 *261:12 *772:48 0.000128154
100 *264:8 *772:48 0.000271958
101 *264:21 *772:48 0.000238047
102 *266:10 *772:46 0.000100823
103 *266:10 *772:48 0.000170661
104 *266:23 *772:46 4.00276e-06
105 *267:12 *772:46 0
106 *319:14 *772:38 4.88637e-05
107 *320:6 *772:38 5.71472e-05
108 *320:38 *772:38 0.000480018
109 *321:12 *772:38 0.00010096
110 *343:21 *4919:A 6.05161e-06
111 *372:23 *772:32 0
112 *386:12 *4920:A 0.000312743
113 *408:6 *772:32 0.00023978
114 *409:6 *772:32 0.000144773
115 *412:28 *772:32 0
116 *416:10 *772:16 0.000288375
117 *416:16 *772:16 0.000279128
118 *452:6 *772:114 7.35937e-05
119 *452:15 *772:114 1.40306e-05
120 *454:10 *772:16 0
121 *542:10 *772:114 0.000271345
122 *737:12 *772:94 7.53309e-05
123 *745:24 *4926:A 1.39841e-05
*RES
1 *4918:X *772:6 15.9964 
2 *772:6 *772:16 32.8571 
3 *772:16 *772:32 34.0179 
4 *772:32 *772:38 25.9286 
5 *772:38 *772:46 18.3036 
6 *772:46 *772:48 38.9821 
7 *772:48 *4920:A 24.5857 
8 *772:48 *4919:A 19.2643 
9 *772:46 *4921:A 13.8 
10 *772:38 *4922:A 9.3 
11 *772:16 *772:94 47.0536 
12 *772:94 *4926:A 20.9071 
13 *772:94 *4925:A 16.9607 
14 *772:6 *772:114 46.5357 
15 *772:114 *772:118 6.75 
16 *772:118 *4924:A 15.1571 
17 *772:118 *4923:A 23.3357 
*END

*D_NET *773 0.0131452
*CONN
*I *4886:CLK I *D sky130_fd_sc_hd__dfxtp_1
*I *4839:CLK I *D sky130_fd_sc_hd__dfxtp_1
*I *4927:A I *D sky130_fd_sc_hd__clkinv_4
*I *4846:CLK I *D sky130_fd_sc_hd__dfxtp_1
*I *4887:CLK I *D sky130_fd_sc_hd__dfxtp_1
*I *4847:CLK I *D sky130_fd_sc_hd__dfxtp_1
*I *4838:CLK I *D sky130_fd_sc_hd__dfxtp_1
*I *4880:CLK I *D sky130_fd_sc_hd__dfxtp_1
*I *4881:CLK I *D sky130_fd_sc_hd__dfxtp_2
*I *4919:X O *D sky130_fd_sc_hd__clkbuf_16
*CAP
1 *4886:CLK 0.000222632
2 *4839:CLK 9.39788e-05
3 *4927:A 2.23854e-05
4 *4846:CLK 0
5 *4887:CLK 0.000430552
6 *4847:CLK 0
7 *4838:CLK 8.99247e-05
8 *4880:CLK 2.36895e-05
9 *4881:CLK 0.00100868
10 *4919:X 0
11 *773:85 0.000316611
12 *773:53 0.000961168
13 *773:47 0.000756428
14 *773:14 0.00167829
15 *773:12 0.000778672
16 *773:10 0.000773387
17 *773:6 0.00072149
18 *773:4 0.00019435
19 *4839:CLK *4269:A 0.000173804
20 *4839:CLK *866:25 0
21 *4881:CLK *4162:A1 0
22 *4881:CLK *4256:A1 0
23 *4881:CLK *4257:A 0
24 *4881:CLK *840:12 0
25 *4881:CLK *840:14 0
26 *4886:CLK *4266:A1 0.000183726
27 *4886:CLK *4269:A 0.000380611
28 *4886:CLK *866:25 0
29 *4886:CLK *1005:17 0
30 *4887:CLK *4182:A1 0
31 *4887:CLK *841:22 0
32 *4887:CLK *844:35 0.000253966
33 *4887:CLK *1010:52 0
34 *773:6 *1007:23 5.30637e-06
35 *773:10 *4156:A0 1.83136e-05
36 *773:10 *4991:A 0.000264749
37 *773:10 *1007:23 4.26242e-05
38 *773:12 *841:39 0.000169405
39 *773:12 *986:48 0.000176234
40 *773:14 *4943:A 0
41 *773:14 *4971:A 0.000202128
42 *773:14 *840:10 0
43 *773:14 *840:12 0
44 *773:14 *841:39 1.02504e-05
45 *773:14 *841:43 0.000843438
46 *773:14 *986:21 0.000119618
47 *773:14 *986:48 0.0010202
48 *773:47 *841:37 0.000176234
49 *773:47 *841:39 2.31791e-05
50 *773:47 *986:48 0.000201127
51 *773:53 *4179:A2 0
52 *773:53 *4182:A1 0
53 *773:53 *839:23 0
54 *773:53 *844:35 0.000232889
55 *4157:B *4838:CLK 0.000141734
56 *4162:S *4881:CLK 0
57 *4163:B *4881:CLK 0
58 *4257:B *4881:CLK 0
59 *4269:B *4886:CLK 4.25716e-05
60 *4846:D *773:53 1.64343e-05
61 *4880:D *4880:CLK 5.52238e-05
62 *4887:D *4887:CLK 0.000221501
63 *170:12 *773:14 0
64 *170:27 *4881:CLK 0
65 *170:27 *773:14 0
66 *181:38 *4886:CLK 9.76689e-05
*RES
1 *4919:X *773:4 9.3 
2 *773:4 *773:6 3 
3 *773:6 *773:10 12.8393 
4 *773:10 *773:12 2.25 
5 *773:12 *773:14 19.8571 
6 *773:14 *4881:CLK 30.6214 
7 *773:14 *4880:CLK 14.3357 
8 *773:12 *4838:CLK 15.5679 
9 *773:10 *773:47 9.64286 
10 *773:47 *773:53 14.8036 
11 *773:53 *4847:CLK 13.8 
12 *773:53 *4887:CLK 23.9071 
13 *773:47 *4846:CLK 9.3 
14 *773:6 *4927:A 9.72857 
15 *773:4 *773:85 4.5 
16 *773:85 *4839:CLK 16.05 
17 *773:85 *4886:CLK 20.55 
*END

*D_NET *774 0.020649
*CONN
*I *4928:A I *D sky130_fd_sc_hd__clkbuf_8
*I *4879:CLK I *D sky130_fd_sc_hd__dfxtp_1
*I *4842:CLK I *D sky130_fd_sc_hd__dfxtp_1
*I *4845:CLK I *D sky130_fd_sc_hd__dfxtp_2
*I *4884:CLK I *D sky130_fd_sc_hd__dfxtp_1
*I *4844:CLK I *D sky130_fd_sc_hd__dfxtp_1
*I *4885:CLK I *D sky130_fd_sc_hd__dfxtp_2
*I *4882:CLK I *D sky130_fd_sc_hd__dfxtp_1
*I *4841:CLK I *D sky130_fd_sc_hd__dfxtp_1
*I *4878:CLK I *D sky130_fd_sc_hd__dfxtp_4
*I *4840:CLK I *D sky130_fd_sc_hd__dfxtp_1
*I *4883:CLK I *D sky130_fd_sc_hd__dfxtp_1
*I *4843:CLK I *D sky130_fd_sc_hd__dfxtp_1
*I *4920:X O *D sky130_fd_sc_hd__clkbuf_16
*CAP
1 *4928:A 0.000188353
2 *4879:CLK 0
3 *4842:CLK 0
4 *4845:CLK 0
5 *4884:CLK 6.13249e-05
6 *4844:CLK 0.000389297
7 *4885:CLK 0
8 *4882:CLK 0
9 *4841:CLK 0.000561817
10 *4878:CLK 0
11 *4840:CLK 0.000490544
12 *4883:CLK 0.000315082
13 *4843:CLK 0.000386784
14 *4920:X 4.16687e-05
15 *774:113 0.000976548
16 *774:104 0.00106797
17 *774:100 0.0010883
18 *774:89 0.000716818
19 *774:68 0.00114963
20 *774:64 0.000713343
21 *774:44 0.000606338
22 *774:42 0.000653948
23 *774:40 0.000892161
24 *774:12 0.0010316
25 *774:10 0.00102147
26 *774:8 0.000271659
27 *4840:CLK *4943:A 6.28241e-05
28 *4840:CLK *4988:A 5.99423e-05
29 *4840:CLK *841:60 4.25652e-05
30 *4840:CLK *841:69 4.40153e-05
31 *4840:CLK *852:8 0.000632889
32 *4841:CLK *4162:A0 0.000230432
33 *4841:CLK *884:16 0.00024659
34 *4843:CLK *4261:A 2.58997e-05
35 *4843:CLK *840:53 0.000120402
36 *4843:CLK *975:105 0.000411109
37 *4843:CLK *978:10 7.83587e-05
38 *4843:CLK *978:20 0.000218026
39 *4844:CLK *4168:A1 0.00030177
40 *4844:CLK *4963:A 0
41 *4844:CLK *4979:A 0.000172375
42 *4884:CLK *975:31 3.69047e-06
43 *4928:A *4199:B2 0
44 *4928:A *4974:A 2.46999e-05
45 *4928:A *859:16 7.15962e-05
46 *4928:A *975:105 0.000202328
47 *774:8 *988:21 2.89016e-05
48 *774:10 *4974:A 2.28428e-05
49 *774:10 *975:105 3.69697e-05
50 *774:12 *4974:A 1.19309e-05
51 *774:12 *975:105 0.000321155
52 *774:40 *841:118 7.62141e-05
53 *774:42 *841:69 5.38242e-05
54 *774:42 *841:101 0.000101169
55 *774:42 *841:118 2.77289e-05
56 *774:42 *852:8 0.000134471
57 *774:44 *841:69 9.77309e-05
58 *774:44 *852:8 0.000235367
59 *774:64 *784:17 0.000768002
60 *774:64 *1004:43 0.000221163
61 *774:68 *4162:A0 0.000153054
62 *774:68 *784:17 0.000497123
63 *774:89 *4162:A0 4.18895e-05
64 *774:89 *4259:A 4.70078e-05
65 *774:100 *4259:A 0.000260383
66 *774:100 *840:55 0
67 *774:100 *840:57 0
68 *774:104 *840:57 0
69 *774:104 *840:61 0
70 *774:113 *4262:A1 9.84673e-05
71 *4162:S *4841:CLK 6.74815e-05
72 *4162:S *774:68 0
73 *4167:B *4843:CLK 5.71472e-05
74 *4169:B *4844:CLK 6.42242e-05
75 *4253:B *774:42 5.52238e-05
76 *4254:S *774:64 0.000193165
77 *4262:S *774:113 0.000259907
78 *4840:D *4840:CLK 1.64343e-05
79 *4842:D *774:68 3.79467e-05
80 *4843:D *4843:CLK 5.52302e-05
81 *4845:D *774:104 3.47737e-05
82 *4878:D *4840:CLK 5.65955e-05
83 *4878:D *774:44 0.000130869
84 *4879:D *774:40 3.03133e-05
85 *4879:D *774:42 3.18676e-05
86 *4882:D *774:89 2.44318e-05
87 *4882:D *774:100 0.00013001
88 *4883:D *4843:CLK 0
89 *4883:D *4883:CLK 8.95186e-05
90 *4885:D *774:113 0.00010272
91 *224:10 *774:64 6.37408e-06
92 *224:44 *774:100 0
93 *224:46 *774:100 0
94 *224:46 *774:104 0
95 *224:56 *774:104 0
96 *224:56 *774:113 0.000395187
*RES
1 *4920:X *774:8 14.3357 
2 *774:8 *774:10 1.03571 
3 *774:10 *774:12 7.71429 
4 *774:12 *4843:CLK 24.4786 
5 *774:12 *4883:CLK 18.8714 
6 *774:10 *774:40 12.75 
7 *774:40 *774:42 5.875 
8 *774:42 *774:44 4.23214 
9 *774:44 *4840:CLK 22.3 
10 *774:44 *4878:CLK 9.3 
11 *774:42 *774:64 14.6429 
12 *774:64 *774:68 14.0357 
13 *774:68 *4841:CLK 27.9071 
14 *774:68 *774:89 3.42857 
15 *774:89 *4882:CLK 9.3 
16 *774:89 *774:100 15.3571 
17 *774:100 *774:104 14.3393 
18 *774:104 *4885:CLK 9.3 
19 *774:104 *774:113 12.0536 
20 *774:113 *4844:CLK 27.8357 
21 *774:113 *4884:CLK 10.2464 
22 *774:100 *4845:CLK 13.8 
23 *774:64 *4842:CLK 13.8 
24 *774:40 *4879:CLK 9.3 
25 *774:8 *4928:A 18.425 
*END

*D_NET *775 0.0143164
*CONN
*I *4929:A I *D sky130_fd_sc_hd__clkinv_4
*I *4851:CLK I *D sky130_fd_sc_hd__dfxtp_1
*I *4890:CLK I *D sky130_fd_sc_hd__dfxtp_1
*I *4850:CLK I *D sky130_fd_sc_hd__dfxtp_1
*I *4837:CLK I *D sky130_fd_sc_hd__dfxtp_1
*I *4889:CLK I *D sky130_fd_sc_hd__dfxtp_1
*I *4849:CLK I *D sky130_fd_sc_hd__dfxtp_1
*I *4888:CLK I *D sky130_fd_sc_hd__dfxtp_1
*I *4848:CLK I *D sky130_fd_sc_hd__dfxtp_1
*I *4921:X O *D sky130_fd_sc_hd__clkbuf_16
*CAP
1 *4929:A 0.000188538
2 *4851:CLK 0
3 *4890:CLK 0.000259412
4 *4850:CLK 0
5 *4837:CLK 0.000601983
6 *4889:CLK 0
7 *4849:CLK 2.49165e-05
8 *4888:CLK 0.000280825
9 *4848:CLK 0.000337579
10 *4921:X 0
11 *775:89 0.000662415
12 *775:70 0.00123815
13 *775:59 0.000665944
14 *775:26 0.000922573
15 *775:22 0.00115307
16 *775:16 0.00135461
17 *775:14 0.000724143
18 *775:4 0.000814837
19 *4837:CLK *4191:C1 5.33005e-05
20 *4837:CLK *4939:A 6.29625e-05
21 *4848:CLK *4184:A1 0.000265025
22 *4848:CLK *4185:C1 0.00020934
23 *4848:CLK *4293:A2 0.000173083
24 *4848:CLK *819:23 2.26327e-05
25 *4848:CLK *839:40 0
26 *4848:CLK *1010:52 0
27 *4888:CLK *4293:A1 0.000135028
28 *4890:CLK *4945:A 5.52238e-05
29 *4890:CLK *843:10 2.24225e-05
30 *4890:CLK *843:108 0.000280208
31 *4890:CLK *843:116 0.000162282
32 *4929:A *4186:A1 2.89016e-05
33 *775:14 *4186:A1 0.000401717
34 *775:14 *4186:B2 0.000372832
35 *775:14 *822:12 4.80729e-05
36 *775:14 *972:16 0.000206307
37 *775:14 *973:10 0.000190838
38 *775:22 *839:62 0
39 *775:26 *4293:A2 0.000142082
40 *775:26 *819:23 0.000109809
41 *775:26 *839:62 0
42 *775:26 *843:50 0.000229678
43 *775:59 *4312:A 0
44 *775:59 *839:81 0
45 *775:59 *843:16 0.000225307
46 *775:59 *843:28 0.00010326
47 *775:59 *843:42 0
48 *775:59 *1009:16 0
49 *775:59 *1010:22 0
50 *775:70 *843:10 3.17148e-05
51 *775:70 *843:16 0.000396353
52 *775:70 *1009:16 0
53 *775:70 *1009:42 0
54 *775:89 *4191:A1 7.27521e-05
55 *775:89 *4191:C1 0.000172687
56 *775:89 *839:93 1.98839e-05
57 *775:89 *843:10 0.000114104
58 *775:89 *1009:42 3.83716e-05
59 *4188:B1 *4849:CLK 2.27416e-05
60 *4188:B1 *775:26 7.4826e-05
61 *4190:B1 *4929:A 0
62 *4191:B1 *775:70 0
63 *4837:D *4837:CLK 1.64343e-05
64 *4850:D *775:89 0.000109725
65 *4851:D *775:16 1.74503e-05
66 *4851:D *775:59 0.000104974
67 *4888:D *4888:CLK 0.000231818
68 *4889:D *775:59 0.000128154
69 *4889:D *775:70 3.51442e-05
70 *180:12 *775:22 0
71 *180:12 *775:26 0
72 *182:68 *775:26 0
73 *249:29 *4929:A 0
*RES
1 *4921:X *775:4 9.3 
2 *775:4 *775:14 25.3214 
3 *775:14 *775:16 1.76786 
4 *775:16 *775:22 17.8214 
5 *775:22 *775:26 8.25 
6 *775:26 *4848:CLK 23.3357 
7 *775:26 *4888:CLK 19.2643 
8 *775:22 *4849:CLK 14.3357 
9 *775:16 *775:59 14.1607 
10 *775:59 *4889:CLK 13.8 
11 *775:59 *775:70 10.0893 
12 *775:70 *4837:CLK 18.8893 
13 *775:70 *775:89 17.3571 
14 *775:89 *4850:CLK 9.3 
15 *775:89 *4890:CLK 15.6036 
16 *775:14 *4851:CLK 9.3 
17 *775:4 *4929:A 21.6929 
*END

*D_NET *776 0.0155139
*CONN
*I *4876:CLK I *D sky130_fd_sc_hd__dfxtp_1
*I *4877:CLK I *D sky130_fd_sc_hd__dfxtp_1
*I *4852:CLK I *D sky130_fd_sc_hd__dfxtp_1
*I *4917:CLK I *D sky130_fd_sc_hd__dfxtp_1
*I *4892:CLK I *D sky130_fd_sc_hd__dfxtp_1
*I *4891:CLK I *D sky130_fd_sc_hd__dfxtp_1
*I *4930:A I *D sky130_fd_sc_hd__inv_6
*I *4922:X O *D sky130_fd_sc_hd__clkbuf_16
*CAP
1 *4876:CLK 0.00136329
2 *4877:CLK 0
3 *4852:CLK 0.000162749
4 *4917:CLK 0.000417332
5 *4892:CLK 0
6 *4891:CLK 0
7 *4930:A 0
8 *4922:X 6.92454e-05
9 *776:71 0.0017867
10 *776:56 0.00104455
11 *776:32 0.000833087
12 *776:21 0.000541159
13 *776:17 0.00115689
14 *776:8 0.000642347
15 *4876:CLK *5021:A 0.00036192
16 *4917:CLK *825:12 2.14658e-05
17 *4917:CLK *1002:78 0.000102081
18 *4917:CLK *1009:100 0.000559558
19 *776:21 *825:12 0.000275513
20 *776:21 *836:29 0.000155969
21 *776:21 *844:52 4.43256e-05
22 *776:21 *1009:55 0.000622874
23 *776:32 *5037:A 0.000178459
24 *776:32 *824:10 2.32625e-05
25 *776:32 *825:12 0.00141535
26 *776:32 *836:29 0.000304443
27 *776:56 *843:131 4.35048e-05
28 *776:71 *839:110 0.00100009
29 *776:71 *972:131 0.000468708
30 *4369:B *776:17 0
31 *4408:A2 *776:17 0
32 *4852:D *4852:CLK 4.87669e-06
33 *4852:D *776:56 6.28241e-05
34 *4877:D *4876:CLK 1.64343e-05
35 *4877:D *776:71 4.79842e-05
36 *4891:D *776:32 8.95186e-05
37 *199:10 *776:8 0.000149911
38 *199:10 *776:17 0.00110775
39 *199:10 *776:56 0.000326402
40 *199:10 *776:71 0
41 *288:10 *776:8 0
42 *291:10 *776:8 4.15914e-05
43 *291:10 *776:17 7.17836e-05
44 *294:12 *776:17 0
*RES
1 *4922:X *776:8 15.7464 
2 *776:8 *4930:A 13.8 
3 *776:8 *776:17 14.3929 
4 *776:17 *776:21 11.1964 
5 *776:21 *4891:CLK 9.3 
6 *776:21 *776:32 14.4286 
7 *776:32 *4892:CLK 9.3 
8 *776:32 *4917:CLK 28.3714 
9 *776:17 *776:56 12.2857 
10 *776:56 *4852:CLK 11.3893 
11 *776:56 *776:71 24.3036 
12 *776:71 *4877:CLK 9.3 
13 *776:71 *4876:CLK 31.1214 
*END

*D_NET *777 0.0165077
*CONN
*I *4863:CLK I *D sky130_fd_sc_hd__dfxtp_1
*I *4905:CLK I *D sky130_fd_sc_hd__dfxtp_1
*I *4870:CLK I *D sky130_fd_sc_hd__dfxtp_1
*I *4866:CLK I *D sky130_fd_sc_hd__dfxtp_1
*I *4906:CLK I *D sky130_fd_sc_hd__dfxtp_2
*I *4902:CLK I *D sky130_fd_sc_hd__dfxtp_1
*I *4931:A I *D sky130_fd_sc_hd__bufinv_16
*I *4865:CLK I *D sky130_fd_sc_hd__dfxtp_1
*I *4864:CLK I *D sky130_fd_sc_hd__dfxtp_1
*I *4855:CLK I *D sky130_fd_sc_hd__dfxtp_1
*I *4904:CLK I *D sky130_fd_sc_hd__dfxtp_1
*I *4923:X O *D sky130_fd_sc_hd__clkbuf_16
*CAP
1 *4863:CLK 0
2 *4905:CLK 0
3 *4870:CLK 0
4 *4866:CLK 0.000614317
5 *4906:CLK 0
6 *4902:CLK 0.000421636
7 *4931:A 0
8 *4865:CLK 0.000358992
9 *4864:CLK 0.000346435
10 *4855:CLK 0.000216158
11 *4904:CLK 0
12 *4923:X 0.000226085
13 *777:117 0.00122293
14 *777:102 0.000983477
15 *777:78 0.000933787
16 *777:76 0.000985778
17 *777:70 0.00071885
18 *777:62 0.00089408
19 *777:49 0.000915939
20 *777:23 0.000745169
21 *777:21 0.000624988
22 *777:12 0.00038554
23 *4855:CLK *838:103 1.95047e-05
24 *4855:CLK *846:29 0
25 *4855:CLK *971:70 0
26 *4864:CLK *966:84 0.000281006
27 *4865:CLK *4224:A1 0.000144773
28 *4865:CLK *4224:C1 9.90431e-05
29 *4866:CLK *4225:A 0.000329604
30 *4866:CLK *4226:A1 0.000144773
31 *4866:CLK *4226:B1 5.52302e-05
32 *4866:CLK *4226:C1 9.90431e-05
33 *4866:CLK *4234:A1 4.1331e-06
34 *4866:CLK *970:52 1.21289e-05
35 *4866:CLK *970:58 5.49544e-05
36 *4902:CLK *4733:A2 1.33343e-05
37 *4902:CLK *804:8 0.000180777
38 *4902:CLK *846:62 8.24047e-05
39 *4902:CLK *847:86 8.63888e-05
40 *777:12 *4221:B 5.52302e-05
41 *777:12 *971:62 0.000227532
42 *777:23 *4221:A 0.000177941
43 *777:23 *846:29 0
44 *777:23 *971:70 0
45 *777:49 *4221:A 8.32242e-05
46 *777:49 *806:29 0
47 *777:49 *846:25 0
48 *777:49 *846:27 0
49 *777:62 *846:25 0
50 *777:62 *967:91 0
51 *777:70 *4750:A1 0
52 *777:70 *4948:A 0.000407146
53 *777:70 *807:10 1.98839e-05
54 *777:70 *833:87 0
55 *777:70 *833:95 5.41301e-05
56 *777:76 *833:87 1.00477e-05
57 *777:76 *833:95 4.51641e-05
58 *777:78 *4745:A1 0
59 *777:78 *4750:A2 0.000125731
60 *777:78 *4750:B1 5.57096e-05
61 *777:78 *833:74 0
62 *777:78 *833:95 0
63 *777:78 *847:86 0.000579309
64 *777:102 *833:74 0
65 *777:117 *4225:A 3.8011e-05
66 *777:117 *4234:B1 0.0001399
67 *777:117 *4234:C1 5.33005e-05
68 *777:117 *809:14 0.00036192
69 *777:117 *833:74 0
70 *777:117 *967:87 0.000104974
71 *4224:B2 *4865:CLK 0.000259608
72 *4226:B2 *4866:CLK 0.000130991
73 *4732:A2 *4902:CLK 0.00012401
74 *4733:C1 *4902:CLK 7.34839e-06
75 *4855:D *4855:CLK 5.49489e-05
76 *4863:D *777:62 0.000104974
77 *4870:D *777:117 6.70845e-05
78 *4902:D *4902:CLK 5.21324e-05
79 *4904:D *777:21 0.000127114
80 *4905:D *777:70 0.00013001
81 *4905:D *777:76 2.44318e-05
82 *4906:D *777:117 0.000133331
83 *4923:A *4902:CLK 0.000551271
84 *181:60 *4866:CLK 0
85 *181:60 *777:12 0
86 *181:71 *4866:CLK 0
*RES
1 *4923:X *777:12 23.1393 
2 *777:12 *4904:CLK 9.3 
3 *777:12 *777:21 7.5 
4 *777:21 *777:23 4.67857 
5 *777:23 *4855:CLK 17.55 
6 *777:23 *4864:CLK 20.4964 
7 *777:21 *777:49 5.28571 
8 *777:49 *4865:CLK 21.7286 
9 *777:49 *777:62 9.48214 
10 *777:62 *777:70 12.6071 
11 *777:70 *777:76 6.69643 
12 *777:76 *777:78 10.4464 
13 *777:78 *4931:A 13.8 
14 *777:78 *4902:CLK 25.7643 
15 *777:76 *777:102 6.80357 
16 *777:102 *4906:CLK 13.8 
17 *777:102 *777:117 16.4643 
18 *777:117 *4866:CLK 31.2464 
19 *777:117 *4870:CLK 9.3 
20 *777:70 *4905:CLK 9.3 
21 *777:62 *4863:CLK 9.3 
*END

*D_NET *778 0.0203219
*CONN
*I *4897:CLK I *D sky130_fd_sc_hd__dfxtp_1
*I *4895:CLK I *D sky130_fd_sc_hd__dfxtp_1
*I *4896:CLK I *D sky130_fd_sc_hd__dfxtp_1
*I *4900:CLK I *D sky130_fd_sc_hd__dfxtp_1
*I *4857:CLK I *D sky130_fd_sc_hd__dfxtp_1
*I *4899:CLK I *D sky130_fd_sc_hd__dfxtp_1
*I *4859:CLK I *D sky130_fd_sc_hd__dfxtp_1
*I *4862:CLK I *D sky130_fd_sc_hd__dfxtp_1
*I *4861:CLK I *D sky130_fd_sc_hd__dfxtp_1
*I *4856:CLK I *D sky130_fd_sc_hd__dfxtp_1
*I *4860:CLK I *D sky130_fd_sc_hd__dfxtp_1
*I *4858:CLK I *D sky130_fd_sc_hd__dfxtp_1
*I *4898:CLK I *D sky130_fd_sc_hd__dfxtp_1
*I *4901:CLK I *D sky130_fd_sc_hd__dfxtp_1
*I *4924:X O *D sky130_fd_sc_hd__clkbuf_16
*CAP
1 *4897:CLK 0.000322919
2 *4895:CLK 0.000515789
3 *4896:CLK 0.000249203
4 *4900:CLK 0
5 *4857:CLK 0.000545274
6 *4899:CLK 0
7 *4859:CLK 8.41902e-05
8 *4862:CLK 0.000450394
9 *4861:CLK 3.72884e-05
10 *4856:CLK 6.17105e-05
11 *4860:CLK 0
12 *4858:CLK 0
13 *4898:CLK 0.000275475
14 *4901:CLK 0.000145103
15 *4924:X 0.000108251
16 *778:163 0.000910388
17 *778:161 0.00144007
18 *778:91 0.000660765
19 *778:80 0.000412366
20 *778:71 0.00061274
21 *778:67 0.000955999
22 *778:50 0.00114135
23 *778:33 0.00124049
24 *778:31 0.00045927
25 *778:29 0.00119428
26 *778:27 0.000794335
27 *778:25 0.0017617
28 *778:8 0.000698999
29 *4857:CLK *4208:A2 0.000110545
30 *4857:CLK *849:55 0
31 *4862:CLK *4218:A1 0.000128154
32 *4862:CLK *838:75 9.21958e-05
33 *4862:CLK *838:88 0.00022453
34 *4895:CLK *4995:A 0.000490464
35 *4896:CLK *4995:A 5.26184e-05
36 *4897:CLK *4620:B1 5.58941e-05
37 *4897:CLK *4995:A 0
38 *4897:CLK *849:43 0.000150625
39 *4897:CLK *1011:21 0.000125731
40 *4897:CLK *1011:36 0.000175519
41 *4898:CLK *4656:A1 0
42 *4898:CLK *800:14 7.50473e-05
43 *4898:CLK *1011:54 0
44 *4901:CLK *4725:A1 0
45 *4901:CLK *4725:A2 0
46 *778:25 *4725:A1 7.80714e-06
47 *778:25 *4725:A2 0.00023851
48 *778:25 *846:47 0
49 *778:27 *4725:A1 9.69119e-06
50 *778:27 *1011:38 0
51 *778:27 *1011:40 0
52 *778:27 *1011:116 0
53 *778:29 *849:51 0.000391576
54 *778:29 *849:55 0
55 *778:29 *849:102 0
56 *778:29 *1011:40 0
57 *778:29 *1011:42 0
58 *778:31 *4210:C1 0
59 *778:31 *849:55 0
60 *778:31 *1011:42 0
61 *778:31 *1011:44 0
62 *778:31 *1011:54 0
63 *778:33 *4210:C1 0
64 *778:33 *1011:54 0
65 *778:67 *4210:A1 7.77751e-05
66 *778:67 *4210:B1 0.000186669
67 *778:67 *5024:A 0
68 *778:71 *4210:B1 0
69 *778:71 *4212:A2 2.61337e-05
70 *778:71 *4212:C1 0
71 *778:71 *838:57 0.00030178
72 *778:80 *4212:C1 0
73 *778:80 *838:57 0.000120402
74 *778:80 *838:66 9.47456e-05
75 *778:91 *838:66 0.000120402
76 *778:91 *838:75 9.80029e-05
77 *778:161 *4720:A 5.62995e-05
78 *778:161 *4721:B 4.69993e-05
79 *778:161 *4725:A1 9.66517e-05
80 *778:161 *964:14 0.00027323
81 rdata[16] *4862:CLK 0
82 *4703:A *778:161 5.33433e-05
83 *4713:C1 *778:29 0.000125717
84 *4722:B *778:161 9.47028e-05
85 *4723:A1 *778:161 0.000268403
86 *4723:A2 *778:161 0.000238028
87 *4725:B1 *778:25 5.64858e-05
88 *4725:B2 *778:27 0
89 *4728:A *778:25 0
90 *4856:D *778:80 2.8266e-06
91 *4856:D *778:91 5.57914e-05
92 *4857:D *4857:CLK 2.89114e-05
93 *4858:D *778:67 9.34379e-05
94 *4859:D *778:71 0
95 *4860:D *778:71 4.1331e-06
96 *4860:D *778:80 5.80217e-05
97 *4861:D *4862:CLK 7.92879e-05
98 *4861:D *778:91 4.46186e-06
99 *4862:D *4862:CLK 5.71472e-05
100 *4897:D *4897:CLK 1.69115e-05
101 *4900:D *778:29 0
102 *4941:A *4857:CLK 1.82833e-05
103 *181:60 *4901:CLK 0
104 *181:60 *778:8 0
105 *656:23 *778:161 6.87574e-05
106 *663:21 *778:161 3.33238e-05
107 *671:14 *4897:CLK 0
108 *672:8 *778:161 4.72595e-05
109 *674:6 *778:161 1.02821e-05
*RES
1 *4924:X *778:8 15.7464 
2 *778:8 *4901:CLK 16.6571 
3 *778:8 *778:25 17.3929 
4 *778:25 *778:27 5.58929 
5 *778:27 *778:29 9.23214 
6 *778:29 *778:31 3.16071 
7 *778:31 *778:33 4.67857 
8 *778:33 *4898:CLK 18.2464 
9 *778:33 *778:50 16.125 
10 *778:50 *4858:CLK 9.3 
11 *778:50 *778:67 16.8571 
12 *778:67 *778:71 14.0357 
13 *778:71 *4860:CLK 13.8 
14 *778:71 *778:80 4.98214 
15 *778:80 *4856:CLK 14.7464 
16 *778:80 *778:91 4.98214 
17 *778:91 *4861:CLK 14.3357 
18 *778:91 *4862:CLK 25.2464 
19 *778:67 *4859:CLK 10.6571 
20 *778:31 *4899:CLK 13.8 
21 *778:29 *4857:CLK 31.8179 
22 *778:27 *4900:CLK 13.8 
23 *778:25 *778:161 23.9286 
24 *778:161 *778:163 2.17857 
25 *778:163 *4896:CLK 22.425 
26 *778:163 *4895:CLK 29.9607 
27 *778:161 *4897:CLK 26.0143 
*END

*D_NET *779 0.0214549
*CONN
*I *4872:CLK I *D sky130_fd_sc_hd__dfxtp_1
*I *4854:CLK I *D sky130_fd_sc_hd__dfxtp_1
*I *4871:CLK I *D sky130_fd_sc_hd__dfxtp_1
*I *4874:CLK I *D sky130_fd_sc_hd__dfxtp_1
*I *4853:CLK I *D sky130_fd_sc_hd__dfxtp_1
*I *4875:CLK I *D sky130_fd_sc_hd__dfxtp_1
*I *4916:CLK I *D sky130_fd_sc_hd__dfxtp_1
*I *4914:CLK I *D sky130_fd_sc_hd__dfxtp_1
*I *4873:CLK I *D sky130_fd_sc_hd__dfxtp_1
*I *4912:CLK I *D sky130_fd_sc_hd__dfxtp_1
*I *4913:CLK I *D sky130_fd_sc_hd__dfxtp_1
*I *4893:CLK I *D sky130_fd_sc_hd__dfxtp_1
*I *4915:CLK I *D sky130_fd_sc_hd__dfxtp_1
*I *4894:CLK I *D sky130_fd_sc_hd__dfxtp_1
*I *4925:X O *D sky130_fd_sc_hd__clkbuf_16
*CAP
1 *4872:CLK 0.000266453
2 *4854:CLK 8.63515e-05
3 *4871:CLK 0
4 *4874:CLK 2.13113e-05
5 *4853:CLK 0
6 *4875:CLK 0
7 *4916:CLK 0.000260691
8 *4914:CLK 0.000380484
9 *4873:CLK 0.000419278
10 *4912:CLK 0
11 *4913:CLK 0
12 *4893:CLK 0
13 *4915:CLK 0.00091003
14 *4894:CLK 0.000487758
15 *4925:X 0.00028046
16 *779:158 0.000625512
17 *779:110 0.00111819
18 *779:102 0.000602406
19 *779:100 0.000956594
20 *779:92 0.00137409
21 *779:82 0.000631535
22 *779:80 0.000660947
23 *779:65 0.00109936
24 *779:56 0.000785518
25 *779:29 0.00151589
26 *779:25 0.00103281
27 *779:10 0.00153516
28 *779:8 0.00128462
29 *4854:CLK *4202:A1 6.13903e-05
30 *4872:CLK *4202:A1 5.49995e-05
31 *4872:CLK *5019:A 3.63775e-05
32 *4872:CLK *944:8 0.000393252
33 *4872:CLK *967:41 5.50052e-05
34 *4873:CLK *4240:A1 0.000146533
35 *4873:CLK *5023:A 0.000276211
36 *4873:CLK *5088:A 8.18783e-05
37 *4894:CLK *4502:S 9.92409e-05
38 *4894:CLK *4503:A 0
39 *4894:CLK *4800:A 4.46186e-06
40 *4894:CLK *845:28 0
41 *4894:CLK *845:88 0
42 *4914:CLK *820:16 6.07626e-05
43 *4914:CLK *820:36 1.65558e-05
44 *4915:CLK *4819:B 5.52238e-05
45 *4915:CLK *844:81 0
46 *4916:CLK *4243:B 0.000739579
47 *779:8 *4792:B 5.71472e-05
48 *779:8 *4807:A3 0.000104186
49 *779:10 *4239:A 4.00025e-05
50 *779:10 *4800:A 4.35131e-05
51 *779:10 *4807:A3 0.000175519
52 *779:10 *816:21 7.38748e-05
53 *779:10 *816:30 0.000263307
54 *779:10 *961:35 0.00014388
55 *779:25 *816:8 5.41494e-05
56 *779:56 *4239:A 0.000414602
57 *779:65 *4239:A 2.84398e-05
58 *779:65 *4240:C1 0
59 *779:65 *966:104 0
60 *779:80 *4240:C1 0
61 *779:82 *4242:A1 3.4689e-05
62 *779:92 *4242:A1 3.54498e-05
63 *779:100 *4950:A 0.000180195
64 *779:100 *849:8 5.33005e-05
65 *779:102 *4947:A 0.000100165
66 *779:102 *845:10 3.24049e-05
67 *779:110 *4244:A1 1.78393e-05
68 *779:110 *4244:A2 0
69 *779:110 *820:36 4.75428e-05
70 *779:158 *944:8 7.15503e-05
71 *4236:B2 *779:65 0
72 *4236:B2 *779:80 0
73 *4244:B2 *4916:CLK 0.000221634
74 *4814:B *779:56 0
75 *4820:B1 *4915:CLK 1.92789e-05
76 *4831:A1 *4914:CLK 9.25014e-06
77 *4854:D *4854:CLK 0.000127939
78 *4871:D *779:80 5.09908e-05
79 *4871:D *779:82 0.000146187
80 *4871:D *779:158 8.43386e-05
81 *4873:D *4873:CLK 0.000103323
82 *4874:D *779:92 3.11667e-05
83 *4875:D *779:110 3.61939e-05
84 *4893:D *779:29 1.64343e-05
85 *4913:D *779:25 5.7298e-05
86 *4915:D *4915:CLK 7.66377e-05
87 *4916:D *4916:CLK 1.64343e-05
88 *200:16 *4872:CLK 4.97967e-05
89 *365:12 *4915:CLK 1.92789e-05
*RES
1 *4925:X *779:8 18.0321 
2 *779:8 *779:10 12.875 
3 *779:10 *4894:CLK 22.675 
4 *779:10 *779:25 12.0179 
5 *779:25 *779:29 9.58929 
6 *779:29 *4915:CLK 34.175 
7 *779:29 *4893:CLK 9.3 
8 *779:25 *4913:CLK 9.3 
9 *779:8 *779:56 9.53571 
10 *779:56 *4912:CLK 13.8 
11 *779:56 *779:65 7.10714 
12 *779:65 *4873:CLK 23.0857 
13 *779:65 *779:80 9.48214 
14 *779:80 *779:82 2.58929 
15 *779:82 *779:92 16.0179 
16 *779:92 *779:100 22.5714 
17 *779:100 *779:102 2.58929 
18 *779:102 *779:110 13.0893 
19 *779:110 *4914:CLK 20.4786 
20 *779:110 *4916:CLK 21.3357 
21 *779:102 *4875:CLK 9.3 
22 *779:100 *4853:CLK 9.3 
23 *779:92 *4874:CLK 9.72857 
24 *779:82 *4871:CLK 9.3 
25 *779:80 *779:158 5.48214 
26 *779:158 *4854:CLK 20.55 
27 *779:158 *4872:CLK 15.5857 
*END

*D_NET *780 0.0197828
*CONN
*I *4869:CLK I *D sky130_fd_sc_hd__dfxtp_1
*I *4908:CLK I *D sky130_fd_sc_hd__dfxtp_1
*I *4868:CLK I *D sky130_fd_sc_hd__dfxtp_1
*I *4867:CLK I *D sky130_fd_sc_hd__dfxtp_1
*I *4907:CLK I *D sky130_fd_sc_hd__dfxtp_1
*I *4911:CLK I *D sky130_fd_sc_hd__dfxtp_1
*I *4909:CLK I *D sky130_fd_sc_hd__dfxtp_1
*I *4932:A I *D sky130_fd_sc_hd__clkinvlp_4
*I *4910:CLK I *D sky130_fd_sc_hd__dfxtp_2
*I *4903:CLK I *D sky130_fd_sc_hd__dfxtp_1
*I *4926:X O *D sky130_fd_sc_hd__clkbuf_16
*CAP
1 *4869:CLK 0.000555066
2 *4908:CLK 0
3 *4868:CLK 0.000124421
4 *4867:CLK 0.000482724
5 *4907:CLK 0
6 *4911:CLK 0.000230355
7 *4909:CLK 0
8 *4932:A 7.00402e-05
9 *4910:CLK 0.000131935
10 *4903:CLK 0.00062257
11 *4926:X 0.0004715
12 *780:112 0.0012469
13 *780:101 0.00136225
14 *780:89 0.0015144
15 *780:73 0.00208525
16 *780:49 0.000247819
17 *780:47 0.00148557
18 *780:12 0.00134557
19 *780:10 0.000701994
20 *780:8 0.00124221
21 *4867:CLK *4228:A2 3.34672e-05
22 *4867:CLK *4228:B1 0
23 *4867:CLK *4228:C1 0
24 *4867:CLK *837:91 2.19684e-05
25 *4868:CLK *4228:C1 0
26 *4868:CLK *4230:B1 0
27 *4903:CLK *4786:B1 7.80714e-06
28 *4903:CLK *805:10 0.00018077
29 *4903:CLK *805:42 0.000107503
30 *4903:CLK *845:49 4.8476e-05
31 *4903:CLK *971:41 0
32 *4910:CLK *845:43 2.89016e-05
33 *4911:CLK *4777:A 0.000150368
34 *4911:CLK *4777:B 6.3595e-05
35 *780:8 *809:28 0.000136958
36 *780:10 *962:34 6.39901e-05
37 *780:12 *4751:A 0
38 *780:12 *4786:B1 2.18827e-05
39 *780:12 *833:17 0
40 *780:12 *962:34 1.76135e-05
41 *780:12 *971:37 2.39148e-05
42 *780:12 *971:41 0
43 *780:47 *4780:A4 0
44 *780:47 *4790:A 6.26653e-05
45 *780:47 *834:60 0
46 *780:47 *835:77 0
47 *780:47 *962:34 2.26327e-05
48 *780:47 *962:75 0.000107503
49 *780:49 *4777:A 1.39726e-05
50 *780:49 *4777:B 2.89016e-05
51 *780:73 *4777:A 0.000118604
52 *780:73 *4777:B 0.000269742
53 *780:73 *812:6 2.89114e-05
54 *780:89 *4773:B1 4.08653e-05
55 *780:89 *811:6 4.9773e-05
56 *780:89 *811:12 9.99644e-06
57 *780:89 *834:12 0.000535248
58 *780:89 *847:12 7.6644e-05
59 *780:89 *847:33 0.000274294
60 *780:101 *4763:B1_N 0
61 *780:101 *4765:A1 0.000435584
62 *780:101 *4773:A1 0
63 *780:101 *4773:B1 0
64 *780:101 *810:6 8.25165e-05
65 *780:101 *834:12 0
66 *780:101 *834:18 0
67 *780:101 *847:33 0
68 *780:101 *847:35 0
69 *780:112 *4227:A 8.52803e-05
70 *780:112 *4765:A2 0
71 *780:112 *810:6 0.000659155
72 *4765:C1 *780:101 1.88048e-05
73 *4784:B *780:12 0.000144038
74 *4785:A1 *780:12 0
75 *4786:C1 *780:12 0.000321745
76 *4867:D *4867:CLK 0
77 *4903:D *4903:CLK 0.000453825
78 *4907:D *780:101 5.71472e-05
79 *4907:D *780:112 0.000117573
80 *4908:D *780:89 1.92789e-05
81 *4909:D *780:47 1.19309e-05
82 *4909:D *780:73 5.95099e-05
83 *4910:D *4903:CLK 9.25014e-06
84 *4910:D *4910:CLK 1.64343e-05
85 *4910:D *780:12 0.000164547
86 *183:53 *4932:A 7.32272e-05
87 *723:10 *780:10 0.000126439
88 *723:10 *780:12 0.000209491
89 *723:10 *780:47 0.000202842
90 *726:21 *780:12 0
91 *745:24 *780:12 4.66096e-05
*RES
1 *4926:X *780:8 19.2643 
2 *780:8 *780:10 1.64286 
3 *780:10 *780:12 12.875 
4 *780:12 *4903:CLK 27.2286 
5 *780:12 *4910:CLK 15.9964 
6 *780:10 *4932:A 15.1571 
7 *780:8 *780:47 19.8036 
8 *780:47 *780:49 0.535714 
9 *780:49 *4909:CLK 9.3 
10 *780:49 *4911:CLK 14.425 
11 *780:47 *780:73 19 
12 *780:73 *780:89 27.3036 
13 *780:89 *780:101 23.3393 
14 *780:101 *4907:CLK 9.3 
15 *780:101 *780:112 17.7857 
16 *780:112 *4867:CLK 22.4607 
17 *780:112 *4868:CLK 15.7464 
18 *780:89 *4908:CLK 9.3 
19 *780:73 *4869:CLK 23.6393 
*END

*D_NET *781 0.0106929
*CONN
*I *4992:A I *D sky130_fd_sc_hd__clkbuf_2
*I *4991:A I *D sky130_fd_sc_hd__buf_2
*I *4838:Q O *D sky130_fd_sc_hd__dfxtp_1
*CAP
1 *4992:A 0.00127658
2 *4991:A 0.000139419
3 *4838:Q 0
4 *781:33 0.0036411
5 *781:4 0.00250393
6 *4991:A *4975:A 7.6021e-05
7 *4991:A *1004:43 7.8327e-05
8 *4991:A *1007:23 0.00013616
9 *4992:A *4423:A1 1.53439e-06
10 *4992:A *977:68 6.86792e-05
11 *4992:A *1003:45 0.00012401
12 *4992:A *1003:54 0.000216057
13 *4992:A *1006:30 0.000100831
14 *4992:A *1006:45 0.000251915
15 *781:33 *4199:A2 7.83659e-05
16 *781:33 *4269:A 0.000102197
17 *781:33 *4423:A1 6.21606e-05
18 *781:33 *4423:B1 4.43355e-05
19 *781:33 *4423:B2 5.52238e-05
20 *781:33 *4989:A 9.01258e-06
21 *781:33 *4990:A 0.000190391
22 *781:33 *841:77 4.87953e-05
23 *781:33 *988:55 6.86693e-05
24 *4424:B *781:33 5.71472e-05
25 *4429:A1 *781:33 0.000546593
26 *4429:A2 *781:33 1.40034e-05
27 *4483:C *4992:A 2.42547e-05
28 *4484:A1 *4992:A 0.000276211
29 *4484:B1 *4992:A 2.89114e-05
30 *4839:D *781:33 4.85545e-05
31 *343:21 *781:33 1.98839e-05
32 *386:25 *781:33 7.6644e-05
33 *442:6 *4992:A 6.22419e-05
34 *773:10 *4991:A 0.000264749
*RES
1 *4838:Q *781:4 9.3 
2 *781:4 *4991:A 22.8357 
3 *781:4 *781:33 42.3661 
4 *781:33 *4992:A 36.9696 
*END

*D_NET *782 0.00663068
*CONN
*I *4990:A I *D sky130_fd_sc_hd__clkbuf_2
*I *4989:A I *D sky130_fd_sc_hd__buf_2
*I *4839:Q O *D sky130_fd_sc_hd__dfxtp_1
*CAP
1 *4990:A 0.00245518
2 *4989:A 0.000186374
3 *4839:Q 0
4 *782:4 0.00264156
5 *4989:A *1005:17 0
6 *4990:A *977:68 2.11419e-05
7 *4990:A *999:29 1.94945e-05
8 *4477:B1_N *4990:A 9.99644e-06
9 *199:10 *4990:A 0
10 *386:12 *4990:A 5.33005e-05
11 *386:25 *4990:A 0.000124521
12 *436:14 *4990:A 0.00091971
13 *781:33 *4989:A 9.01258e-06
14 *781:33 *4990:A 0.000190391
*RES
1 *4839:Q *782:4 9.3 
2 *782:4 *4989:A 20.8893 
3 *782:4 *4990:A 45.9674 
*END

*D_NET *783 0.000173911
*CONN
*I *4988:A I *D sky130_fd_sc_hd__buf_2
*I *4840:Q O *D sky130_fd_sc_hd__dfxtp_1
*CAP
1 *4988:A 5.69845e-05
2 *4840:Q 5.69845e-05
3 *4840:CLK *4988:A 5.99423e-05
*RES
1 *4840:Q *4988:A 19.8679 
*END

*D_NET *784 0.0123648
*CONN
*I *4986:A I *D sky130_fd_sc_hd__clkbuf_2
*I *4985:A I *D sky130_fd_sc_hd__buf_2
*I *4841:Q O *D sky130_fd_sc_hd__dfxtp_1
*CAP
1 *4986:A 0.000725235
2 *4985:A 3.58312e-05
3 *4841:Q 3.99254e-05
4 *784:17 0.0028725
5 *784:15 0.00214726
6 *784:6 7.57566e-05
7 *4985:A *884:16 1.02132e-05
8 *4986:A *4271:A 0.000166093
9 *4986:A *4271:B 0.000114759
10 *4986:A *5067:A 0.000217546
11 *4986:A *843:42 9.21933e-05
12 *4986:A *972:16 0
13 *4986:A *972:32 0.000638987
14 *4986:A *974:14 0.000140719
15 *4986:A *989:48 0.000240217
16 *4986:A *1001:40 0.000851134
17 *4986:A *1004:49 0
18 *4986:A *1004:57 6.32411e-05
19 *784:6 *884:16 2.31395e-05
20 *784:17 *4155:C 0
21 *784:17 *4165:A 0.000121842
22 *784:17 *4972:A 0
23 *784:17 *974:24 0
24 *784:17 *974:26 0
25 *784:17 *989:48 9.45108e-06
26 *784:17 *1004:27 5.33614e-05
27 *784:17 *1004:43 0.000411289
28 *784:17 *1004:49 0.000210875
29 *784:17 *1004:57 3.77692e-05
30 *4162:S *784:17 0
31 *4268:B *784:17 9.91224e-05
32 *5068:A *4986:A 0.000143651
33 *170:27 *784:17 0
34 *170:98 *784:17 6.70394e-05
35 *180:44 *784:17 7.2412e-05
36 *182:14 *784:17 0.000708044
37 *182:39 *784:17 3.56358e-05
38 *234:25 *784:17 0.000674431
39 *245:27 *4986:A 0
40 *774:64 *784:17 0.000768002
41 *774:68 *784:17 0.000497123
*RES
1 *4841:Q *784:6 9.83571 
2 *784:6 *4985:A 10.0321 
3 *784:6 *784:15 4.5 
4 *784:15 *784:17 50.5804 
5 *784:17 *4986:A 36.2196 
*END

*D_NET *785 0.000160696
*CONN
*I *4984:A I *D sky130_fd_sc_hd__buf_2
*I *4842:Q O *D sky130_fd_sc_hd__dfxtp_1
*CAP
1 *4984:A 6.58974e-05
2 *4842:Q 6.58974e-05
3 *4984:A *4983:A 2.89016e-05
*RES
1 *4842:Q *4984:A 19.8679 
*END

*D_NET *786 0.00104763
*CONN
*I *4982:A I *D sky130_fd_sc_hd__buf_2
*I *4843:Q O *D sky130_fd_sc_hd__dfxtp_1
*CAP
1 *4982:A 0.00027591
2 *4843:Q 0.00027591
3 *4982:A *4166:A1 7.77652e-05
4 *4982:A *995:40 0.000178111
5 *4982:A *997:23 6.4443e-05
6 *4982:A *998:25 0.000175493
7 *4167:B *4982:A 0
8 *170:59 *4982:A 0
*RES
1 *4843:Q *4982:A 34.975 
*END

*D_NET *787 0.000877548
*CONN
*I *4980:A I *D sky130_fd_sc_hd__clkbuf_4
*I *4844:Q O *D sky130_fd_sc_hd__dfxtp_1
*CAP
1 *4980:A 0.000313568
2 *4844:Q 0.000313568
3 *4980:A *792:25 0.000201626
4 *4980:A *981:21 4.87854e-05
5 *4980:A *981:31 0
6 *4980:A *983:10 0
7 *4980:A *983:29 0
*RES
1 *4844:Q *4980:A 33.3679 
*END

*D_NET *788 0.00554381
*CONN
*I *4978:A I *D sky130_fd_sc_hd__buf_6
*I *4977:A I *D sky130_fd_sc_hd__buf_2
*I *4845:Q O *D sky130_fd_sc_hd__dfxtp_2
*CAP
1 *4978:A 0.000804539
2 *4977:A 0.000341423
3 *4845:Q 0.000606124
4 *788:8 0.00175209
5 *4977:A *4168:A0 0.000230475
6 *4977:A *4168:A1 6.58013e-05
7 *4977:A *4979:A 0.000274294
8 *4977:A *992:25 5.71472e-05
9 *4977:A *992:29 4.35131e-05
10 *4977:A *994:17 3.75052e-05
11 *4978:A *4554:A2 0
12 *4978:A *4979:A 0
13 *4978:A *981:31 0.000128161
14 *4978:A *981:68 0.000260986
15 *4978:A *981:85 0.000236821
16 *4978:A *981:98 0.000166983
17 *4978:A *992:29 3.34783e-05
18 *4978:A *993:19 0
19 *4978:A *994:43 2.6949e-05
20 *4978:A *995:21 0
21 *4978:A *995:40 0
22 *788:8 *841:118 0.000195396
23 *788:8 *984:27 2.87555e-06
24 *788:8 *992:25 0.000222986
25 *4168:S *4977:A 5.04589e-05
26 *4522:A2 *4978:A 5.80706e-06
*RES
1 *4845:Q *788:8 22.1393 
2 *788:8 *4977:A 22.1393 
3 *788:8 *4978:A 30.3179 
*END

*D_NET *789 0.00180252
*CONN
*I *4933:A I *D sky130_fd_sc_hd__clkbuf_1
*I *5102:A I *D sky130_fd_sc_hd__dlygate4sd1_1
*I *4976:A I *D sky130_fd_sc_hd__buf_8
*I *4878:Q O *D sky130_fd_sc_hd__dfxtp_4
*CAP
1 *4933:A 0.000165414
2 *5102:A 0
3 *4976:A 0.000195801
4 *4878:Q 8.04657e-05
5 *789:21 0.000257486
6 *789:8 0.000368338
7 *4933:A *859:16 5.62995e-05
8 *4976:A *990:10 0.000306042
9 *4976:A *990:14 4.58194e-05
10 *789:8 *4158:A1 0.000151333
11 *789:8 *4250:A0 0
12 *789:8 *4252:A1 9.25014e-06
13 *789:21 *4158:A1 0.000166269
14 *789:21 *4250:A0 0
*RES
1 *4878:Q *789:8 15.7464 
2 *789:8 *4976:A 17.6214 
3 *789:8 *789:21 6.75 
4 *789:21 *5102:A 9.3 
5 *789:21 *4933:A 12.3 
*END

*D_NET *790 0.00111894
*CONN
*I *4974:A I *D sky130_fd_sc_hd__buf_6
*I *4879:Q O *D sky130_fd_sc_hd__dfxtp_1
*CAP
1 *4974:A 0.00018057
2 *4879:Q 0.00018057
3 *4974:A *988:21 0.000449539
4 *4974:A *990:14 0.000248788
5 *4928:A *4974:A 2.46999e-05
6 *774:10 *4974:A 2.28428e-05
7 *774:12 *4974:A 1.19309e-05
*RES
1 *4879:Q *4974:A 34.0821 
*END

*D_NET *791 0.00128496
*CONN
*I *4972:A I *D sky130_fd_sc_hd__buf_4
*I *4880:Q O *D sky130_fd_sc_hd__dfxtp_1
*CAP
1 *4972:A 0.000484895
2 *4880:Q 0.000484895
3 *170:27 *4972:A 0.000315172
4 *784:17 *4972:A 0
*RES
1 *4880:Q *4972:A 35.6179 
*END

*D_NET *792 0.0171514
*CONN
*I *4378:A1 I *D sky130_fd_sc_hd__a22o_1
*I *4314:A1 I *D sky130_fd_sc_hd__a22oi_1
*I *4970:A I *D sky130_fd_sc_hd__buf_6
*I *4881:Q O *D sky130_fd_sc_hd__dfxtp_2
*CAP
1 *4378:A1 0
2 *4314:A1 0.0010834
3 *4970:A 9.78184e-05
4 *4881:Q 0.000103948
5 *792:33 0.00188446
6 *792:29 0.00186429
7 *792:25 0.00297797
8 *792:8 0.00211651
9 *4314:A1 *4314:A2 0.000125705
10 *4314:A1 *4314:B1 0.000186662
11 *4314:A1 *4378:B1 2.59355e-05
12 *4314:A1 *982:38 4.29471e-05
13 *4314:A1 *982:49 0
14 *4314:A1 *982:83 2.42577e-05
15 *4314:A1 *984:78 0.000335781
16 *4314:A1 *1000:97 0
17 *4314:A1 *1001:77 9.41642e-05
18 *4970:A *984:8 6.05161e-06
19 *4970:A *984:27 0.000117436
20 *792:8 *4162:A1 0
21 *792:25 *4162:A1 0
22 *792:25 *4258:A1 3.30237e-05
23 *792:25 *981:21 0.000455707
24 *792:25 *981:31 0.000523458
25 *792:25 *984:46 0.000529363
26 *792:25 *995:8 1.92905e-05
27 *792:29 *4422:D 0.000848983
28 *792:29 *983:60 5.34659e-05
29 *792:29 *983:70 8.2395e-05
30 *792:29 *983:89 2.25929e-05
31 *792:29 *984:46 0
32 *792:29 *997:136 5.4061e-05
33 *792:29 *998:29 0.000478012
34 *792:29 *998:46 0.000126439
35 *792:29 *1000:43 0.000556618
36 *792:29 *1000:76 2.82057e-05
37 *792:29 *1000:89 0.000406139
38 *792:33 *4968:A 0
39 *792:33 *982:23 0.00020071
40 *792:33 *982:38 6.7848e-05
41 *792:33 *983:89 6.676e-06
42 *792:33 *984:59 0
43 *792:33 *1000:89 0.000390395
44 *4258:S *792:25 5.52302e-05
45 *4259:B *792:25 9.68208e-05
46 *4351:B *4314:A1 0
47 *4433:A2 *792:33 5.59013e-05
48 *4600:A *792:29 0.000335667
49 *4625:A2 *792:29 0.000106403
50 *4980:A *792:25 0.000201626
51 *310:12 *4314:A1 0
52 *314:14 *4314:A1 0.000125724
53 *339:14 *792:33 3.5707e-05
54 *350:14 *4314:A1 1.74352e-05
55 *385:12 *792:33 7.4826e-05
56 *554:8 *792:25 7.53208e-05
*RES
1 *4881:Q *792:8 15.4429 
2 *792:8 *4970:A 15.9786 
3 *792:8 *792:25 47.5179 
4 *792:25 *792:29 32.5446 
5 *792:29 *792:33 22.2232 
6 *792:33 *4314:A1 42.0857 
7 *792:33 *4378:A1 9.3 
*END

*D_NET *793 0.0101007
*CONN
*I *4968:A I *D sky130_fd_sc_hd__clkbuf_2
*I *4967:A I *D sky130_fd_sc_hd__buf_2
*I *4882:Q O *D sky130_fd_sc_hd__dfxtp_1
*CAP
1 *4968:A 0.00148046
2 *4967:A 0.000259144
3 *4882:Q 0
4 *793:21 0.00358267
5 *793:4 0.00236136
6 *4967:A *840:53 0
7 *4967:A *1000:35 0.000148105
8 *4968:A *4423:A1 0.000245465
9 *4968:A *4468:A 0.000175512
10 *4968:A *4468:C 2.6949e-05
11 *4968:A *4469:B1 0.000152333
12 *4968:A *981:102 0.000596908
13 *4968:A *983:70 0
14 *4968:A *983:89 0
15 *4968:A *984:46 0.000535916
16 *4968:A *985:65 0.000132477
17 *4968:A *985:90 3.20153e-05
18 *4968:A *996:49 0.0001008
19 *4968:A *996:53 5.90443e-06
20 *4968:A *1000:97 0.000222885
21 *793:21 *4259:A 4.17806e-05
22 *4459:B1 *4968:A 0
23 *224:44 *4967:A 0
24 *382:10 *4968:A 0
25 *385:12 *4968:A 0
26 *516:23 *4968:A 0
27 *792:33 *4968:A 0
*RES
1 *4882:Q *793:4 9.3 
2 *793:4 *4967:A 22.8357 
3 *793:4 *793:21 28.4464 
4 *793:21 *4968:A 49.7464 
*END

*D_NET *794 0.000509097
*CONN
*I *4966:A I *D sky130_fd_sc_hd__buf_2
*I *4883:Q O *D sky130_fd_sc_hd__dfxtp_1
*CAP
1 *4966:A 0.000105506
2 *4883:Q 0.000105506
3 *4966:A *841:118 0.000148182
4 *4966:A *975:105 0.000149904
*RES
1 *4883:Q *4966:A 30.0821 
*END

*D_NET *795 0.00101463
*CONN
*I *4964:A I *D sky130_fd_sc_hd__buf_2
*I *4884:Q O *D sky130_fd_sc_hd__dfxtp_1
*CAP
1 *4964:A 0.000194446
2 *4884:Q 0.000194446
3 *4964:A *796:23 0.000449539
4 *4964:A *977:23 0.000176196
*RES
1 *4884:Q *4964:A 33.7786 
*END

*D_NET *796 0.0129285
*CONN
*I *4417:D I *D sky130_fd_sc_hd__and4b_1
*I *4461:D I *D sky130_fd_sc_hd__and4b_1
*I *4507:D I *D sky130_fd_sc_hd__and4b_1
*I *4962:A I *D sky130_fd_sc_hd__buf_6
*I *4885:Q O *D sky130_fd_sc_hd__dfxtp_2
*CAP
1 *4417:D 0.000604492
2 *4461:D 8.70031e-05
3 *4507:D 1.47562e-05
4 *4962:A 0
5 *4885:Q 0.000168364
6 *796:36 0.00112937
7 *796:25 0.00200604
8 *796:23 0.00359366
9 *796:12 0.00220861
10 *4417:D *4418:B2 3.76865e-05
11 *4461:D *4461:C 0.000142856
12 *796:12 *4168:A1 0
13 *796:12 *4170:A1 8.15939e-05
14 *796:23 *975:63 0.000135028
15 *796:23 *977:6 1.40306e-05
16 *796:23 *977:23 0.000551769
17 *796:23 *994:94 8.25843e-06
18 *796:25 *4549:D 0
19 *796:25 *975:74 0
20 *796:25 *977:46 0.00033407
21 *796:36 *977:52 0
22 *4262:S *796:12 2.89114e-05
23 *4415:A *4417:D 2.07158e-05
24 *4418:A1_N *4417:D 0.000128001
25 *4418:B1 *4417:D 0.000384472
26 *4418:B1 *796:36 9.69119e-06
27 *4419:A *4417:D 6.7848e-05
28 *4462:B *4417:D 0
29 *4508:A *4507:D 2.3541e-05
30 *4550:B *796:25 0
31 *4593:B *796:25 0
32 *4623:A1 *796:25 5.7616e-05
33 *4633:B *796:25 0
34 *4634:A *796:25 0
35 *4964:A *796:23 0.000449539
36 *224:56 *796:12 2.59355e-05
37 *377:6 *4417:D 5.71472e-05
38 *465:23 *796:25 0
39 *466:12 *796:36 0
40 *479:16 *796:25 0
41 *507:12 *796:25 0.000320024
42 *509:10 *796:25 0
43 *519:20 *796:25 0
44 *546:10 *796:25 0.000237521
45 *547:27 *796:25 0
46 *549:12 *796:25 0
47 *585:10 *796:25 0
48 *587:10 *796:25 0
49 *590:10 *796:25 0
*RES
1 *4885:Q *796:12 21.1929 
2 *796:12 *4962:A 9.3 
3 *796:12 *796:23 40.375 
4 *796:23 *796:25 30.7857 
5 *796:25 *4507:D 14.0366 
6 *796:25 *796:36 7.71429 
7 *796:36 *4461:D 15.6795 
8 *796:36 *4417:D 26.867 
*END

*D_NET *797 0.00361786
*CONN
*I *4266:B1 I *D sky130_fd_sc_hd__a31o_1
*I *4267:A I *D sky130_fd_sc_hd__and3_1
*I *4177:B2 I *D sky130_fd_sc_hd__a22o_1
*I *4886:Q O *D sky130_fd_sc_hd__dfxtp_1
*CAP
1 *4266:B1 0
2 *4267:A 0
3 *4177:B2 0.000135872
4 *4886:Q 0.000299484
5 *797:24 0.000573766
6 *797:12 0.000737378
7 *4177:B2 *4177:A1 2.14757e-05
8 *4177:B2 *4975:A 0.000146474
9 *4177:B2 *1004:43 0.000148196
10 *4177:B2 *1007:42 4.58194e-05
11 *797:24 *4178:A1 9.41642e-05
12 *797:24 *4180:A1 7.03295e-05
13 *797:24 *4180:B2 0.00035744
14 *797:24 *4975:A 0.000140933
15 *797:24 *1005:17 0.000367389
16 *4178:B1 *4177:B2 2.59355e-05
17 *4268:B *4177:B2 0.000177815
18 *4269:C *797:24 0.000252969
19 *180:86 *797:12 0
20 *181:38 *4177:B2 2.24195e-05
*RES
1 *4886:Q *797:12 23.7643 
2 *797:12 *797:24 21.3393 
3 *797:24 *4177:B2 22.425 
4 *797:24 *4267:A 9.3 
5 *797:12 *4266:B1 9.3 
*END

*D_NET *798 0.00961547
*CONN
*I *4205:A I *D sky130_fd_sc_hd__and2_1
*I *4588:A2 I *D sky130_fd_sc_hd__o211a_1
*I *4582:A I *D sky130_fd_sc_hd__nand2_1
*I *4583:A I *D sky130_fd_sc_hd__xnor2_1
*I *4896:Q O *D sky130_fd_sc_hd__dfxtp_1
*CAP
1 *4205:A 0
2 *4588:A2 5.16984e-05
3 *4582:A 0.000204764
4 *4583:A 0
5 *4896:Q 0
6 *798:59 0.00125325
7 *798:16 0.00087923
8 *798:8 0.00141518
9 *798:4 0.00194226
10 *4588:A2 *4588:B1 1.04232e-05
11 *798:8 *4588:B1 7.97655e-05
12 *798:16 *4588:B1 6.78055e-06
13 *798:59 *4588:B1 0.000174804
14 *798:59 *5041:A 0
15 *798:59 *803:12 0.00148994
16 *798:59 *846:41 0.000127463
17 *798:59 *846:47 2.28499e-05
18 *798:59 *847:86 0.000498922
19 *798:59 *964:8 0.000186669
20 *798:59 *971:83 0
21 *798:59 *971:87 0
22 *4618:A2 *4582:A 7.83587e-05
23 *4725:B1 *798:59 4.43256e-05
24 *4725:B2 *798:59 0.000228558
25 *4727:B1_N *798:59 9.90367e-05
26 *4896:D *798:8 4.60276e-05
27 *4901:D *798:59 0.000183924
28 *181:60 *798:59 0.000212831
29 *540:12 *798:16 0
30 *542:10 *4582:A 0.000148911
31 *542:10 *798:16 0
32 *604:10 *4582:A 0.000207977
33 *679:14 *798:59 2.15245e-05
*RES
1 *4896:Q *798:4 9.3 
2 *798:4 *798:8 8.76786 
3 *798:8 *798:16 18.125 
4 *798:16 *4583:A 9.3 
5 *798:16 *4582:A 23.3357 
6 *798:8 *4588:A2 10.3357 
7 *798:4 *798:59 42.8571 
8 *798:59 *4205:A 9.3 
*END

*D_NET *799 0.00485546
*CONN
*I *5038:A I *D sky130_fd_sc_hd__dlygate4sd3_1
*I *4207:A I *D sky130_fd_sc_hd__and2_1
*I *4616:A I *D sky130_fd_sc_hd__and2_1
*I *4617:A I *D sky130_fd_sc_hd__xnor2_1
*I *4897:Q O *D sky130_fd_sc_hd__dfxtp_1
*CAP
1 *5038:A 0.000180562
2 *4207:A 0.000626698
3 *4616:A 0
4 *4617:A 0.000200288
5 *4897:Q 0
6 *799:14 0.000661719
7 *799:8 0.00121137
8 *799:6 0.000303802
9 *4616:B *4617:A 0.000179372
10 *4616:B *799:14 0.00010096
11 *4707:A1 *799:8 1.19402e-05
12 *4707:A1 *799:14 5.35516e-05
13 *181:54 *4207:A 0.000271052
14 *181:56 *4207:A 0.00030086
15 *572:6 *799:14 0.000753287
16 *654:18 *5038:A 0
17 *654:18 *799:8 0
18 *671:14 *5038:A 0
19 *671:14 *799:8 0
20 *671:14 *799:14 0
*RES
1 *4897:Q *799:6 13.8 
2 *799:6 *799:8 2.25 
3 *799:8 *799:14 15.5 
4 *799:14 *4617:A 13.4607 
5 *799:14 *4616:A 9.3 
6 *799:8 *4207:A 26.6929 
7 *799:6 *5038:A 16.9607 
*END

*D_NET *800 0.00417833
*CONN
*I *4209:A I *D sky130_fd_sc_hd__and2_1
*I *4652:A I *D sky130_fd_sc_hd__and2_1
*I *4653:B I *D sky130_fd_sc_hd__xnor2_2
*I *4656:A2 I *D sky130_fd_sc_hd__o211a_1
*I *4898:Q O *D sky130_fd_sc_hd__dfxtp_1
*CAP
1 *4209:A 0.000463208
2 *4652:A 0.000135452
3 *4653:B 0.000133132
4 *4656:A2 0
5 *4898:Q 0
6 *800:27 0.000627531
7 *800:14 0.000828792
8 *800:4 0.000933053
9 *4209:A *4210:C1 0
10 *800:14 *4655:A 1.74352e-05
11 *800:14 *4656:A1 2.08464e-05
12 *800:14 *1011:54 6.84283e-05
13 *800:27 *4655:A 0.000183726
14 *800:27 *4656:A1 3.57366e-05
15 *4653:A *4652:A 0
16 *4654:A *4652:A 1.00375e-05
17 *4654:A *800:27 2.44318e-05
18 *4654:B *800:27 0.000139913
19 *4655:B *800:27 4.74567e-05
20 *4656:C1 *800:14 1.3701e-05
21 *4656:C1 *800:27 5.62995e-05
22 *4898:CLK *800:14 7.50473e-05
23 *4898:D *800:14 0.000173823
24 *607:8 *4652:A 4.29179e-05
25 *608:10 *4652:A 3.34295e-05
26 *654:12 *4653:B 8.45221e-05
27 *654:18 *4652:A 2.94103e-05
*RES
1 *4898:Q *800:4 9.3 
2 *800:4 *800:14 10.3571 
3 *800:14 *4656:A2 9.3 
4 *800:14 *800:27 7.67857 
5 *800:27 *4653:B 11.4964 
6 *800:27 *4652:A 21.1571 
7 *800:4 *4209:A 24.9607 
*END

*D_NET *801 0.00524514
*CONN
*I *4211:A I *D sky130_fd_sc_hd__and2_1
*I *4685:A2 I *D sky130_fd_sc_hd__o211a_1
*I *4709:A1 I *D sky130_fd_sc_hd__o21ai_2
*I *4708:A1 I *D sky130_fd_sc_hd__a21o_1
*I *4681:A I *D sky130_fd_sc_hd__xor2_1
*I *4899:Q O *D sky130_fd_sc_hd__dfxtp_1
*CAP
1 *4211:A 0.000165539
2 *4685:A2 2.03112e-05
3 *4709:A1 0
4 *4708:A1 0.00013925
5 *4681:A 0.000216678
6 *4899:Q 0
7 *801:12 0.000414099
8 *801:10 0.000475943
9 *801:8 0.00111711
10 *801:4 0.000844566
11 *4211:A *4208:A2 2.44318e-05
12 *4211:A *968:113 1.74352e-05
13 *4681:A *968:113 7.28784e-05
14 *4685:A2 *4685:B1 1.04232e-05
15 *4685:A2 *849:76 3.99614e-06
16 *801:8 *849:76 0.000187467
17 *801:8 *968:113 3.92691e-05
18 *801:10 *4656:B1 0.000102207
19 *801:10 *849:76 2.14658e-05
20 *801:10 *968:113 0.000314733
21 *801:12 *968:113 9.76689e-05
22 *4682:B1_N *4708:A1 0
23 *4706:A_N *801:10 0.000268396
24 *4709:A2 *4708:A1 9.01334e-05
25 *4709:B1 *4681:A 5.33433e-05
26 *4709:B1 *4708:A1 0
27 *4941:A *4211:A 0.000230431
28 *635:12 *4708:A1 4.1331e-06
29 *662:14 *801:10 0.000214192
30 *662:14 *801:12 9.90431e-05
31 *671:14 *4708:A1 0
*RES
1 *4899:Q *801:4 9.3 
2 *801:4 *801:8 9.07143 
3 *801:8 *801:10 10.8036 
4 *801:10 *801:12 1.76786 
5 *801:12 *4681:A 13.4607 
6 *801:12 *4708:A1 20.8536 
7 *801:10 *4709:A1 9.3 
8 *801:8 *4685:A2 9.72857 
9 *801:4 *4211:A 13.0321 
*END

*D_NET *802 0.00441228
*CONN
*I *4213:A I *D sky130_fd_sc_hd__and2_1
*I *5031:A I *D sky130_fd_sc_hd__dlygate4sd3_1
*I *4704:A I *D sky130_fd_sc_hd__nor2_1
*I *4702:A I *D sky130_fd_sc_hd__nand2_1
*I *4900:Q O *D sky130_fd_sc_hd__dfxtp_1
*CAP
1 *4213:A 0.000177154
2 *5031:A 0
3 *4704:A 0
4 *4702:A 4.64512e-05
5 *4900:Q 0
6 *802:46 0.000418633
7 *802:26 0.00110479
8 *802:4 0.00129982
9 *4213:A *4206:C1 0
10 *4213:A *971:87 0.000148903
11 *4213:A *971:89 3.34295e-05
12 *802:26 *1011:40 0
13 *4704:B *4702:A 5.3823e-05
14 *4704:B *802:26 0
15 *4710:A1 *802:26 9.89576e-05
16 *4710:A2 *802:26 0.000103268
17 *4710:B1 *802:26 7.59427e-05
18 *4711:A *802:26 0
19 *4712:A1 *802:26 2.44318e-05
20 *4712:A2 *802:26 8.81471e-06
21 *4713:C1 *802:26 0.000140933
22 *4900:D *802:26 0.000147136
23 *655:10 *802:26 1.02821e-05
24 *657:12 *4702:A 2.95641e-05
25 *657:12 *802:26 5.17614e-05
26 *660:8 *802:26 0
27 *660:12 *802:26 0.000132879
28 *662:14 *4702:A 0.000144773
29 *662:14 *802:26 2.14658e-05
30 *662:42 *802:26 0.00013907
*RES
1 *4900:Q *802:4 9.3 
2 *802:4 *802:26 26.7321 
3 *802:26 *4702:A 11.5143 
4 *802:26 *4704:A 9.3 
5 *802:4 *802:46 4.14286 
6 *802:46 *5031:A 9.3 
7 *802:46 *4213:A 21.4964 
*END

*D_NET *803 0.00545888
*CONN
*I *4215:A I *D sky130_fd_sc_hd__and2_1
*I *5041:A I *D sky130_fd_sc_hd__dlygate4sd3_1
*I *4721:A I *D sky130_fd_sc_hd__and2_4
*I *4720:A I *D sky130_fd_sc_hd__nor2_1
*I *4901:Q O *D sky130_fd_sc_hd__dfxtp_1
*CAP
1 *4215:A 4.81807e-05
2 *5041:A 0.000126043
3 *4721:A 0
4 *4720:A 3.35379e-05
5 *4901:Q 0
6 *803:28 0.000213041
7 *803:12 0.00158298
8 *803:4 0.00158826
9 *4215:A *4215:B 6.05161e-06
10 *4215:A *846:41 2.95726e-05
11 *4720:A *4721:B 0.000111383
12 *5041:A *971:81 6.92093e-05
13 *5041:A *971:83 2.93304e-05
14 *803:12 *846:41 3.24712e-05
15 *4722:B *803:12 2.10446e-05
16 *4727:B1_N *803:12 2.1527e-05
17 *181:60 *5041:A 0
18 *778:161 *4720:A 5.62995e-05
19 *798:59 *5041:A 0
20 *798:59 *803:12 0.00148994
*RES
1 *4901:Q *803:4 9.3 
2 *803:4 *803:12 30.4821 
3 *803:12 *4720:A 10.675 
4 *803:12 *4721:A 9.3 
5 *803:4 *803:28 0.732143 
6 *803:28 *5041:A 20.8536 
7 *803:28 *4215:A 10.2464 
*END

*D_NET *804 0.00938472
*CONN
*I *4217:A I *D sky130_fd_sc_hd__and2_1
*I *4733:A2 I *D sky130_fd_sc_hd__o211a_1
*I *4754:A4 I *D sky130_fd_sc_hd__o41a_1
*I *4741:A2 I *D sky130_fd_sc_hd__o21ai_1
*I *4735:A1 I *D sky130_fd_sc_hd__a21bo_1
*I *4726:A I *D sky130_fd_sc_hd__xnor2_4
*I *4902:Q O *D sky130_fd_sc_hd__dfxtp_1
*CAP
1 *4217:A 0.000183618
2 *4733:A2 2.86335e-05
3 *4754:A4 9.8409e-05
4 *4741:A2 0.000868825
5 *4735:A1 0
6 *4726:A 0
7 *4902:Q 0
8 *804:44 0.00114107
9 *804:31 0.000458526
10 *804:22 0.00114237
11 *804:8 0.00157396
12 *804:4 0.000871265
13 *4217:A *971:70 9.87672e-05
14 *4741:A2 *4741:B1 5.33433e-05
15 *4741:A2 *805:66 7.84156e-05
16 *4741:A2 *806:56 5.17416e-05
17 *4754:A4 *4754:A2 5.52238e-05
18 *4754:A4 *805:42 5.52302e-05
19 *4754:A4 *805:53 8.57023e-05
20 *804:22 *4733:A1 9.41642e-05
21 *804:22 *964:32 0
22 *804:31 *4740:A 0
23 *4733:C1 *4733:A2 4.28157e-06
24 *4753:A2 *804:22 0.000308108
25 *4753:C1 *804:22 1.57523e-05
26 *4902:CLK *4733:A2 1.33343e-05
27 *4902:CLK *804:8 0.000180777
28 *4902:D *4733:A2 1.56e-05
29 *4902:D *804:8 3.52992e-05
30 *4902:D *804:22 1.74352e-05
31 *671:39 *4754:A4 9.91086e-05
32 *671:39 *804:31 1.76135e-05
33 *671:39 *804:44 0.000268952
34 *679:14 *804:22 7.69055e-05
35 *700:10 *4754:A4 3.15739e-05
36 *700:10 *804:22 0.000378671
37 *700:10 *804:31 0.000543465
38 *700:10 *804:44 0.000438573
*RES
1 *4902:Q *804:4 9.3 
2 *804:4 *804:8 9.07143 
3 *804:8 *804:22 19.7857 
4 *804:22 *4726:A 13.8 
5 *804:22 *804:31 7.10714 
6 *804:31 *4735:A1 13.8 
7 *804:31 *804:44 6.96429 
8 *804:44 *4741:A2 24.1929 
9 *804:44 *4754:A4 16.4964 
10 *804:8 *4733:A2 10.2643 
11 *804:4 *4217:A 12.6214 
*END

*D_NET *805 0.00824667
*CONN
*I *4219:A I *D sky130_fd_sc_hd__and2_1
*I *4741:A1 I *D sky130_fd_sc_hd__o21ai_1
*I *4742:A1_N I *D sky130_fd_sc_hd__a2bb2o_4
*I *4754:A3 I *D sky130_fd_sc_hd__o41a_1
*I *4738:A2 I *D sky130_fd_sc_hd__o211a_1
*I *4734:A I *D sky130_fd_sc_hd__xnor2_4
*I *4903:Q O *D sky130_fd_sc_hd__dfxtp_1
*CAP
1 *4219:A 0.000527587
2 *4741:A1 0
3 *4742:A1_N 0.000184742
4 *4754:A3 0
5 *4738:A2 0
6 *4734:A 0.00027251
7 *4903:Q 0.000120203
8 *805:66 0.00070392
9 *805:53 0.000776369
10 *805:42 0.00093344
11 *805:16 0.000431715
12 *805:10 0.000797553
13 *4219:A *4223:A 0.000173872
14 *4219:A *833:95 0
15 *4219:A *847:70 9.25014e-06
16 *4734:A *4736:B1_N 0.000254337
17 *4734:A *833:19 1.02504e-05
18 *4742:A1_N *4739:A 5.41794e-05
19 *4742:A1_N *4741:B1 5.44074e-05
20 *4742:A1_N *806:56 7.6644e-05
21 *4742:A1_N *856:38 7.95487e-05
22 *805:16 *833:19 2.03596e-05
23 *805:16 *845:49 0.00010326
24 *805:42 *845:49 0.000216057
25 *805:42 *970:33 0.000597113
26 *805:53 *4741:B1 1.19402e-05
27 *805:53 *4746:A 5.52238e-05
28 *805:53 *4754:A2 0.000137505
29 *805:53 *807:27 0.00073599
30 *805:53 *847:86 0
31 *805:53 *970:33 4.88637e-05
32 *805:66 *4741:B1 9.90431e-05
33 *4738:C1 *4734:A 9.59415e-05
34 *4738:C1 *805:16 4.1331e-06
35 *4741:A2 *805:66 7.84156e-05
36 *4745:C1 *4219:A 4.88515e-05
37 *4748:B *4742:A1_N 0
38 *4748:B *805:53 0
39 *4752:D *4742:A1_N 0
40 *4754:A4 *805:42 5.52302e-05
41 *4754:A4 *805:53 8.57023e-05
42 *4903:CLK *805:10 0.00018077
43 *4903:CLK *805:42 0.000107503
44 *181:60 *4219:A 0
45 *689:25 *4742:A1_N 0.000104236
*RES
1 *4903:Q *805:10 15.9964 
2 *805:10 *805:16 3.01786 
3 *805:16 *4734:A 19.9786 
4 *805:16 *4738:A2 13.8 
5 *805:10 *805:42 17.75 
6 *805:42 *4754:A3 9.3 
7 *805:42 *805:53 15.3929 
8 *805:53 *4742:A1_N 18.7821 
9 *805:53 *805:66 7.91071 
10 *805:66 *4741:A1 9.3 
11 *805:66 *4219:A 28.0857 
*END

*D_NET *806 0.00804095
*CONN
*I *4745:A2 I *D sky130_fd_sc_hd__o211a_1
*I *4754:A2 I *D sky130_fd_sc_hd__o41a_1
*I *4740:A I *D sky130_fd_sc_hd__xnor2_2
*I *4739:A I *D sky130_fd_sc_hd__nand2_1
*I *4221:A I *D sky130_fd_sc_hd__and2_1
*I *4904:Q O *D sky130_fd_sc_hd__dfxtp_1
*CAP
1 *4745:A2 1.67212e-05
2 *4754:A2 0.000338998
3 *4740:A 0.000310012
4 *4739:A 6.58592e-05
5 *4221:A 0.000330863
6 *4904:Q 0.000124593
7 *806:56 0.00109446
8 *806:37 0.00127174
9 *806:29 0.00149226
10 *806:6 0.00117057
11 *4221:A *4221:B 0.000100261
12 *4221:A *846:27 0
13 *4221:A *846:29 0
14 *4745:A2 *4745:A1 1.04232e-05
15 *806:6 *4222:C1 3.69047e-06
16 *806:29 *4745:A1 2.44318e-05
17 *806:29 *846:27 5.35824e-05
18 *806:37 *4745:A1 0.000163473
19 *4741:A2 *806:56 5.17416e-05
20 *4742:A1_N *4739:A 5.41794e-05
21 *4742:A1_N *806:56 7.6644e-05
22 *4743:A *4739:A 5.52302e-05
23 *4743:A *806:37 0.000174348
24 *4744:B *806:37 5.71472e-05
25 *4747:B1 *4739:A 9.60939e-05
26 *4747:B1 *806:37 0.000139907
27 *4752:D *4739:A 0
28 *4752:D *4740:A 0.000184153
29 *4752:D *4754:A2 7.04444e-05
30 *4754:A4 *4754:A2 5.52238e-05
31 *671:39 *4740:A 0
32 *671:39 *4754:A2 0
33 *689:25 *4739:A 5.52238e-05
34 *777:23 *4221:A 0.000177941
35 *777:49 *4221:A 8.32242e-05
36 *777:49 *806:29 0
37 *804:31 *4740:A 0
38 *805:53 *4754:A2 0.000137505
*RES
1 *4904:Q *806:6 10.6571 
2 *806:6 *4221:A 24.175 
3 *806:6 *806:29 20 
4 *806:29 *806:37 15.4464 
5 *806:37 *4739:A 15.4786 
6 *806:37 *806:56 14.6786 
7 *806:56 *4740:A 20.3 
8 *806:56 *4754:A2 19.3536 
9 *806:29 *4745:A2 9.72857 
*END

*D_NET *807 0.00624327
*CONN
*I *5040:A I *D sky130_fd_sc_hd__dlygate4sd3_1
*I *4754:A1 I *D sky130_fd_sc_hd__o41a_1
*I *4746:A I *D sky130_fd_sc_hd__xnor2_1
*I *4223:A I *D sky130_fd_sc_hd__and2_1
*I *4905:Q O *D sky130_fd_sc_hd__dfxtp_1
*CAP
1 *5040:A 0
2 *4754:A1 0
3 *4746:A 0.000150584
4 *4223:A 0.00039445
5 *4905:Q 0.000205399
6 *807:27 0.000459664
7 *807:25 0.00030908
8 *807:10 0.00059985
9 *4223:A *833:95 0
10 *4223:A *847:70 3.17148e-05
11 *4746:A *4746:B 9.90367e-05
12 *4746:A *970:33 5.33005e-05
13 *807:10 *4948:A 0.000142856
14 *807:10 *847:70 0.00012401
15 *807:27 *847:70 0.000704608
16 *807:27 *970:33 0.00174729
17 *4219:A *4223:A 0.000173872
18 *671:39 *4746:A 0.000173804
19 *700:10 *4746:A 6.26559e-05
20 *777:70 *807:10 1.98839e-05
21 *805:53 *4746:A 5.52238e-05
22 *805:53 *807:27 0.00073599
*RES
1 *4905:Q *807:10 17.2107 
2 *807:10 *4223:A 20.7107 
3 *807:10 *807:25 4.5 
4 *807:25 *807:27 16.5536 
5 *807:27 *4746:A 22.4429 
6 *807:27 *4754:A1 9.3 
7 *807:25 *5040:A 9.3 
*END

*D_NET *808 0.00490728
*CONN
*I *4274:B1 I *D sky130_fd_sc_hd__a21oi_1
*I *4273:A I *D sky130_fd_sc_hd__and3_1
*I *5032:A I *D sky130_fd_sc_hd__dlygate4sd3_1
*I *4181:A1 I *D sky130_fd_sc_hd__a211o_1
*I *4887:Q O *D sky130_fd_sc_hd__dfxtp_1
*CAP
1 *4274:B1 0
2 *4273:A 0.000345636
3 *5032:A 1.90348e-05
4 *4181:A1 0.000171943
5 *4887:Q 0.000150488
6 *808:34 0.000812655
7 *808:21 0.000636484
8 *808:8 0.000472861
9 *4181:A1 *972:51 0.000529507
10 *4181:A1 *986:48 0.000529507
11 *4273:A *1004:43 0
12 *4273:A *1005:48 0
13 *4273:A *1007:74 0.00021529
14 *4273:A *1010:80 7.2754e-05
15 *808:8 *4278:A2 0.00014285
16 *808:21 *844:35 4.44754e-05
17 *808:34 *841:18 5.33005e-05
18 *808:34 *844:22 0.000527672
19 *808:34 *844:35 3.82088e-05
20 *808:34 *1004:43 0
21 *808:34 *1005:48 0
22 *4273:C *4273:A 3.9991e-05
23 *182:53 *808:8 8.43535e-06
24 *182:53 *808:21 4.58194e-05
25 *239:12 *4273:A 5.03694e-05
*RES
1 *4887:Q *808:8 11.4964 
2 *808:8 *4181:A1 25.1036 
3 *808:8 *808:21 2.58929 
4 *808:21 *5032:A 9.72857 
5 *808:21 *808:34 13.1429 
6 *808:34 *4273:A 20.9071 
7 *808:34 *4274:B1 13.8 
*END

*D_NET *809 0.00855641
*CONN
*I *4225:A I *D sky130_fd_sc_hd__and2_1
*I *5043:A I *D sky130_fd_sc_hd__dlygate4sd3_1
*I *4762:A1 I *D sky130_fd_sc_hd__a21bo_1
*I *4769:A2 I *D sky130_fd_sc_hd__o21ai_1
*I *4780:A4 I *D sky130_fd_sc_hd__o41ai_2
*I *4751:A I *D sky130_fd_sc_hd__xnor2_1
*I *4906:Q O *D sky130_fd_sc_hd__dfxtp_2
*CAP
1 *4225:A 0.000363498
2 *5043:A 1.79388e-05
3 *4762:A1 3.91881e-05
4 *4769:A2 2.23854e-05
5 *4780:A4 0.000159252
6 *4751:A 0.000299361
7 *4906:Q 0
8 *809:28 0.00110149
9 *809:24 0.000867894
10 *809:20 0.00054285
11 *809:14 0.00061679
12 *809:4 0.000661321
13 *4225:A *4234:B1 6.42095e-05
14 *4225:A *4234:C1 2.59355e-05
15 *4225:A *967:87 5.52238e-05
16 *4225:A *970:52 0.000141183
17 *4225:A *970:58 0
18 *4751:A *4751:B 0.000222156
19 *4762:A1 *4763:B1_N 0
20 *4780:A4 *962:86 9.90367e-05
21 *5043:A *4760:B1 8.66063e-05
22 *809:14 *847:60 0
23 *809:14 *967:87 0
24 *809:20 *4760:B1 0.000580978
25 *809:24 *4762:A2 6.25878e-05
26 *809:24 *4769:B1 2.89114e-05
27 *809:28 *4762:A2 0.000158772
28 *4223:B *4225:A 0.00014285
29 *4231:B *4751:A 0.000188415
30 *4231:B *4780:A4 0.000248486
31 *4762:B1_N *809:24 2.28499e-05
32 *4770:B1 *4762:A1 4.46186e-06
33 *4866:CLK *4225:A 0.000329604
34 *181:60 *4225:A 9.56968e-05
35 *183:69 *4751:A 5.84171e-05
36 *183:69 *5043:A 5.33433e-05
37 *183:69 *809:20 0.000319127
38 *704:12 *809:20 0
39 *704:25 *4762:A1 2.16719e-05
40 *704:25 *809:20 0.000179053
41 *707:23 *809:24 0.000137983
42 *723:10 *4751:A 0
43 *723:10 *4780:A4 0
44 *725:14 *4751:A 0
45 *777:117 *4225:A 3.8011e-05
46 *777:117 *809:14 0.00036192
47 *780:8 *809:28 0.000136958
48 *780:12 *4751:A 0
49 *780:47 *4780:A4 0
*RES
1 *4906:Q *809:4 9.3 
2 *809:4 *809:14 15.3929 
3 *809:14 *809:20 14.6429 
4 *809:20 *809:24 8.32143 
5 *809:24 *809:28 15.3036 
6 *809:28 *4751:A 20.6036 
7 *809:28 *4780:A4 17.9071 
8 *809:24 *4769:A2 9.72857 
9 *809:20 *4762:A1 14.5321 
10 *809:14 *5043:A 10.2464 
11 *809:4 *4225:A 27.7821 
*END

*D_NET *810 0.00848596
*CONN
*I *4227:A I *D sky130_fd_sc_hd__and2_1
*I *4765:A2 I *D sky130_fd_sc_hd__o211a_1
*I *4770:A1_N I *D sky130_fd_sc_hd__a2bb2o_4
*I *4761:A I *D sky130_fd_sc_hd__xnor2_1
*I *4780:A3 I *D sky130_fd_sc_hd__o41ai_2
*I *4769:A1 I *D sky130_fd_sc_hd__o21ai_1
*I *4907:Q O *D sky130_fd_sc_hd__dfxtp_1
*CAP
1 *4227:A 0.000206339
2 *4765:A2 3.58421e-05
3 *4770:A1_N 1.91209e-05
4 *4761:A 0.000243269
5 *4780:A3 7.78743e-05
6 *4769:A1 0.000143567
7 *4907:Q 0
8 *810:29 0.00107741
9 *810:14 0.00101149
10 *810:12 0.000950372
11 *810:6 0.0014281
12 *810:4 0.000779005
13 *4227:A *4229:B 9.27592e-05
14 *4761:A *4780:A1 5.58941e-05
15 *4765:A2 *4765:A1 1.04232e-05
16 *4769:A1 *4766:B 0
17 *4769:A1 *962:88 0
18 *4769:A1 *962:90 0
19 *4769:A1 *963:23 1.99099e-05
20 *4769:A1 *963:34 0.000103041
21 *4769:A1 *963:49 1.17968e-05
22 *4780:A3 *4780:A2 4.81734e-05
23 *4780:A3 *4780:B1 0
24 *4780:A3 *962:86 1.21258e-05
25 *810:6 *4765:A1 1.74352e-05
26 *810:12 *4765:A1 0.000175894
27 *810:14 *4770:A2_N 5.52302e-05
28 *810:29 *4780:A2 0.000560726
29 *810:29 *962:86 2.60984e-05
30 *4231:B *4761:A 0.000439641
31 *4765:C1 *810:12 5.33433e-05
32 *715:10 *4769:A1 4.1331e-06
33 *780:101 *810:6 8.25165e-05
34 *780:112 *4227:A 8.52803e-05
35 *780:112 *4765:A2 0
36 *780:112 *810:6 0.000659155
*RES
1 *4907:Q *810:4 9.3 
2 *810:4 *810:6 8.33929 
3 *810:6 *810:12 10.9464 
4 *810:12 *810:14 1.76786 
5 *810:14 *4769:A1 21.4607 
6 *810:14 *810:29 10 
7 *810:29 *4780:A3 10.5679 
8 *810:29 *4761:A 23.8893 
9 *810:12 *4770:A1_N 9.72857 
10 *810:6 *4765:A2 10.0321 
11 *810:4 *4227:A 22.4071 
*END

*D_NET *811 0.00864717
*CONN
*I *4229:A I *D sky130_fd_sc_hd__and2_1
*I *4773:A2 I *D sky130_fd_sc_hd__o211a_1
*I *4766:A I *D sky130_fd_sc_hd__or2_1
*I *4767:A I *D sky130_fd_sc_hd__nand2_1
*I *4780:A2 I *D sky130_fd_sc_hd__o41ai_2
*I *4908:Q O *D sky130_fd_sc_hd__dfxtp_1
*CAP
1 *4229:A 0.000182101
2 *4773:A2 3.90068e-05
3 *4766:A 0
4 *4767:A 4.88385e-05
5 *4780:A2 0.000259453
6 *4908:Q 0
7 *811:29 0.000123447
8 *811:12 0.00121888
9 *811:6 0.00159373
10 *811:4 0.000852002
11 *4229:A *847:33 0
12 *4229:A *847:147 0.000486993
13 *4229:A *967:64 0.000139767
14 *4229:A *967:68 1.31516e-05
15 *4767:A *4767:B 0
16 *4767:A *4774:B 0.00014183
17 *4773:A2 *4773:B1 5.32693e-06
18 *4780:A2 *4766:B 2.39876e-05
19 *4780:A2 *4780:A1 5.52302e-05
20 *4780:A2 *962:86 0.000285688
21 *811:6 *847:33 2.11564e-05
22 *811:12 *4773:B1 3.18676e-05
23 *811:29 *4766:B 5.33005e-05
24 *811:29 *4774:B 8.41815e-05
25 *4230:A2 *4229:A 0.000431769
26 *4768:A *4767:A 5.52302e-05
27 *4771:A *811:12 6.87574e-05
28 *4772:B *811:12 0.000202891
29 *4773:C1 *4773:A2 7.09948e-06
30 *4773:C1 *811:12 0.00010096
31 *4775:B1 *4767:A 3.9846e-05
32 *4775:B1 *811:12 3.92757e-05
33 *4775:B1 *811:29 0.00014183
34 *4776:A *4780:A2 0
35 *4776:A *811:12 0
36 *4776:B *811:12 9.33978e-07
37 *4780:A3 *4780:A2 4.81734e-05
38 *4781:C *4780:A2 0.000293408
39 *4781:D *4780:A2 0.000315873
40 *4908:D *811:6 0.00017088
41 *181:71 *4229:A 3.17148e-05
42 *181:79 *4229:A 0.000349145
43 *713:27 *4780:A2 7.79781e-06
44 *713:27 *811:12 6.11504e-05
45 *780:89 *811:6 4.9773e-05
46 *780:89 *811:12 9.99644e-06
47 *810:29 *4780:A2 0.000560726
*RES
1 *4908:Q *811:4 9.3 
2 *811:4 *811:6 8.33929 
3 *811:6 *811:12 16.6429 
4 *811:12 *4780:A2 24.675 
5 *811:12 *811:29 6.67857 
6 *811:29 *4767:A 11.0857 
7 *811:29 *4766:A 9.3 
8 *811:6 *4773:A2 10.0321 
9 *811:4 *4229:A 27.0143 
*END

*D_NET *812 0.00463658
*CONN
*I *4231:A I *D sky130_fd_sc_hd__and2_1
*I *4774:A I *D sky130_fd_sc_hd__xnor2_1
*I *4780:A1 I *D sky130_fd_sc_hd__o41ai_2
*I *4777:B I *D sky130_fd_sc_hd__nor2_1
*I *4909:Q O *D sky130_fd_sc_hd__dfxtp_1
*CAP
1 *4231:A 0.000253103
2 *4774:A 0.000149753
3 *4780:A1 0.00023407
4 *4777:B 0.000482486
5 *4909:Q 3.34544e-05
6 *812:19 0.00065474
7 *812:17 0.000524021
8 *812:6 0.00051594
9 *4231:A *1002:12 1.41029e-05
10 *4774:A *4774:B 0.000315158
11 *4780:A1 *962:86 5.71472e-05
12 *4231:B *4231:A 0.000394239
13 *4231:B *4780:A1 0.000174591
14 *4231:B *812:19 0.000270063
15 *4761:A *4780:A1 5.58941e-05
16 *4776:A *812:19 0
17 *4778:A1 *4231:A 0
18 *4778:A1 *812:19 0
19 *4780:A2 *4780:A1 5.52302e-05
20 *4909:D *4777:B 6.14332e-05
21 *4911:CLK *4777:B 6.3595e-05
22 *780:49 *4777:B 2.89016e-05
23 *780:73 *4777:B 0.000269742
24 *780:73 *812:6 2.89114e-05
*RES
1 *4909:Q *812:6 9.83571 
2 *812:6 *4777:B 16.3179 
3 *812:6 *812:17 4.5 
4 *812:17 *812:19 6.5 
5 *812:19 *4780:A1 19.3179 
6 *812:19 *4774:A 17.2107 
7 *812:17 *4231:A 20.05 
*END

*D_NET *813 0.0128815
*CONN
*I *4233:A I *D sky130_fd_sc_hd__and2_1
*I *5042:A I *D sky130_fd_sc_hd__dlygate4sd3_1
*I *4788:A1 I *D sky130_fd_sc_hd__a21boi_1
*I *4807:A4 I *D sky130_fd_sc_hd__o41a_1
*I *4795:A2 I *D sky130_fd_sc_hd__o21ai_1
*I *4779:A I *D sky130_fd_sc_hd__xnor2_1
*I *4910:Q O *D sky130_fd_sc_hd__dfxtp_2
*CAP
1 *4233:A 0.0015704
2 *5042:A 0
3 *4788:A1 0.000262631
4 *4807:A4 0.00116303
5 *4795:A2 7.26651e-05
6 *4779:A 0.000228941
7 *4910:Q 6.34426e-05
8 *813:62 0.00159676
9 *813:38 0.00152547
10 *813:25 0.000485882
11 *813:12 0.00107398
12 *813:8 0.000621425
13 *4233:A *971:41 7.80929e-05
14 *4779:A *4779:B 0.000318107
15 *4779:A *962:21 1.39726e-05
16 *4807:A4 *4795:A1 5.83304e-05
17 *4807:A4 *4796:A1_N 0.000119125
18 *4807:A4 *4807:A2 0.000260574
19 *4807:A4 *4807:A3 1.21258e-05
20 *4807:A4 *4807:B1 5.36047e-06
21 *4807:A4 *814:12 6.81083e-05
22 *4807:A4 *961:27 5.74499e-06
23 *4807:A4 *968:97 0.000128146
24 *813:8 *971:41 5.33882e-05
25 *813:12 *4786:A2 0.000134192
26 *813:12 *962:21 1.92905e-05
27 *813:25 *4936:A 0.000308599
28 *813:25 *833:17 0
29 *813:25 *833:19 0
30 *813:25 *836:46 0
31 *813:25 *962:21 0.00066746
32 *813:38 *4936:A 4.49293e-05
33 *813:38 *962:21 5.41794e-05
34 *813:38 *1002:28 4.75428e-05
35 *813:62 *971:41 2.72545e-05
36 *4755:A *4233:A 0
37 *4755:A *813:8 0
38 *4755:A *813:62 0
39 *4794:B *4807:A4 0.000166485
40 *4796:B1 *813:38 7.6644e-05
41 *4801:B1 *4807:A4 1.98839e-05
42 *4910:D *813:12 0.000312215
43 *4926:A *4788:A1 0.000397918
44 *4926:A *4807:A4 0.000225616
45 *4953:A *813:25 0
46 *183:53 *4795:A2 9.60875e-05
47 *703:12 *4233:A 3.18676e-05
48 *722:10 *813:25 0.000122449
49 *726:21 *813:38 2.09495e-05
50 *737:12 *4807:A4 0.000304394
51 *745:24 *4807:A4 1.78708e-05
*RES
1 *4910:Q *813:8 15.1393 
2 *813:8 *813:12 14.4821 
3 *813:12 *4779:A 13.8536 
4 *813:12 *813:25 14.0357 
5 *813:25 *4795:A2 14.7464 
6 *813:25 *813:38 7.05357 
7 *813:38 *4807:A4 34.5679 
8 *813:38 *4788:A1 13.1214 
9 *813:8 *813:62 0.732143 
10 *813:62 *5042:A 13.8 
11 *813:62 *4233:A 39.0143 
*END

*D_NET *814 0.00791079
*CONN
*I *4790:B I *D sky130_fd_sc_hd__nor2_1
*I *4235:A I *D sky130_fd_sc_hd__and2_1
*I *4787:A I *D sky130_fd_sc_hd__xnor2_1
*I *4807:A3 I *D sky130_fd_sc_hd__o41a_1
*I *4796:A1_N I *D sky130_fd_sc_hd__a2bb2o_4
*I *4795:A1 I *D sky130_fd_sc_hd__o21ai_1
*I *4911:Q O *D sky130_fd_sc_hd__dfxtp_1
*CAP
1 *4790:B 0.000185073
2 *4235:A 0.000428617
3 *4787:A 3.72704e-05
4 *4807:A3 0.000452958
5 *4796:A1_N 5.85243e-05
6 *4795:A1 0.000219464
7 *4911:Q 0
8 *814:62 0.000676103
9 *814:12 0.000386334
10 *814:10 0.000777799
11 *814:8 0.000572034
12 *814:6 0.000380682
13 *4235:A *4237:B 0.000498034
14 *4235:A *968:95 4.70078e-05
15 *4235:A *970:125 0.00010096
16 *4790:B *4790:A 5.91094e-05
17 *4795:A1 *835:54 0.000353073
18 *4795:A1 *836:46 4.65158e-06
19 *4795:A1 *837:85 0
20 *4795:A1 *968:97 5.29818e-05
21 *4807:A3 *4239:A 0.000162125
22 *4807:A3 *4792:B 0.000199924
23 *4807:A3 *4807:A2 6.05161e-06
24 *4807:A3 *816:30 9.25014e-06
25 *4807:A3 *961:27 5.52302e-05
26 *814:8 *837:85 0
27 *814:8 *968:97 0.000340578
28 *814:10 *837:85 0
29 *814:10 *968:97 0.000239852
30 *814:12 *837:85 0
31 *814:12 *968:97 4.66203e-05
32 *814:62 *837:85 0
33 *814:62 *968:97 4.75812e-05
34 *4794:A *4807:A3 0.000653871
35 *4807:A4 *4795:A1 5.83304e-05
36 *4807:A4 *4796:A1_N 0.000119125
37 *4807:A4 *4807:A3 1.21258e-05
38 *4807:A4 *814:12 6.81083e-05
39 *745:24 *4796:A1_N 0.000184206
40 *772:94 *4795:A1 0.000137437
41 *779:8 *4807:A3 0.000104186
42 *779:10 *4807:A3 0.000175519
*RES
1 *4911:Q *814:6 13.8 
2 *814:6 *814:8 8.01786 
3 *814:8 *814:10 5.58929 
4 *814:10 *814:12 2.25 
5 *814:12 *4795:A1 19.4607 
6 *814:12 *4796:A1_N 15.9786 
7 *814:10 *4807:A3 34.7464 
8 *814:8 *4787:A 14.3357 
9 *814:6 *814:62 5.83929 
10 *814:62 *4235:A 18.1929 
11 *814:62 *4790:B 12.7464 
*END

*D_NET *815 0.00480761
*CONN
*I *4237:A I *D sky130_fd_sc_hd__and2_1
*I *5036:A I *D sky130_fd_sc_hd__dlygate4sd3_1
*I *4792:A I *D sky130_fd_sc_hd__or2_1
*I *4807:A2 I *D sky130_fd_sc_hd__o41a_1
*I *4793:A I *D sky130_fd_sc_hd__nand2_1
*I *4912:Q O *D sky130_fd_sc_hd__dfxtp_1
*CAP
1 *4237:A 0.000191899
2 *5036:A 0.000109087
3 *4792:A 0
4 *4807:A2 8.58008e-05
5 *4793:A 1.92398e-05
6 *4912:Q 3.34239e-05
7 *815:16 0.000164976
8 *815:14 0.000499934
9 *815:8 0.000587328
10 *815:6 0.000263565
11 *4237:A *845:103 0
12 *4793:A *966:104 5.58941e-05
13 *4807:A2 *4807:A1 2.59355e-05
14 *4807:A2 *961:27 1.87175e-05
15 *5036:A *4791:A2 0.000256992
16 *815:14 *4791:A2 0.000230482
17 *815:14 *832:98 5.85135e-05
18 *815:14 *832:134 8.59039e-05
19 *815:14 *966:104 0.000773608
20 *815:16 *966:104 0.000170654
21 *4798:B *4793:A 5.58941e-05
22 *4798:B *815:14 0.000386176
23 *4798:B *815:16 0.000161403
24 *4801:B1 *4807:A2 0.000135028
25 *4807:A3 *4807:A2 6.05161e-06
26 *4807:A4 *4807:A2 0.000260574
27 *200:16 *4237:A 0.000170532
*RES
1 *4912:Q *815:6 9.83571 
2 *815:6 *815:8 0.732143 
3 *815:8 *815:14 18.1607 
4 *815:14 *815:16 2.25 
5 *815:16 *4793:A 14.5321 
6 *815:16 *4807:A2 16.3893 
7 *815:14 *4792:A 13.8 
8 *815:8 *5036:A 11.8893 
9 *815:6 *4237:A 22.3714 
*END

*D_NET *816 0.00587199
*CONN
*I *4239:A I *D sky130_fd_sc_hd__and2_1
*I *4807:A1 I *D sky130_fd_sc_hd__o41a_1
*I *5046:A I *D sky130_fd_sc_hd__dlygate4sd3_1
*I *4800:A I *D sky130_fd_sc_hd__xnor2_1
*I *4913:Q O *D sky130_fd_sc_hd__dfxtp_1
*CAP
1 *4239:A 0.000722843
2 *4807:A1 2.04425e-05
3 *5046:A 0
4 *4800:A 9.25542e-05
5 *4913:Q 0.000173044
6 *816:30 0.000968962
7 *816:21 0.000284033
8 *816:8 0.000323955
9 *4239:A *4815:A1 7.61243e-06
10 *4239:A *832:98 1.41029e-05
11 *4239:A *832:134 0.000503639
12 *4239:A *845:88 0.000751144
13 *4800:A *845:88 4.35131e-05
14 *4807:A1 *961:27 5.33005e-05
15 *816:21 *845:88 5.84267e-05
16 *816:30 *845:88 0.000206539
17 *4802:B *816:21 3.51442e-05
18 *4802:B *816:30 0.000314465
19 *4807:A2 *4807:A1 2.59355e-05
20 *4807:A3 *4239:A 0.000162125
21 *4807:A3 *816:30 9.25014e-06
22 *4815:C1 *4239:A 2.55587e-05
23 *4894:CLK *4800:A 4.46186e-06
24 *4912:D *4239:A 0.000153047
25 *779:10 *4239:A 4.00025e-05
26 *779:10 *4800:A 4.35131e-05
27 *779:10 *816:21 7.38748e-05
28 *779:10 *816:30 0.000263307
29 *779:25 *816:8 5.41494e-05
30 *779:56 *4239:A 0.000414602
31 *779:65 *4239:A 2.84398e-05
*RES
1 *4913:Q *816:8 15.9786 
2 *816:8 *4800:A 15.7821 
3 *816:8 *816:21 1.94643 
4 *816:21 *5046:A 13.8 
5 *816:21 *816:30 7.10714 
6 *816:30 *4807:A1 14.3357 
7 *816:30 *4239:A 33.175 
*END

*D_NET *817 0.00333361
*CONN
*I *5035:A I *D sky130_fd_sc_hd__dlygate4sd3_1
*I *4241:A I *D sky130_fd_sc_hd__and2_1
*I *4809:A I *D sky130_fd_sc_hd__and2_1
*I *4810:A I *D sky130_fd_sc_hd__nor2_1
*I *4826:A2 I *D sky130_fd_sc_hd__o21ai_1
*I *4914:Q O *D sky130_fd_sc_hd__dfxtp_1
*CAP
1 *5035:A 0.000224963
2 *4241:A 7.86499e-05
3 *4809:A 0
4 *4810:A 2.23854e-05
5 *4826:A2 0.000136035
6 *4914:Q 0
7 *817:14 0.000190721
8 *817:12 0.000221969
9 *817:8 0.000359224
10 *817:4 0.000315869
11 *4241:A *970:100 0.000277524
12 *4810:A *961:65 0
13 *4826:A2 *961:65 0.000396892
14 *817:12 *970:100 0.000527792
15 *817:14 *4810:B 5.52238e-05
16 *817:14 *961:65 0.000130419
17 *4811:B *817:14 2.44318e-05
18 *4827:A1 *4826:A2 7.32272e-05
19 *198:10 *4241:A 0.000104076
20 *198:10 *817:12 0.000194209
*RES
1 *4914:Q *817:4 9.3 
2 *817:4 *817:8 5.44643 
3 *817:8 *817:12 11.3036 
4 *817:12 *817:14 1.35714 
5 *817:14 *4826:A2 13.1214 
6 *817:14 *4810:A 9.72857 
7 *817:12 *4809:A 9.3 
8 *817:8 *4241:A 17.2643 
9 *817:4 *5035:A 13.0321 
*END

*D_NET *818 0.00356125
*CONN
*I *4816:A I *D sky130_fd_sc_hd__xor2_1
*I *4243:A I *D sky130_fd_sc_hd__and2_1
*I *4826:A1 I *D sky130_fd_sc_hd__o21ai_1
*I *5045:A I *D sky130_fd_sc_hd__dlygate4sd3_1
*I *4915:Q O *D sky130_fd_sc_hd__dfxtp_1
*CAP
1 *4816:A 4.51145e-05
2 *4243:A 0.000703868
3 *4826:A1 0
4 *5045:A 8.87526e-05
5 *4915:Q 8.50389e-05
6 *818:23 0.001009
7 *818:12 0.000543364
8 *818:8 0.000279631
9 *4243:A *845:12 0
10 *4243:A *845:18 0
11 *4816:A *835:27 0.000142856
12 *818:8 *4816:B 0
13 *818:8 *4819:B 5.30637e-06
14 *818:8 *835:27 2.66563e-05
15 *818:12 *4819:B 4.84486e-05
16 *818:12 *4938:A 0
17 *818:12 *845:18 0
18 *818:23 *845:18 0
19 *4827:A1 *4243:A 1.76039e-05
20 *4827:A1 *818:23 0.000124723
21 *4827:A2 *818:23 4.25523e-05
22 *4828:C *818:23 7.50697e-05
23 *4829:A *4243:A 0
24 *4829:B *4243:A 0
25 *4914:D *4243:A 0.000104974
26 *762:10 *5045:A 5.62995e-05
27 *762:10 *818:23 0.000161993
*RES
1 *4915:Q *818:8 10.9786 
2 *818:8 *818:12 7.05357 
3 *818:12 *5045:A 15.5679 
4 *818:12 *818:23 7.41071 
5 *818:23 *4826:A1 13.8 
6 *818:23 *4243:A 26.7464 
7 *818:8 *4816:A 10.6571 
*END

*D_NET *819 0.00367286
*CONN
*I *4287:A I *D sky130_fd_sc_hd__nand2_1
*I *4288:A I *D sky130_fd_sc_hd__or2_1
*I *5033:A I *D sky130_fd_sc_hd__dlygate4sd3_1
*I *4184:A1 I *D sky130_fd_sc_hd__a211o_1
*I *4888:Q O *D sky130_fd_sc_hd__dfxtp_1
*CAP
1 *4287:A 0.000129698
2 *4288:A 4.55385e-05
3 *5033:A 3.31587e-05
4 *4184:A1 0.000291753
5 *4888:Q 0
6 *819:34 0.000566759
7 *819:23 0.00059245
8 *819:6 0.000459522
9 *4184:A1 *4184:A2 4.22908e-05
10 *4184:A1 *1010:52 0
11 *4287:A *974:14 1.29456e-05
12 *4287:A *1001:40 2.6304e-05
13 *4288:A *1010:22 0
14 *819:23 *1010:52 0
15 *4184:B1 *4184:A1 1.97695e-05
16 *4289:A *4287:A 0.000266859
17 *4289:A *819:34 7.1411e-05
18 *4289:B *819:34 0.000141734
19 *4293:C1 *4184:A1 0.000128161
20 *4293:C1 *819:23 1.02504e-05
21 *4310:A1 *4287:A 8.47854e-05
22 *4310:A1 *4288:A 2.6304e-05
23 *4310:A1 *819:34 0.000183977
24 *4848:CLK *4184:A1 0.000265025
25 *4848:CLK *819:23 2.26327e-05
26 *182:68 *819:23 0
27 *252:6 *4287:A 4.17433e-05
28 *274:10 *4287:A 9.99853e-05
29 *775:26 *819:23 0.000109809
*RES
1 *4888:Q *819:6 13.8 
2 *819:6 *4184:A1 21.3714 
3 *819:6 *819:23 7.66071 
4 *819:23 *5033:A 9.83571 
5 *819:23 *819:34 7.125 
6 *819:34 *4288:A 19.0321 
7 *819:34 *4287:A 22.0321 
*END

*D_NET *820 0.00373057
*CONN
*I *5044:A I *D sky130_fd_sc_hd__dlygate4sd3_1
*I *4245:A I *D sky130_fd_sc_hd__and2_1
*I *4821:A I *D sky130_fd_sc_hd__nor2_1
*I *4822:A I *D sky130_fd_sc_hd__and2_1
*I *4916:Q O *D sky130_fd_sc_hd__dfxtp_1
*CAP
1 *5044:A 0
2 *4245:A 0.000348786
3 *4821:A 0
4 *4822:A 6.55803e-05
5 *4916:Q 4.7591e-05
6 *820:36 0.000598558
7 *820:16 0.000490463
8 *820:10 0.000722247
9 *4245:A *5025:A 0
10 *4245:A *5092:A 0
11 *4245:A *968:44 0
12 *4245:A *972:144 5.80706e-06
13 *4822:A *4832:B 0
14 *4822:A *961:77 4.7194e-05
15 *4822:A *961:79 5.71472e-05
16 *820:16 *4830:B 0.000202128
17 *820:16 *961:77 9.90367e-05
18 *820:16 *1009:121 0
19 *820:36 *4244:A2 2.58997e-05
20 *820:36 *4830:B 0.000137224
21 *4244:B2 *820:10 5.52302e-05
22 *4823:A *4822:A 2.89016e-05
23 *4824:A *820:16 2.8266e-06
24 *4827:B1 *4822:A 0
25 *4829:A *820:16 0
26 *4831:A1 *820:16 0.000216098
27 *4914:CLK *820:16 6.07626e-05
28 *4914:CLK *820:36 1.65558e-05
29 *163:19 *4245:A 0.000264154
30 *163:19 *820:36 0.000190838
31 *779:110 *820:36 4.75428e-05
*RES
1 *4916:Q *820:10 14.7643 
2 *820:10 *820:16 14.9821 
3 *820:16 *4822:A 11.0857 
4 *820:16 *4821:A 9.3 
5 *820:10 *820:36 10.4643 
6 *820:36 *4245:A 25.1929 
7 *820:36 *5044:A 9.3 
*END

*D_NET *821 0.00488965
*CONN
*I *4832:A I *D sky130_fd_sc_hd__xnor2_1
*I *4247:A I *D sky130_fd_sc_hd__and2_1
*I *5047:A I *D sky130_fd_sc_hd__dlygate4sd3_1
*I *4917:Q O *D sky130_fd_sc_hd__dfxtp_1
*CAP
1 *4832:A 0.000636992
2 *4247:A 0.000658579
3 *5047:A 0.000359049
4 *4917:Q 0
5 *821:8 0.00106494
6 *821:4 0.000684307
7 *4247:A *972:144 0.00119436
8 *4833:B1 *4832:A 1.24368e-05
9 *4836:A2 *4832:A 0.000105163
10 *4917:D *4832:A 0.000173823
*RES
1 *4917:Q *821:4 9.3 
2 *821:4 *821:8 5.03571 
3 *821:8 *5047:A 19.55 
4 *821:8 *4247:A 29.0857 
5 *821:4 *4832:A 21.4071 
*END

*D_NET *822 0.00448177
*CONN
*I *5034:A I *D sky130_fd_sc_hd__dlygate4sd3_1
*I *4307:A I *D sky130_fd_sc_hd__nand2_1
*I *4308:A I *D sky130_fd_sc_hd__or2_1
*I *4186:B2 I *D sky130_fd_sc_hd__a22o_1
*I *4889:Q O *D sky130_fd_sc_hd__dfxtp_1
*CAP
1 *5034:A 0.00028497
2 *4307:A 0
3 *4308:A 0.000335988
4 *4186:B2 0.000236843
5 *4889:Q 0
6 *822:12 0.000588833
7 *822:10 0.00034015
8 *822:4 0.000609118
9 *4186:B2 *4186:A1 0.000397083
10 *4186:B2 *4186:B1 3.49484e-05
11 *4186:B2 *5067:A 5.33005e-05
12 *4186:B2 *844:20 0.000111132
13 *4186:B2 *973:10 6.4443e-05
14 *822:10 *844:20 0.000259021
15 *822:10 *972:16 0.000265356
16 *822:12 *844:20 1.78447e-05
17 *4186:A2 *4186:B2 0
18 *4187:C1 *4186:B2 0
19 *4307:B *822:10 1.28585e-05
20 *4307:B *822:12 5.80706e-06
21 *4309:A *4308:A 4.08637e-05
22 *4335:A1 *4308:A 0.00017881
23 *4335:A2 *4308:A 4.3421e-05
24 *271:6 *4308:A 0.0001399
25 *298:10 *4308:A 4.01768e-05
26 *775:14 *4186:B2 0.000372832
27 *775:14 *822:12 4.80729e-05
*RES
1 *4889:Q *822:4 9.3 
2 *822:4 *822:10 14.2679 
3 *822:10 *822:12 0.732143 
4 *822:12 *4186:B2 22.1214 
5 *822:12 *4308:A 20.6571 
6 *822:10 *4307:A 13.8 
7 *822:4 *5034:A 13.55 
*END

*D_NET *823 0.00554107
*CONN
*I *4333:B1 I *D sky130_fd_sc_hd__a21o_1
*I *4332:A I *D sky130_fd_sc_hd__and3_1
*I *4190:A1 I *D sky130_fd_sc_hd__a211o_1
*I *4337:A0 I *D sky130_fd_sc_hd__mux2_1
*I *4890:Q O *D sky130_fd_sc_hd__dfxtp_1
*CAP
1 *4333:B1 0
2 *4332:A 7.91084e-05
3 *4190:A1 0.000332989
4 *4337:A0 0.000118993
5 *4890:Q 0
6 *823:40 0.000721268
7 *823:12 0.000621843
8 *823:4 0.00081202
9 *4190:A1 *4193:A2 2.47697e-05
10 *4190:A1 *972:10 0.000398974
11 *4190:A1 *972:99 0.000261246
12 *4337:A0 *839:93 0.000274288
13 *823:12 *839:93 0.000218045
14 *823:40 *825:12 0.000123411
15 *823:40 *843:116 0.000196968
16 *823:40 *972:131 2.1527e-05
17 *4190:C1 *4190:A1 0.000711397
18 *4334:A_N *4332:A 2.8266e-06
19 *4334:A_N *823:40 1.37292e-05
20 *4337:A1 *4190:A1 0
21 *182:91 *4332:A 0
22 *182:91 *823:40 0
23 *183:18 *4190:A1 6.87574e-05
24 *196:14 *4332:A 0.00015234
25 *196:14 *823:40 0.000386568
*RES
1 *4890:Q *823:4 9.3 
2 *823:4 *823:12 12.5179 
3 *823:12 *4337:A0 11.8893 
4 *823:12 *4190:A1 29.5143 
5 *823:4 *823:40 17.1429 
6 *823:40 *4332:A 15.7464 
7 *823:40 *4333:B1 13.8 
*END

*D_NET *824 0.00760182
*CONN
*I *5037:A I *D sky130_fd_sc_hd__dlygate4sd3_1
*I *4366:B1 I *D sky130_fd_sc_hd__a31o_1
*I *4365:A I *D sky130_fd_sc_hd__and4_1
*I *4193:A1 I *D sky130_fd_sc_hd__a211o_1
*I *4891:Q O *D sky130_fd_sc_hd__dfxtp_1
*CAP
1 *5037:A 0.000158054
2 *4366:B1 0.000133084
3 *4365:A 0
4 *4193:A1 0
5 *4891:Q 0
6 *824:35 0.000154845
7 *824:26 0.0013607
8 *824:10 0.00196751
9 *824:4 0.000743108
10 *824:10 *4371:A2 3.87365e-05
11 *4326:A2 *824:26 5.52238e-05
12 *4326:B1 *824:26 0.000186669
13 *4328:C *824:26 0.000128939
14 *4329:A1 *824:26 3.74722e-05
15 *4329:A2 *824:26 0.000267377
16 *4331:B1_N *824:26 4.8843e-05
17 *4361:A *824:26 0.000174797
18 *4362:B *824:26 5.59013e-05
19 *4364:A *824:10 9.44259e-05
20 *4364:A *824:26 8.33559e-05
21 *4365:B *4366:B1 9.22103e-06
22 *4366:A2 *4366:B1 0.000183726
23 *4366:A2 *824:35 9.71197e-05
24 *4369:A *824:10 0
25 *4370:B *824:10 0
26 *199:10 *824:26 0.000168939
27 *268:23 *824:26 0.000235174
28 *289:6 *824:26 0.000226507
29 *292:12 *824:26 0
30 *293:10 *824:26 0.000358977
31 *293:28 *824:26 5.52238e-05
32 *323:44 *4366:B1 3.18676e-05
33 *324:12 *824:10 4.73656e-05
34 *324:12 *824:26 0.000100831
35 *326:12 *824:10 3.92757e-05
36 *327:12 *824:10 1.69115e-05
37 *328:14 *4366:B1 4.27935e-05
38 *328:14 *824:10 0
39 *328:14 *824:35 9.71197e-05
40 *776:32 *5037:A 0.000178459
41 *776:32 *824:10 2.32625e-05
*RES
1 *4891:Q *824:4 9.3 
2 *824:4 *824:10 14.9821 
3 *824:10 *824:26 42.875 
4 *824:26 *4193:A1 9.3 
5 *824:10 *824:35 5.44643 
6 *824:35 *4365:A 9.3 
7 *824:35 *4366:B1 12.3179 
8 *824:4 *5037:A 13.0321 
*END

*D_NET *825 0.0103516
*CONN
*I *5039:A I *D sky130_fd_sc_hd__dlygate4sd3_1
*I *4405:A I *D sky130_fd_sc_hd__and3_1
*I *4406:B1 I *D sky130_fd_sc_hd__a21o_1
*I *4196:A1 I *D sky130_fd_sc_hd__a211o_1
*I *4892:Q O *D sky130_fd_sc_hd__dfxtp_1
*CAP
1 *5039:A 0.000163342
2 *4405:A 0.000163179
3 *4406:B1 0
4 *4196:A1 0
5 *4892:Q 0
6 *825:25 0.000553231
7 *825:19 0.00075326
8 *825:12 0.00228272
9 *825:4 0.00248258
10 *5039:A *4819:A 0
11 *825:12 *4196:A2 7.98104e-05
12 *825:12 *836:29 0.000596019
13 *825:12 *839:93 6.57032e-05
14 *825:12 *972:131 0.000181297
15 *825:12 *1002:46 0.000272371
16 *825:12 *1009:55 9.52728e-05
17 *825:25 *844:81 0.000220178
18 *825:25 *1010:146 0.000160702
19 *4405:B *4405:A 4.88637e-05
20 *4405:B *825:25 4.15914e-05
21 *4406:A2 *4405:A 5.8576e-05
22 *4407:A_N *4405:A 3.57366e-05
23 *4892:D *825:12 2.524e-05
24 *4917:CLK *825:12 2.14658e-05
25 *196:14 *825:12 9.25014e-06
26 *365:12 *4405:A 4.3209e-05
27 *366:8 *4405:A 0.000183726
28 *776:21 *825:12 0.000275513
29 *776:32 *825:12 0.00141535
30 *823:40 *825:12 0.000123411
*RES
1 *4892:Q *825:4 9.3 
2 *825:4 *825:12 42.9821 
3 *825:12 *4196:A1 9.3 
4 *825:4 *825:19 2.17857 
5 *825:19 *825:25 17.3214 
6 *825:25 *4406:B1 9.3 
7 *825:25 *4405:A 13.8714 
8 *825:19 *5039:A 11.3893 
*END

*D_NET *826 0.00428281
*CONN
*I *4198:A I *D sky130_fd_sc_hd__and2_1
*I *4451:B1 I *D sky130_fd_sc_hd__a21oi_1
*I *4450:A I *D sky130_fd_sc_hd__and3_1
*I *5029:A I *D sky130_fd_sc_hd__dlygate4sd3_1
*I *4893:Q O *D sky130_fd_sc_hd__dfxtp_1
*CAP
1 *4198:A 0.000354066
2 *4451:B1 0
3 *4450:A 0.000259878
4 *5029:A 0
5 *4893:Q 0
6 *826:27 0.00058858
7 *826:12 0.000484207
8 *826:6 0.000509571
9 *4198:A *4198:B 0.000188586
10 *4198:A *4935:A 0
11 *4198:A *4959:A 8.07313e-05
12 *4198:A *849:12 6.1684e-05
13 *4198:A *970:19 1.39726e-05
14 *4198:A *971:37 4.35452e-05
15 *826:12 *4935:A 0
16 *826:12 *845:26 0.00010096
17 *826:12 *849:12 0.0001479
18 *826:27 *4935:A 0.000196276
19 *826:27 *838:124 0.000210375
20 *826:27 *845:26 4.18895e-05
21 *826:27 *849:12 0
22 *826:27 *849:16 0.000446737
23 *4450:C *4450:A 3.13772e-05
24 *4451:A1 *4450:A 1.32552e-05
25 *4451:A2 *4450:A 6.90465e-05
26 *4456:C1 *826:12 9.90431e-05
27 *4456:C1 *826:27 5.52238e-05
28 *409:6 *4450:A 7.41433e-05
29 *410:10 *4450:A 2.80481e-05
30 *410:10 *826:27 0.000183713
31 *410:26 *4450:A 0
*RES
1 *4893:Q *826:6 13.8 
2 *826:6 *826:12 8.91071 
3 *826:12 *5029:A 9.3 
4 *826:12 *826:27 19.0179 
5 *826:27 *4450:A 13.6929 
6 *826:27 *4451:B1 9.3 
7 *826:6 *4198:A 21.3179 
*END

*D_NET *827 0.00436595
*CONN
*I *4201:A I *D sky130_fd_sc_hd__and2_1
*I *4502:A0 I *D sky130_fd_sc_hd__mux2_1
*I *4498:A I *D sky130_fd_sc_hd__or2_1
*I *4497:A I *D sky130_fd_sc_hd__and2_1
*I *4894:Q O *D sky130_fd_sc_hd__dfxtp_1
*CAP
1 *4201:A 7.5225e-05
2 *4502:A0 0
3 *4498:A 0
4 *4497:A 0.000212378
5 *4894:Q 0.000186979
6 *827:22 0.00107425
7 *827:14 0.00105953
8 *827:8 0.000459858
9 *4201:A *966:104 0
10 *4201:A *970:33 0.000123295
11 *4497:A *838:122 1.72894e-05
12 *827:8 *970:33 0.000230482
13 *827:14 *4502:S 0.000135709
14 *827:14 *966:104 0
15 *827:14 *968:97 0
16 *827:14 *970:33 3.34295e-05
17 *827:22 *838:122 0.000172318
18 *827:22 *966:100 0
19 *827:22 *968:97 0
20 *4498:B *4497:A 0.00022719
21 *4499:B *827:22 0
22 *4502:A1 *827:14 0.000130549
23 *4502:A1 *827:22 0.000115584
24 *4504:A2 *827:22 0
25 *4504:B1 *4497:A 1.98839e-05
26 *4544:A2 *827:22 0
27 *455:8 *4497:A 3.4855e-05
28 *457:10 *4497:A 0
29 *457:10 *827:22 5.71472e-05
*RES
1 *4894:Q *827:8 16.3893 
2 *827:8 *827:14 9.21429 
3 *827:14 *827:22 25.8214 
4 *827:22 *4497:A 22.675 
5 *827:22 *4498:A 9.3 
6 *827:14 *4502:A0 9.3 
7 *827:8 *4201:A 15.4429 
*END

*D_NET *828 0.00344904
*CONN
*I *4203:A I *D sky130_fd_sc_hd__and2_1
*I *5030:A I *D sky130_fd_sc_hd__dlygate4sd3_1
*I *4539:A I *D sky130_fd_sc_hd__nand2_1
*I *4541:A I *D sky130_fd_sc_hd__nor2_1
*I *4895:Q O *D sky130_fd_sc_hd__dfxtp_1
*CAP
1 *4203:A 0.00036197
2 *5030:A 0.000357173
3 *4539:A 7.905e-05
4 *4541:A 0
5 *4895:Q 0
6 *828:30 0.000891554
7 *828:12 0.000487873
8 *828:4 0.000581234
9 *4203:A *1012:51 0.000244097
10 *5030:A *4736:B1_N 5.52302e-05
11 *5030:A *4995:A 0
12 *5030:A *1012:15 5.4061e-05
13 *5030:A *1012:23 2.97756e-05
14 *828:12 *1012:23 7.92879e-05
15 *828:30 *1012:51 5.06983e-05
16 *4541:B *4539:A 5.08668e-05
17 *4895:D *828:30 2.15245e-05
18 *497:19 *4539:A 7.3237e-05
19 *497:19 *828:12 3.14078e-05
*RES
1 *4895:Q *828:4 9.3 
2 *828:4 *828:12 16.4107 
3 *828:12 *4541:A 9.3 
4 *828:12 *4539:A 11.5143 
5 *828:4 *828:30 2.17857 
6 *828:30 *5030:A 24.425 
7 *828:30 *4203:A 14.675 
*END

*D_NET *829 0.00156727
*CONN
*I *4939:A I *D sky130_fd_sc_hd__clkbuf_2
*I *4837:Q O *D sky130_fd_sc_hd__dfxtp_1
*CAP
1 *4939:A 0.000527171
2 *4837:Q 0.000527171
3 *4939:A *4191:C1 7.20784e-05
4 *4939:A *839:81 0.000144896
5 *4939:A *1009:16 1.99451e-05
6 *4939:A *1009:42 0.000137561
7 *4191:B1 *4939:A 7.54868e-05
8 *4837:CLK *4939:A 6.29625e-05
*RES
1 *4837:Q *4939:A 35.4214 
*END

*D_NET *830 0.00139674
*CONN
*I *4172:B I *D sky130_fd_sc_hd__or3b_2
*I *4149:B I *D sky130_fd_sc_hd__or4b_1
*I *4154:B I *D sky130_fd_sc_hd__nor4_1
*I *5048:X O *D sky130_fd_sc_hd__buf_1
*CAP
1 *4172:B 6.93918e-05
2 *4149:B 0
3 *4154:B 3.38401e-05
4 *5048:X 0.000204457
5 *830:25 0.000253618
6 *830:10 0.000422524
7 *830:10 *4154:A 5.33786e-05
8 *830:10 *925:23 0
9 *830:25 *4149:C 3.03304e-05
10 *5048:A *830:10 5.92267e-05
11 *5059:A *830:10 0
12 *164:10 *4172:B 7.83587e-05
13 *169:26 *4172:B 9.25762e-05
14 *169:26 *830:25 9.90367e-05
*RES
1 *5048:X *830:10 22.3714 
2 *830:10 *4154:B 9.83571 
3 *830:10 *830:25 3.05357 
4 *830:25 *4149:B 9.3 
5 *830:25 *4172:B 19.8714 
*END

*D_NET *831 0.00262453
*CONN
*I *4174:B I *D sky130_fd_sc_hd__and2b_4
*I *4148:B I *D sky130_fd_sc_hd__and3_1
*I *4249:A I *D sky130_fd_sc_hd__and3_4
*I *4175:B I *D sky130_fd_sc_hd__nand2b_4
*I *4155:A I *D sky130_fd_sc_hd__and3_4
*I *5049:X O *D sky130_fd_sc_hd__clkbuf_2
*CAP
1 *4174:B 2.76349e-05
2 *4148:B 0
3 *4249:A 2.63567e-05
4 *4175:B 0
5 *4155:A 0
6 *5049:X 8.54049e-05
7 *831:33 0.000229774
8 *831:18 0.000379966
9 *831:14 0.00035292
10 *831:8 0.000289411
11 *4174:B *924:8 2.89114e-05
12 *4249:A *4249:B 0.000188586
13 *831:14 *842:6 1.58213e-06
14 *831:14 *842:17 1.03968e-05
15 *831:18 *4148:C 0.000133426
16 *831:18 *842:17 4.61051e-06
17 *831:33 *4148:C 1.74352e-05
18 *831:33 *4249:B 0.000218045
19 *831:33 *844:35 9.24491e-05
20 *831:33 *924:26 5.33005e-05
21 *831:33 *924:32 0.000176234
22 *5058:A *831:14 0
23 *164:8 *831:18 5.71472e-05
24 *164:10 *831:8 5.57914e-05
25 *164:10 *831:14 5.03787e-05
26 *182:10 *4249:A 0.000144773
*RES
1 *5049:X *831:8 15.7464 
2 *831:8 *831:14 7.39286 
3 *831:14 *831:18 3.83929 
4 *831:18 *4155:A 9.3 
5 *831:18 *831:33 14.375 
6 *831:33 *4175:B 9.3 
7 *831:33 *4249:A 11.0679 
8 *831:14 *4148:B 9.3 
9 *831:8 *4174:B 14.3357 
*END

*D_NET *832 0.0174892
*CONN
*I *4814:A I *D sky130_fd_sc_hd__nand2_1
*I *4815:A1 I *D sky130_fd_sc_hd__o211a_1
*I *4791:A2 I *D sky130_fd_sc_hd__a211oi_1
*I *4799:A1 I *D sky130_fd_sc_hd__o211a_1
*I *4798:A I *D sky130_fd_sc_hd__nand2_1
*I *4803:A I *D sky130_fd_sc_hd__nor2_1
*I *4804:A2 I *D sky130_fd_sc_hd__a211oi_1
*I *4502:S I *D sky130_fd_sc_hd__mux2_1
*I *4455:B1_N I *D sky130_fd_sc_hd__a21bo_1
*I *4456:A1 I *D sky130_fd_sc_hd__o211a_1
*I *4935:X O *D sky130_fd_sc_hd__buf_2
*CAP
1 *4814:A 0
2 *4815:A1 0.000995744
3 *4791:A2 0.000604755
4 *4799:A1 0
5 *4798:A 0
6 *4803:A 0
7 *4804:A2 1.1624e-05
8 *4502:S 0.000922256
9 *4455:B1_N 0
10 *4456:A1 0.000184394
11 *4935:X 0
12 *832:134 0.00131232
13 *832:102 0.000625983
14 *832:98 0.00039821
15 *832:89 0.00100647
16 *832:63 1.1624e-05
17 *832:61 0.00143915
18 *832:29 0.00117975
19 *832:23 0.00107873
20 *832:4 0.000512553
21 *4456:A1 *4456:A2 7.91806e-05
22 *4456:A1 *845:26 0.000184745
23 *4456:A1 *849:12 0.000148911
24 *4502:S *966:104 9.59321e-05
25 *4791:A2 *4799:A2 0.000259301
26 *4791:A2 *845:88 1.21289e-05
27 *4791:A2 *845:103 0.000153054
28 *4815:A1 *4815:A2 3.2825e-05
29 *4815:A1 *4815:B1 1.92789e-05
30 *832:23 *4935:A 0.000117533
31 *832:61 *4804:C1 0
32 *832:61 *838:124 0
33 *832:61 *971:37 2.65105e-05
34 *832:89 *4804:C1 0
35 *832:89 *845:88 0.000812737
36 *832:89 *966:104 9.21859e-05
37 *832:89 *970:27 0.000325377
38 *832:98 *845:88 0.000142797
39 *832:102 *845:88 5.52302e-05
40 *832:134 *966:104 0
41 *4239:A *4815:A1 7.61243e-06
42 *4239:A *832:98 1.41029e-05
43 *4239:A *832:134 0.000503639
44 *4455:A1 *4502:S 7.62726e-05
45 *4455:A1 *832:29 5.70551e-05
46 *4455:A2 *832:29 5.30637e-06
47 *4456:C1 *4456:A1 9.90367e-05
48 *4456:C1 *832:29 3.90513e-05
49 *4456:C1 *832:61 8.56812e-05
50 *4502:A1 *4502:S 0.00018372
51 *4503:B *4502:S 1.33343e-05
52 *4798:B *832:89 0.000496019
53 *4798:B *832:98 5.80706e-06
54 *4801:B1 *832:89 0.000169454
55 *4804:A1 *4804:A2 5.52238e-05
56 *4804:B1 *4804:A2 5.52238e-05
57 *4804:B1 *832:61 0.000186662
58 *4815:C1 *4815:A1 0.00114953
59 *4894:CLK *4502:S 9.92409e-05
60 *4894:D *4502:S 7.99677e-06
61 *4912:D *832:134 0.000167767
62 *4913:D *832:61 0.000175519
63 *5036:A *4791:A2 0.000256992
64 *200:16 *4791:A2 0
65 *772:16 *832:29 0.00010326
66 *772:32 *832:23 0.000107977
67 *772:94 *832:23 1.58163e-05
68 *815:14 *4791:A2 0.000230482
69 *815:14 *832:98 5.85135e-05
70 *815:14 *832:134 8.59039e-05
71 *827:14 *4502:S 0.000135709
*RES
1 *4935:X *832:4 9.3 
2 *832:4 *4456:A1 23.2643 
3 *832:4 *832:23 9.96429 
4 *832:23 *832:29 8.92857 
5 *832:29 *4455:B1_N 9.3 
6 *832:29 *4502:S 32.8 
7 *832:23 *832:61 18.9464 
8 *832:61 *832:63 4.5 
9 *832:63 *4804:A2 9.83571 
10 *832:63 *4803:A 9.3 
11 *832:61 *832:89 30.3571 
12 *832:89 *4798:A 13.8 
13 *832:89 *832:98 2.25 
14 *832:98 *832:102 5.03571 
15 *832:102 *4799:A1 9.3 
16 *832:102 *4791:A2 30.6929 
17 *832:98 *832:134 13.1429 
18 *832:134 *4815:A1 24.4786 
19 *832:134 *4814:A 9.3 
*END

*D_NET *833 0.0124642
*CONN
*I *4750:A1 I *D sky130_fd_sc_hd__o211a_1
*I *4744:A I *D sky130_fd_sc_hd__nand2_1
*I *4745:A1 I *D sky130_fd_sc_hd__o211a_1
*I *4749:A I *D sky130_fd_sc_hd__nand2_1
*I *4760:A1 I *D sky130_fd_sc_hd__o211a_1
*I *4759:B1_N I *D sky130_fd_sc_hd__a21bo_1
*I *4786:A1 I *D sky130_fd_sc_hd__o211a_1
*I *4738:A1 I *D sky130_fd_sc_hd__o211a_1
*I *4736:B1_N I *D sky130_fd_sc_hd__a21boi_1
*I *4785:B1_N I *D sky130_fd_sc_hd__a21bo_1
*I *4936:X O *D sky130_fd_sc_hd__buf_2
*CAP
1 *4750:A1 1.11927e-05
2 *4744:A 0
3 *4745:A1 0.000309144
4 *4749:A 0
5 *4760:A1 3.64675e-05
6 *4759:B1_N 6.80945e-05
7 *4786:A1 0
8 *4738:A1 0
9 *4736:B1_N 0.000402338
10 *4785:B1_N 0
11 *4936:X 9.50156e-05
12 *833:95 0.000866416
13 *833:87 0.000743139
14 *833:74 0.000792025
15 *833:59 0.000976361
16 *833:46 0.00154431
17 *833:19 0.000816969
18 *833:17 0.000741696
19 *833:13 0.00157271
20 *833:6 0.000186982
21 *4745:A1 *4745:B1 0
22 *833:17 *4786:B1 5.80706e-06
23 *833:17 *962:21 0
24 *833:17 *971:37 1.0562e-05
25 *833:19 *4786:B1 0.000141122
26 *833:19 *845:49 0.000242092
27 *833:46 *971:37 2.77289e-05
28 *833:74 *4750:B1 4.1331e-06
29 *833:74 *4760:A2 0
30 *4219:A *833:95 0
31 *4223:A *833:95 0
32 *4734:A *4736:B1_N 0.000254337
33 *4734:A *833:19 1.02504e-05
34 *4738:C1 *4736:B1_N 0.000154027
35 *4744:B *4745:A1 6.74911e-05
36 *4744:B *833:95 5.80706e-06
37 *4745:A2 *4745:A1 1.04232e-05
38 *4745:C1 *4745:A1 0
39 *4748:B *833:74 0
40 *4749:B *833:87 0
41 *4750:C1 *833:87 7.80274e-05
42 *4757:A *833:46 4.88637e-05
43 *4757:B *833:46 0.00014183
44 *4759:A1 *4759:B1_N 0
45 *4760:C1 *4759:B1_N 0
46 *4782:A1 *833:46 9.90367e-05
47 *4784:A *833:6 0.00014183
48 *4784:A *833:13 0.000129515
49 *4784:A *833:46 0.000216121
50 *4786:C1 *833:17 0
51 *4903:D *833:19 3.5707e-05
52 *4905:D *833:95 0.000173823
53 *4906:D *4760:A1 3.99614e-06
54 *4906:D *833:74 6.05161e-06
55 *5030:A *4736:B1_N 5.52302e-05
56 *698:8 *833:46 9.40071e-05
57 *698:25 *833:46 5.38242e-05
58 *704:12 *833:59 9.60875e-05
59 *725:6 *833:46 0.000620822
60 *725:14 *833:46 5.52302e-05
61 *777:70 *4750:A1 0
62 *777:70 *833:87 0
63 *777:70 *833:95 5.41301e-05
64 *777:76 *833:87 1.00477e-05
65 *777:76 *833:95 4.51641e-05
66 *777:78 *4745:A1 0
67 *777:78 *833:74 0
68 *777:78 *833:95 0
69 *777:102 *833:74 0
70 *777:117 *833:74 0
71 *780:12 *833:17 0
72 *805:16 *833:19 2.03596e-05
73 *806:29 *4745:A1 2.44318e-05
74 *806:37 *4745:A1 0.000163473
75 *813:25 *833:17 0
76 *813:25 *833:19 0
*RES
1 *4936:X *833:6 10.6571 
2 *833:6 *4785:B1_N 9.3 
3 *833:6 *833:13 1.35714 
4 *833:13 *833:17 10.0893 
5 *833:17 *833:19 9.83929 
6 *833:19 *4736:B1_N 23.0143 
7 *833:19 *4738:A1 13.8 
8 *833:17 *4786:A1 13.8 
9 *833:13 *833:46 16.1429 
10 *833:46 *4759:B1_N 19.3357 
11 *833:46 *833:59 3.82143 
12 *833:59 *4760:A1 10.0321 
13 *833:59 *833:74 18.6786 
14 *833:74 *4749:A 9.3 
15 *833:74 *833:87 3.46429 
16 *833:87 *833:95 13.125 
17 *833:95 *4745:A1 20.1929 
18 *833:95 *4744:A 13.8 
19 *833:87 *4750:A1 9.72857 
*END

*D_NET *834 0.00718201
*CONN
*I *4778:A2 I *D sky130_fd_sc_hd__a211oi_1
*I *4777:A I *D sky130_fd_sc_hd__nor2_1
*I *4772:A I *D sky130_fd_sc_hd__nand2_1
*I *4773:A1 I *D sky130_fd_sc_hd__o211a_1
*I *4765:A1 I *D sky130_fd_sc_hd__o211a_1
*I *4763:B1_N I *D sky130_fd_sc_hd__a21boi_1
*I *4937:X O *D sky130_fd_sc_hd__dlymetal6s2s_1
*CAP
1 *4778:A2 8.22863e-05
2 *4777:A 0.000412783
3 *4772:A 0
4 *4773:A1 4.99107e-05
5 *4765:A1 0.000190748
6 *4763:B1_N 0.000132626
7 *4937:X 0
8 *834:60 0.000658363
9 *834:18 0.000740066
10 *834:16 0.000654647
11 *834:12 0.00124434
12 *834:4 0.00121959
13 *4778:A2 *1002:12 1.76135e-05
14 *834:12 *4773:B1 3.40128e-05
15 *834:12 *847:12 4.43046e-05
16 *4231:B *4778:A2 3.78991e-05
17 *4231:B *834:60 0.000106238
18 *4762:A1 *4763:B1_N 0
19 *4765:A2 *4765:A1 1.04232e-05
20 *4765:C1 *4763:B1_N 0
21 *4765:C1 *4765:A1 9.90431e-05
22 *4770:B2 *4763:B1_N 0
23 *4770:B2 *834:18 0
24 *4778:B1 *4778:A2 0
25 *4909:D *4778:A2 0
26 *4909:D *834:60 0
27 *4911:CLK *4777:A 0.000150368
28 *780:47 *834:60 0
29 *780:49 *4777:A 1.39726e-05
30 *780:73 *4777:A 0.000118604
31 *780:89 *834:12 0.000535248
32 *780:101 *4763:B1_N 0
33 *780:101 *4765:A1 0.000435584
34 *780:101 *4773:A1 0
35 *780:101 *834:12 0
36 *780:101 *834:18 0
37 *810:6 *4765:A1 1.74352e-05
38 *810:12 *4765:A1 0.000175894
*RES
1 *4937:X *834:4 9.3 
2 *834:4 *834:12 23.3214 
3 *834:12 *834:16 2.04464 
4 *834:16 *834:18 7.25893 
5 *834:18 *4763:B1_N 16.05 
6 *834:18 *4765:A1 20.1036 
7 *834:16 *4773:A1 14.6125 
8 *834:12 *4772:A 13.8 
9 *834:4 *834:60 8.11607 
10 *834:60 *4777:A 20.5411 
11 *834:60 *4778:A2 15.5946 
*END

*D_NET *835 0.017785
*CONN
*I *4790:A I *D sky130_fd_sc_hd__nor2_1
*I *4937:A I *D sky130_fd_sc_hd__dlymetal6s2s_1
*I *4936:A I *D sky130_fd_sc_hd__buf_2
*I *4935:A I *D sky130_fd_sc_hd__buf_2
*I *4819:A I *D sky130_fd_sc_hd__nor2_1
*I *4938:X O *D sky130_fd_sc_hd__dlymetal6s2s_1
*CAP
1 *4790:A 0.000742285
2 *4937:A 0.000213754
3 *4936:A 0.000183299
4 *4935:A 0.000542696
5 *4819:A 0.000396767
6 *4938:X 7.72952e-05
7 *835:77 0.00192713
8 *835:54 0.0022273
9 *835:27 0.00231207
10 *835:10 0.00117052
11 *4790:A *1002:22 0.000227412
12 *4819:A *4819:B 0.000529813
13 *4819:A *836:29 0.000118391
14 *4935:A *838:124 0.0010037
15 *4935:A *849:12 0
16 *4936:A *971:37 2.89016e-05
17 *4936:A *1002:28 7.2754e-05
18 *835:10 *4938:A 4.57445e-05
19 *835:27 *4816:B 0.000393943
20 *835:27 *4819:B 0.000214198
21 *835:27 *961:35 0.000397918
22 *835:54 *836:46 0.000169615
23 *835:54 *961:35 0.000870365
24 *835:77 *4795:B1 5.33005e-05
25 *835:77 *962:34 0.000358977
26 *835:77 *962:75 7.71417e-05
27 *4198:A *4935:A 0
28 *4778:B1 *4790:A 0.00010326
29 *4784:A *4936:A 5.33005e-05
30 *4789:B *835:77 0
31 *4790:B *4790:A 5.91094e-05
32 *4795:A1 *835:54 0.000353073
33 *4796:B1 *835:77 2.89114e-05
34 *4798:B *835:54 5.33005e-05
35 *4801:A1 *835:54 0.000422709
36 *4801:A2 *835:54 4.43256e-05
37 *4816:A *835:27 0.000142856
38 *4909:D *4790:A 0
39 *5039:A *4819:A 0
40 *183:53 *835:54 0.00034954
41 *183:53 *835:77 1.38323e-05
42 *722:10 *4936:A 1.76039e-05
43 *722:25 *4936:A 7.60306e-05
44 *726:21 *835:77 0
45 *735:23 *835:54 0.000262498
46 *745:24 *835:77 0.000218734
47 *772:32 *4935:A 0.000226507
48 *772:94 *835:54 0.00024744
49 *780:47 *4790:A 6.26653e-05
50 *780:47 *835:77 0
51 *813:25 *4936:A 0.000308599
52 *813:38 *4936:A 4.49293e-05
53 *818:8 *835:27 2.66563e-05
54 *826:12 *4935:A 0
55 *826:27 *4935:A 0.000196276
56 *832:23 *4935:A 0.000117533
*RES
1 *4938:X *835:10 19.9429 
2 *835:10 *4819:A 15.6214 
3 *835:10 *835:27 12.5893 
4 *835:27 *4935:A 33.3536 
5 *835:27 *835:54 24.2679 
6 *835:54 *4936:A 23.5143 
7 *835:54 *835:77 24.3929 
8 *835:77 *4937:A 17.2107 
9 *835:77 *4790:A 26.6214 
*END

*D_NET *836 0.0268717
*CONN
*I *4995:A I *D sky130_fd_sc_hd__buf_2
*I *4996:A I *D sky130_fd_sc_hd__dlymetal6s2s_1
*I *4544:B1 I *D sky130_fd_sc_hd__o21ai_1
*I *4938:A I *D sky130_fd_sc_hd__dlymetal6s2s_1
*I *4994:A I *D sky130_fd_sc_hd__buf_2
*I *4939:X O *D sky130_fd_sc_hd__clkbuf_2
*CAP
1 *4995:A 0.00114999
2 *4996:A 0
3 *4544:B1 9.95366e-05
4 *4938:A 9.42164e-05
5 *4994:A 0.000474832
6 *4939:X 1.1624e-05
7 *836:65 0.00156996
8 *836:46 0.00444299
9 *836:29 0.00783073
10 *836:8 0.00429949
11 *4544:B1 *838:122 3.18676e-05
12 *4938:A *4819:B 4.84486e-05
13 *4994:A *839:81 9.87924e-05
14 *4994:A *844:20 0
15 *4994:A *972:16 0.000148196
16 *4995:A *4203:B 0
17 *4995:A *4588:A1 0
18 *4995:A *4620:B1 0
19 *4995:A *966:94 0.000196968
20 *4995:A *1011:36 0
21 *836:29 *4191:A1 8.23597e-06
22 *836:29 *4819:B 0.000106534
23 *836:29 *839:81 7.55292e-05
24 *836:29 *843:116 0.00011511
25 *836:29 *844:12 0
26 *836:29 *844:20 0
27 *836:29 *844:52 0.000217275
28 *836:29 *1002:54 0.00139721
29 *836:29 *1009:42 0.000126401
30 *836:29 *1009:55 0.000231426
31 *836:46 *4545:B1 0.000227832
32 *836:46 *837:85 0.000192411
33 *836:46 *961:35 0.000169615
34 *836:46 *968:97 0
35 *836:65 *4545:A1 0.000449539
36 *836:65 *966:94 7.94117e-05
37 *4191:B1 *836:8 5.52238e-05
38 *4540:A *4544:B1 1.76135e-05
39 *4542:B1 *836:65 1.97695e-05
40 *4544:A1 *836:65 1.24368e-05
41 *4545:C1 *4544:B1 0.00012501
42 *4545:C1 *836:46 1.02504e-05
43 *4621:C1 *4995:A 0.000101176
44 *4795:A1 *836:46 4.65158e-06
45 *4819:A *836:29 0.000118391
46 *4889:D *4994:A 8.89117e-05
47 *4895:CLK *4995:A 0.000490464
48 *4895:D *4544:B1 0
49 *4896:CLK *4995:A 5.26184e-05
50 *4897:CLK *4995:A 0
51 *4953:A *836:46 0
52 *5030:A *4995:A 0
53 *183:18 *836:8 5.52238e-05
54 *183:28 *836:29 0
55 *183:28 *836:46 0
56 *183:53 *836:46 0.000172694
57 *498:14 *836:46 1.17968e-05
58 *498:14 *836:65 4.58194e-05
59 *499:30 *4544:B1 0.000199698
60 *499:30 *836:46 4.56437e-05
61 *573:10 *4995:A 7.83366e-05
62 *671:51 *836:46 0
63 *776:21 *836:29 0.000155969
64 *776:32 *836:29 0.000304443
65 *813:25 *836:46 0
66 *818:12 *4938:A 0
67 *825:12 *836:29 0.000596019
68 *835:10 *4938:A 4.57445e-05
69 *835:54 *836:46 0.000169615
*RES
1 *4939:X *836:8 14.3357 
2 *836:8 *4994:A 21.6125 
3 *836:8 *836:29 16.3805 
4 *836:29 *4938:A 19.3082 
5 *836:29 *836:46 36.0125 
6 *836:46 *4544:B1 16.8893 
7 *836:46 *836:65 12.875 
8 *836:65 *4996:A 9.3 
9 *836:65 *4995:A 43.3893 
*END

*D_NET *837 0.0270329
*CONN
*I *4238:A2 I *D sky130_fd_sc_hd__o221a_1
*I *4228:A2 I *D sky130_fd_sc_hd__o221a_1
*I *4226:A2 I *D sky130_fd_sc_hd__o221a_1
*I *4220:A2 I *D sky130_fd_sc_hd__o221a_1
*I *4224:A2 I *D sky130_fd_sc_hd__o221a_1
*I *4202:A2 I *D sky130_fd_sc_hd__o221a_1
*I *4236:A2 I *D sky130_fd_sc_hd__o221a_1
*I *4240:A2 I *D sky130_fd_sc_hd__o221a_1
*I *4200:A2 I *D sky130_fd_sc_hd__o221a_1
*I *4242:A2 I *D sky130_fd_sc_hd__o221a_1
*I *4940:X O *D sky130_fd_sc_hd__clkbuf_4
*CAP
1 *4238:A2 3.74009e-05
2 *4228:A2 0.0002652
3 *4226:A2 0
4 *4220:A2 0.000379743
5 *4224:A2 0.000104885
6 *4202:A2 0.000134106
7 *4236:A2 3.28781e-05
8 *4240:A2 0.000294007
9 *4200:A2 0.000398298
10 *4242:A2 0.000123348
11 *4940:X 0
12 *837:93 0.000908893
13 *837:91 0.000670852
14 *837:89 0.000511787
15 *837:87 0.00357129
16 *837:85 0.00486859
17 *837:73 0.00173125
18 *837:58 0.000797918
19 *837:45 0.000939358
20 *837:28 0.00116388
21 *837:4 0.000752308
22 *4200:A2 *968:61 4.2932e-05
23 *4200:A2 *968:70 0.000567116
24 *4202:A2 *4202:A1 9.15842e-06
25 *4202:A2 *5019:A 2.4741e-05
26 *4202:A2 *967:22 0.000122425
27 *4220:A2 *4220:A1 4.43256e-05
28 *4220:A2 *4220:B1 0.000435496
29 *4220:A2 *4224:B1 0.000214052
30 *4224:A2 *4224:B1 9.24395e-05
31 *4228:A2 *4228:B1 0.000441437
32 *4240:A2 *4240:A1 8.96812e-05
33 *4240:A2 *4240:C1 0
34 *4240:A2 *5088:A 2.44453e-05
35 *4240:A2 *838:124 0
36 *4240:A2 *970:108 3.48001e-05
37 *4240:A2 *970:125 6.05161e-06
38 *4242:A2 *838:124 7.96727e-05
39 *837:45 *848:44 0.000659259
40 *837:58 *848:44 0.000393245
41 *837:73 *4949:A 9.44309e-06
42 *837:73 *848:44 0.000164895
43 *837:85 *4957:A 0
44 *837:85 *968:97 0
45 *837:85 *1002:22 0
46 *837:85 *1002:28 1.52978e-05
47 *837:87 *4234:A1 4.12139e-05
48 *837:87 *4751:B 0.000139907
49 *837:87 *963:23 0.00101028
50 *837:87 *1002:28 9.71197e-05
51 *837:91 *4226:B1 1.09595e-05
52 *837:91 *4228:B1 0.00016106
53 *837:93 *4220:A1 6.75007e-05
54 *837:93 *4224:B1 1.08359e-05
55 *837:93 *4226:B1 2.8266e-06
56 *837:93 *4226:C1 0
57 rdata[20] *837:93 0
58 *4236:B2 *4236:A2 5.51716e-05
59 *4238:B2 *837:73 0.000167666
60 *4242:B2 *4242:A2 0.000245651
61 *4783:A2 *837:87 0.000118645
62 *4783:B1 *837:87 2.58821e-05
63 *4789:A *837:85 4.73656e-05
64 *4791:A1 *837:85 0.000346639
65 *4791:B1 *837:85 0.000170289
66 *4795:A1 *837:85 0
67 *4805:B *837:85 0.000875439
68 *4806:B1 *837:87 0.000440705
69 *4867:CLK *4228:A2 3.34672e-05
70 *4867:CLK *837:91 2.19684e-05
71 *4867:D *4228:A2 0.000142856
72 *4867:D *837:91 0
73 *4873:D *4240:A2 5.33882e-05
74 *183:69 *837:87 0.00133396
75 *200:16 *4202:A2 2.11693e-05
76 *671:47 *837:87 4.15972e-05
77 *814:8 *837:85 0
78 *814:10 *837:85 0
79 *814:12 *837:85 0
80 *814:62 *837:85 0
81 *836:46 *837:85 0.000192411
*RES
1 *4940:X *837:4 9.3 
2 *837:4 *4242:A2 21.4607 
3 *837:4 *4200:A2 16.8536 
4 *837:4 *837:28 2.58929 
5 *837:28 *4240:A2 23.4429 
6 *837:28 *837:45 8.75 
7 *837:45 *4236:A2 19.0321 
8 *837:45 *837:58 3.82143 
9 *837:58 *4202:A2 21.4607 
10 *837:58 *837:73 9.96429 
11 *837:73 *837:85 32.4643 
12 *837:85 *837:87 47.3571 
13 *837:87 *837:89 4.5 
14 *837:89 *837:91 5.89286 
15 *837:91 *837:93 7.71429 
16 *837:93 *4224:A2 16.05 
17 *837:93 *4220:A2 21.3357 
18 *837:91 *4226:A2 13.8 
19 *837:89 *4228:A2 20.2107 
20 *837:73 *4238:A2 14.5321 
*END

*D_NET *838 0.0306409
*CONN
*I *4222:A2 I *D sky130_fd_sc_hd__o221a_1
*I *4940:A I *D sky130_fd_sc_hd__clkbuf_4
*I *4204:A2 I *D sky130_fd_sc_hd__o221a_1
*I *4218:A2 I *D sky130_fd_sc_hd__o221a_1
*I *4216:A2 I *D sky130_fd_sc_hd__o221a_1
*I *4206:A2 I *D sky130_fd_sc_hd__o221a_1
*I *4214:A2 I *D sky130_fd_sc_hd__o221a_1
*I *4212:A2 I *D sky130_fd_sc_hd__o221a_1
*I *4210:A2 I *D sky130_fd_sc_hd__o221a_1
*I *4208:A2 I *D sky130_fd_sc_hd__o221a_1
*I *4941:X O *D sky130_fd_sc_hd__clkbuf_4
*CAP
1 *4222:A2 0.000321568
2 *4940:A 0
3 *4204:A2 0
4 *4218:A2 0
5 *4216:A2 8.45871e-05
6 *4206:A2 0
7 *4214:A2 0
8 *4212:A2 0.000234352
9 *4210:A2 0.000156079
10 *4208:A2 0.000385318
11 *4941:X 0
12 *838:124 0.00232889
13 *838:122 0.00404267
14 *838:118 0.00432891
15 *838:103 0.00340584
16 *838:97 0.00118582
17 *838:88 0.000299526
18 *838:75 0.000419367
19 *838:66 0.000235293
20 *838:57 0.000386891
21 *838:42 0.000547729
22 *838:8 0.000602517
23 *838:4 0.000114105
24 *4208:A2 *4208:B1 4.8035e-05
25 *4208:A2 *849:55 0
26 *4208:A2 *968:113 0.000482584
27 *4210:A2 *4209:B 6.26653e-05
28 *4210:A2 *971:91 1.19309e-05
29 *4212:A2 *4210:B1 2.84398e-05
30 *4216:A2 *4216:A1 1.24368e-05
31 *4216:A2 *4216:B1 6.05161e-06
32 *4222:A2 *4222:A1 0
33 *4222:A2 *4222:B1 0.000148542
34 *4222:A2 *966:80 0.000113877
35 *838:8 *4956:A 5.7661e-06
36 *838:8 *968:113 0.000272603
37 *838:42 *4212:B1 5.03772e-05
38 *838:42 *968:113 4.88637e-05
39 *838:57 *4210:B1 2.49484e-05
40 *838:57 *966:23 0.000210535
41 *838:57 *966:40 0.000184635
42 *838:57 *966:49 5.80706e-06
43 *838:66 *966:49 0.000206083
44 *838:66 *966:58 5.80706e-06
45 *838:75 *966:58 0.000184392
46 *838:88 *4218:A1 6.97972e-05
47 *838:88 *966:58 3.67452e-05
48 *838:88 *966:71 0.000294201
49 *838:88 *966:80 1.76039e-05
50 *838:97 *966:80 6.07232e-05
51 *838:103 *960:10 9.85396e-06
52 *838:118 *4203:B 5.52302e-05
53 *838:118 *4204:C1 0.000272371
54 *838:118 *4726:B 5.52302e-05
55 *838:118 *846:62 0.000535248
56 *838:118 *1012:51 0.00011661
57 *838:124 *4239:B 0
58 *838:124 *4804:C1 0
59 *838:124 *849:12 0
60 *838:124 *849:16 0.00037575
61 *838:124 *968:80 6.8646e-06
62 *4204:B2 *838:103 3.57366e-05
63 *4204:B2 *838:118 0.000418796
64 *4211:A *4208:A2 2.44318e-05
65 *4212:B2 *4212:A2 0.000446603
66 *4212:B2 *838:8 8.84912e-05
67 *4212:B2 *838:42 0.000227532
68 *4222:B2 *4222:A2 6.74911e-05
69 *4240:A2 *838:124 0
70 *4240:B2 *838:124 0
71 *4242:A2 *838:124 7.96727e-05
72 *4242:B2 *838:124 0.000135859
73 *4455:A2 *838:124 0.000129868
74 *4456:C1 *838:124 0.000120255
75 *4497:A *838:122 1.72894e-05
76 *4500:A1 *838:124 2.37761e-05
77 *4544:A2 *838:118 0
78 *4544:A2 *838:122 5.70797e-05
79 *4544:B1 *838:122 3.18676e-05
80 *4730:A *838:118 0.000147585
81 *4730:B *838:118 2.14757e-05
82 *4732:A1 *838:118 0.00022266
83 *4812:A *838:124 0.000177948
84 *4813:A *838:124 0
85 *4813:B *838:124 0.000277524
86 *4814:B *838:124 0
87 *4825:B1 *838:124 5.57727e-05
88 *4855:CLK *838:103 1.95047e-05
89 *4855:D *838:103 3.16898e-05
90 *4857:CLK *4208:A2 0.000110545
91 *4859:D *4212:A2 0.000142856
92 *4862:CLK *838:75 9.21958e-05
93 *4862:CLK *838:88 0.00022453
94 *4864:D *4222:A2 0.000125658
95 *4873:D *838:124 3.79467e-05
96 *4895:D *838:118 0.000754636
97 *4935:A *838:124 0.0010037
98 *4941:A *4208:A2 0.000702273
99 *4941:A *838:8 8.59075e-05
100 *498:14 *838:122 5.39629e-06
101 *681:6 *838:118 9.90367e-05
102 *747:8 *838:124 0
103 *750:10 *838:124 0.00015304
104 *772:16 *838:124 0
105 *778:71 *4212:A2 2.61337e-05
106 *778:71 *838:57 0.00030178
107 *778:80 *838:57 0.000120402
108 *778:80 *838:66 9.47456e-05
109 *778:91 *838:66 0.000120402
110 *778:91 *838:75 9.80029e-05
111 *826:27 *838:124 0.000210375
112 *827:22 *838:122 0.000172318
113 *832:61 *838:124 0
*RES
1 *4941:X *838:4 9.3 
2 *838:4 *838:8 3.01786 
3 *838:8 *4208:A2 29.7464 
4 *838:8 *4210:A2 21.1571 
5 *838:4 *838:42 6.67857 
6 *838:42 *4212:A2 19.6036 
7 *838:42 *838:57 9.83929 
8 *838:57 *4214:A2 13.8 
9 *838:57 *838:66 4.98214 
10 *838:66 *4206:A2 13.8 
11 *838:66 *838:75 4.375 
12 *838:75 *4216:A2 15.175 
13 *838:75 *838:88 8.01786 
14 *838:88 *4218:A2 13.8 
15 *838:88 *838:97 1.64286 
16 *838:97 *838:103 14.2857 
17 *838:103 *4204:A2 9.3 
18 *838:103 *838:118 40.7411 
19 *838:118 *838:122 25.3661 
20 *838:122 *838:124 54.4643 
21 *838:124 *4940:A 13.8 
22 *838:97 *4222:A2 22.3536 
*END

*D_NET *839 0.0263122
*CONN
*I *4191:A2 I *D sky130_fd_sc_hd__o211a_1
*I *4248:A2 I *D sky130_fd_sc_hd__o221a_1
*I *4244:A2 I *D sky130_fd_sc_hd__o221a_1
*I *4246:A2 I *D sky130_fd_sc_hd__o221a_1
*I *4197:A2 I *D sky130_fd_sc_hd__o211a_1
*I *4194:A2 I *D sky130_fd_sc_hd__o211a_1
*I *4188:A2 I *D sky130_fd_sc_hd__o211a_1
*I *4185:A2 I *D sky130_fd_sc_hd__o211a_1
*I *4182:A2 I *D sky130_fd_sc_hd__o211a_1
*I *4179:A2 I *D sky130_fd_sc_hd__o211a_1
*I *4942:X O *D sky130_fd_sc_hd__clkbuf_4
*CAP
1 *4191:A2 0
2 *4248:A2 7.06475e-05
3 *4244:A2 0.00104636
4 *4246:A2 2.83028e-05
5 *4197:A2 0
6 *4194:A2 3.03949e-05
7 *4188:A2 0
8 *4185:A2 0
9 *4182:A2 0
10 *4179:A2 0.000296839
11 *4942:X 0
12 *839:114 0.00215622
13 *839:110 0.00180929
14 *839:93 0.00143566
15 *839:81 0.00126758
16 *839:62 0.00141238
17 *839:49 0.00131732
18 *839:40 0.00138402
19 *839:23 0.00121477
20 *839:6 0.000551943
21 *4179:A2 *4179:A1 5.71472e-05
22 *4179:A2 *841:37 0
23 *4179:A2 *844:35 0
24 *4244:A2 *4246:A1 8.07313e-05
25 *4244:A2 *4830:B 0.000265378
26 *4244:A2 *5025:A 9.92409e-05
27 *4244:A2 *968:44 0.000168447
28 *4248:A2 *4248:A1 5.90995e-05
29 *4248:A2 *4248:B1 1.97695e-05
30 *839:23 *4182:A1 1.02504e-05
31 *839:23 *841:22 4.1331e-06
32 *839:23 *841:37 0
33 *839:40 *4185:A1 1.02504e-05
34 *839:40 *4185:C1 5.80706e-06
35 *839:40 *4998:A 0.000128154
36 *839:40 *844:35 0.000586582
37 *839:40 *1010:52 0
38 *839:49 *4185:A1 0.000117896
39 *839:49 *4185:C1 0.00020933
40 *839:49 *4188:A1 1.02504e-05
41 *839:49 *4293:A1 0.000154762
42 *839:49 *843:50 0.000181675
43 *839:62 *4172:A 5.59013e-05
44 *839:62 *4188:A1 0.000334667
45 *839:62 *4194:A1 9.94037e-05
46 *839:62 *5001:A 0.00018345
47 *839:62 *5096:A 0.000616988
48 *839:81 *4312:A 5.58941e-05
49 *839:81 *843:28 0.000226021
50 *839:81 *972:16 9.3616e-05
51 *839:81 *1009:16 0.000281013
52 *839:93 *4191:A1 0.000183726
53 *839:93 *4337:S 0
54 *839:93 *1009:42 0.00112029
55 *839:93 *1009:55 0.000497794
56 *839:110 *972:131 5.16537e-05
57 *839:114 *4246:C1 0.000879546
58 *839:114 *4248:A1 0.000564074
59 *839:114 *968:23 2.95641e-05
60 *839:114 *968:44 5.62995e-05
61 *4179:B1 *4179:A2 0.000106516
62 *4182:B1 *839:40 3.57366e-05
63 *4188:B1 *839:49 5.80706e-06
64 *4188:B1 *839:62 8.39e-05
65 *4191:B1 *839:81 5.69745e-05
66 *4194:B1 *4194:A2 3.50166e-05
67 *4194:B1 *839:81 9.77423e-05
68 *4197:B1 *839:93 0.000172674
69 *4244:B2 *4244:A2 0.000361187
70 *4312:B *839:81 0.000321745
71 *4337:A0 *839:93 0.000274288
72 *4337:A1 *839:93 9.90431e-05
73 *4338:B *839:93 5.76121e-05
74 *4831:A1 *4244:A2 0.000129595
75 *4831:B1 *4244:A2 3.97657e-05
76 *4846:D *4179:A2 5.33882e-05
77 *4847:D *839:40 0.000169957
78 *4848:CLK *839:40 0
79 *4848:D *839:40 0
80 *4852:D *839:110 5.26091e-05
81 *4888:D *839:49 0.00010326
82 *4916:D *4244:A2 5.33005e-05
83 *4939:A *839:81 0.000144896
84 *4994:A *839:81 9.87924e-05
85 *164:10 *839:40 0
86 *164:10 *839:49 0
87 *164:10 *839:62 0
88 *169:26 *839:62 0.000832688
89 *179:10 *839:62 0
90 *180:12 *839:62 0
91 *199:10 *839:93 0
92 *199:10 *839:110 0
93 *773:53 *4179:A2 0
94 *773:53 *839:23 0
95 *775:22 *839:62 0
96 *775:26 *839:62 0
97 *775:59 *839:81 0
98 *775:89 *839:93 1.98839e-05
99 *776:71 *839:110 0.00100009
100 *779:110 *4244:A2 0
101 *820:36 *4244:A2 2.58997e-05
102 *823:12 *839:93 0.000218045
103 *825:12 *839:93 6.57032e-05
104 *836:29 *839:81 7.55292e-05
*RES
1 *4942:X *839:6 13.8 
2 *839:6 *4179:A2 20.1571 
3 *839:6 *839:23 9.17857 
4 *839:23 *4182:A2 9.3 
5 *839:23 *839:40 23.3929 
6 *839:40 *4185:A2 13.8 
7 *839:40 *839:49 11.9643 
8 *839:49 *4188:A2 13.8 
9 *839:49 *839:62 27.3929 
10 *839:62 *4194:A2 10.0321 
11 *839:62 *839:81 22.9821 
12 *839:81 *839:93 28.3929 
13 *839:93 *4197:A2 13.8 
14 *839:93 *839:110 20.9107 
15 *839:110 *839:114 22.9286 
16 *839:114 *4246:A2 9.72857 
17 *839:114 *4244:A2 37.8 
18 *839:110 *4248:A2 11.0857 
19 *839:81 *4191:A2 9.3 
*END

*D_NET *840 0.0144844
*CONN
*I *4255:A I *D sky130_fd_sc_hd__and2_1
*I *4261:A I *D sky130_fd_sc_hd__and2_1
*I *4167:A I *D sky130_fd_sc_hd__and2_1
*I *4259:A I *D sky130_fd_sc_hd__and2_1
*I *4171:A I *D sky130_fd_sc_hd__and2_1
*I *4263:A I *D sky130_fd_sc_hd__and2_1
*I *4265:A I *D sky130_fd_sc_hd__and2_1
*I *4165:A I *D sky130_fd_sc_hd__and2_1
*I *4163:A I *D sky130_fd_sc_hd__and2_1
*I *4257:A I *D sky130_fd_sc_hd__and2_1
*I *4943:X O *D sky130_fd_sc_hd__clkbuf_2
*CAP
1 *4255:A 0.000112421
2 *4261:A 0.000263044
3 *4167:A 5.40532e-05
4 *4259:A 0.000888022
5 *4171:A 4.05809e-05
6 *4263:A 0.000340015
7 *4265:A 0
8 *4165:A 0.000100754
9 *4163:A 0
10 *4257:A 0.000512568
11 *4943:X 0.000165769
12 *840:61 0.000948372
13 *840:57 0.00105596
14 *840:55 0.00146758
15 *840:53 0.000408524
16 *840:51 0.00161038
17 *840:34 0.00196955
18 *840:14 0.00068233
19 *840:12 0.00112853
20 *840:10 0.000533568
21 *4165:A *895:18 2.59355e-05
22 *4167:A *1000:35 9.90367e-05
23 *4261:A *978:10 6.98302e-05
24 *4261:A *978:20 0.000193125
25 *4261:A *999:29 0.000102197
26 *4263:A *4262:A0 9.75679e-05
27 *4263:A *975:12 3.11088e-05
28 *4263:A *975:31 0.000247171
29 *840:10 *4943:A 5.41494e-05
30 *840:53 *975:105 0
31 *840:53 *978:20 3.34295e-05
32 *840:55 *975:105 0
33 *840:57 *975:105 0
34 *840:61 *975:12 0
35 *840:61 *975:105 0
36 *4163:B *4257:A 0.000152333
37 *4163:B *840:14 1.02504e-05
38 *4167:B *4167:A 1.82029e-05
39 *4171:B *4171:A 9.90367e-05
40 *4255:B *840:10 6.30388e-05
41 *4255:B *840:12 1.76039e-05
42 *4261:B *4261:A 0
43 *4265:B *4263:A 6.52353e-05
44 *4843:CLK *4261:A 2.58997e-05
45 *4843:CLK *840:53 0.000120402
46 *4845:D *840:57 0
47 *4880:D *4255:A 6.05161e-06
48 *4881:CLK *4257:A 0
49 *4881:CLK *840:12 0
50 *4881:CLK *840:14 0
51 *4882:D *4259:A 0.000173823
52 *4967:A *840:53 0
53 *170:27 *4165:A 0
54 *170:40 *4165:A 2.59355e-05
55 *773:14 *840:10 0
56 *773:14 *840:12 0
57 *774:89 *4259:A 4.70078e-05
58 *774:100 *4259:A 0.000260383
59 *774:100 *840:55 0
60 *774:100 *840:57 0
61 *774:104 *840:57 0
62 *774:104 *840:61 0
63 *784:17 *4165:A 0.000121842
64 *793:21 *4259:A 4.17806e-05
*RES
1 *4943:X *840:10 17.1036 
2 *840:10 *840:12 4.375 
3 *840:12 *840:14 3.16071 
4 *840:14 *4257:A 23.6393 
5 *840:14 *4163:A 13.8 
6 *840:12 *840:34 12.4286 
7 *840:34 *4165:A 20.4786 
8 *840:34 *840:51 17.7679 
9 *840:51 *840:53 3.76786 
10 *840:53 *840:55 2.85714 
11 *840:55 *840:57 6.80357 
12 *840:57 *840:61 14.3393 
13 *840:61 *4265:A 9.3 
14 *840:61 *4263:A 17.3714 
15 *840:57 *4171:A 14.7464 
16 *840:55 *4259:A 25.7464 
17 *840:53 *4167:A 15.175 
18 *840:51 *4261:A 19.6393 
19 *840:10 *4255:A 15.5679 
*END

*D_NET *841 0.0194333
*CONN
*I *4278:B1 I *D sky130_fd_sc_hd__o211a_1
*I *4179:C1 I *D sky130_fd_sc_hd__o211a_1
*I *4157:A I *D sky130_fd_sc_hd__and2_1
*I *4169:A I *D sky130_fd_sc_hd__and2_1
*I *4253:A I *D sky130_fd_sc_hd__and2_1
*I *4269:A I *D sky130_fd_sc_hd__and3_1
*I *4159:A I *D sky130_fd_sc_hd__and2_1
*I *4251:A I *D sky130_fd_sc_hd__and2_1
*I *4943:A I *D sky130_fd_sc_hd__clkbuf_2
*I *4182:C1 I *D sky130_fd_sc_hd__o211a_1
*I *4944:X O *D sky130_fd_sc_hd__buf_2
*CAP
1 *4278:B1 0
2 *4179:C1 3.72884e-05
3 *4157:A 0
4 *4169:A 0
5 *4253:A 3.82418e-05
6 *4269:A 0.00053264
7 *4159:A 0
8 *4251:A 3.80696e-05
9 *4943:A 0.000450531
10 *4182:C1 0
11 *4944:X 0.000457942
12 *841:118 0.00169737
13 *841:101 0.00192154
14 *841:77 0.000874185
15 *841:69 0.00111975
16 *841:60 0.000740454
17 *841:43 0.00092039
18 *841:39 0.0004514
19 *841:37 0.000549661
20 *841:22 0.000637092
21 *841:18 0.000674308
22 *4269:A *4178:A1 0
23 *4269:A *4975:A 0
24 *4269:A *1010:80 1.0562e-05
25 *4943:A *4160:A1 0.000119708
26 *4943:A *4254:A1 0.000129515
27 *4943:A *844:35 0
28 *4943:A *863:6 0.00010096
29 *4943:A *1004:10 0.000103267
30 *841:18 *4278:A2 4.73656e-05
31 *841:18 *972:51 1.87955e-05
32 *841:18 *1010:61 0.000140933
33 *841:18 *1010:80 0.000351105
34 *841:22 *4182:A1 0
35 *841:22 *4278:A2 1.02504e-05
36 *841:22 *972:51 0.000143831
37 *841:37 *972:51 9.25014e-06
38 *841:37 *986:48 0.000314349
39 *841:77 *4158:A1 5.62613e-05
40 *841:77 *4252:A1 6.84616e-05
41 *841:77 *4975:A 0.000524122
42 *841:77 *990:10 8.07951e-05
43 *841:77 *1004:43 9.36429e-05
44 *841:118 *975:105 0.000888056
45 *841:118 *979:12 0.000353653
46 *841:118 *984:27 0.00013949
47 *4179:A2 *841:37 0
48 *4179:B1 *841:37 0.000112402
49 *4179:B1 *841:39 4.1331e-06
50 *4182:B1 *841:37 5.52302e-05
51 *4253:B *841:118 2.89016e-05
52 *4269:B *4269:A 7.29187e-05
53 *4554:B1 *841:118 0
54 *4839:CLK *4269:A 0.000173804
55 *4839:D *4269:A 7.43578e-06
56 *4840:CLK *4943:A 6.28241e-05
57 *4840:CLK *841:60 4.25652e-05
58 *4840:CLK *841:69 4.40153e-05
59 *4878:D *841:69 0.000103129
60 *4879:D *841:118 0.00017088
61 *4886:CLK *4269:A 0.000380611
62 *4887:CLK *841:22 0
63 *4966:A *841:118 0.000148182
64 *170:12 *4943:A 0.000148911
65 *170:12 *841:43 0.000148109
66 *170:55 *841:118 5.84171e-05
67 *170:59 *841:118 0.000405866
68 *180:44 *841:18 7.54868e-05
69 *224:10 *841:77 0.000307042
70 *773:12 *841:39 0.000169405
71 *773:14 *4943:A 0
72 *773:14 *841:39 1.02504e-05
73 *773:14 *841:43 0.000843438
74 *773:47 *841:37 0.000176234
75 *773:47 *841:39 2.31791e-05
76 *774:40 *841:118 7.62141e-05
77 *774:42 *841:69 5.38242e-05
78 *774:42 *841:101 0.000101169
79 *774:42 *841:118 2.77289e-05
80 *774:44 *841:69 9.77309e-05
81 *781:33 *4269:A 0.000102197
82 *781:33 *841:77 4.87953e-05
83 *788:8 *841:118 0.000195396
84 *808:34 *841:18 5.33005e-05
85 *839:23 *841:22 4.1331e-06
86 *839:23 *841:37 0
87 *840:10 *4943:A 5.41494e-05
*RES
1 *4944:X *841:18 29.7464 
2 *841:18 *841:22 9.48214 
3 *841:22 *4182:C1 9.3 
4 *841:22 *841:37 15.9464 
5 *841:37 *841:39 2.55357 
6 *841:39 *841:43 15.25 
7 *841:43 *4943:A 28.4429 
8 *841:43 *841:60 1.35714 
9 *841:60 *4251:A 10.0321 
10 *841:60 *841:69 7.51786 
11 *841:69 *841:77 20.6964 
12 *841:77 *4159:A 9.3 
13 *841:77 *4269:A 30.3714 
14 *841:69 *841:101 2.58929 
15 *841:101 *4253:A 10.0321 
16 *841:101 *841:118 46.7143 
17 *841:118 *4169:A 9.3 
18 *841:39 *4157:A 13.8 
19 *841:37 *4179:C1 14.3357 
20 *841:18 *4278:B1 13.8 
*END

*D_NET *842 0.00486025
*CONN
*I *4156:A1 I *D sky130_fd_sc_hd__mux2_1
*I *4250:A1 I *D sky130_fd_sc_hd__mux2_1
*I *4148:A I *D sky130_fd_sc_hd__and3_1
*I *5050:X O *D sky130_fd_sc_hd__buf_1
*CAP
1 *4156:A1 0.000123766
2 *4250:A1 0.00040143
3 *4148:A 2.23854e-05
4 *5050:X 4.4982e-05
5 *842:17 0.00150078
6 *842:6 0.00104295
7 *4156:A1 *4155:C 0.000175519
8 *4250:A1 *986:48 0
9 *4250:A1 *1004:27 5.65955e-05
10 *842:17 *4148:C 0.00042359
11 *842:17 *4155:C 0.000122159
12 *4158:S *4156:A1 3.50166e-05
13 *170:6 *842:17 9.90367e-05
14 *170:98 *4156:A1 9.64329e-05
15 *170:98 *842:17 0.000599059
16 *182:10 *4156:A1 4.50092e-05
17 *224:10 *4156:A1 5.49544e-05
18 *831:14 *842:6 1.58213e-06
19 *831:14 *842:17 1.03968e-05
20 *831:18 *842:17 4.61051e-06
*RES
1 *5050:X *842:6 9.83571 
2 *842:6 *4148:A 9.72857 
3 *842:6 *842:17 18.5893 
4 *842:17 *4250:A1 20.2286 
5 *842:17 *4156:A1 17.6214 
*END

*D_NET *843 0.0203272
*CONN
*I *4338:A I *D sky130_fd_sc_hd__and2_1
*I *4246:C1 I *D sky130_fd_sc_hd__o221a_1
*I *4248:C1 I *D sky130_fd_sc_hd__o221a_1
*I *4197:C1 I *D sky130_fd_sc_hd__o211a_1
*I *4191:C1 I *D sky130_fd_sc_hd__o211a_1
*I *4313:B1 I *D sky130_fd_sc_hd__o211a_1
*I *4194:C1 I *D sky130_fd_sc_hd__o211a_1
*I *4188:C1 I *D sky130_fd_sc_hd__o211a_1
*I *4293:B1 I *D sky130_fd_sc_hd__o211a_1
*I *4185:C1 I *D sky130_fd_sc_hd__o211a_1
*I *4945:X O *D sky130_fd_sc_hd__buf_2
*CAP
1 *4338:A 0
2 *4246:C1 0.000255629
3 *4248:C1 0
4 *4197:C1 0
5 *4191:C1 6.04699e-05
6 *4313:B1 9.43804e-05
7 *4194:C1 2.52056e-05
8 *4188:C1 0
9 *4293:B1 0.000129411
10 *4185:C1 0.000163672
11 *4945:X 0
12 *843:131 0.00110235
13 *843:116 0.00146411
14 *843:108 0.000742795
15 *843:50 0.000480209
16 *843:42 0.00121494
17 *843:28 0.00149453
18 *843:16 0.000920977
19 *843:10 0.00120008
20 *843:4 0.000879928
21 *4185:C1 *4293:A1 5.83304e-05
22 *4185:C1 *4293:A2 5.66157e-05
23 *4191:C1 *1009:42 6.05161e-06
24 *4246:C1 *4248:A1 0.000271345
25 *4246:C1 *968:23 0.00184861
26 *4293:B1 *4293:A1 6.05161e-06
27 *4313:B1 *4313:A1 1.59373e-05
28 *4313:B1 *4313:A2 4.10796e-05
29 *843:10 *4945:A 2.89016e-05
30 *843:10 *5095:A 1.40415e-05
31 *843:16 *1010:22 0
32 *843:16 *1010:114 3.42301e-05
33 *843:42 *972:16 0
34 *843:42 *1010:22 0.00041304
35 *843:50 *4293:A1 9.30093e-05
36 *843:50 *4293:A2 0.000266092
37 *843:131 *4197:A1 0.000274288
38 *843:131 *5028:A 0.00025263
39 *843:131 *5097:A 0.000890249
40 *843:131 *968:10 3.34366e-05
41 *4185:B1 *4185:C1 5.71472e-05
42 *4188:B1 *843:50 9.25014e-06
43 *4194:B1 *4194:C1 5.52302e-05
44 *4248:B2 *843:131 3.15739e-05
45 *4313:C1 *4313:B1 1.8461e-05
46 *4837:CLK *4191:C1 5.33005e-05
47 *4848:CLK *4185:C1 0.00020934
48 *4850:D *843:10 5.7298e-05
49 *4889:D *4313:B1 2.51343e-06
50 *4889:D *843:16 1.90303e-05
51 *4890:CLK *843:10 2.24225e-05
52 *4890:CLK *843:108 0.000280208
53 *4890:CLK *843:116 0.000162282
54 *4890:D *843:116 0.000173823
55 *4939:A *4191:C1 7.20784e-05
56 *4986:A *843:42 9.21933e-05
57 *5068:A *843:42 0.000400401
58 *180:12 *843:42 0
59 *180:22 *843:42 0.000173797
60 *182:68 *843:42 0
61 *182:80 *843:42 0.000444663
62 *183:18 *843:16 2.84633e-05
63 *199:10 *843:131 0
64 *775:26 *843:50 0.000229678
65 *775:59 *843:16 0.000225307
66 *775:59 *843:28 0.00010326
67 *775:59 *843:42 0
68 *775:70 *843:10 3.17148e-05
69 *775:70 *843:16 0.000396353
70 *775:89 *4191:C1 0.000172687
71 *775:89 *843:10 0.000114104
72 *776:56 *843:131 4.35048e-05
73 *823:40 *843:116 0.000196968
74 *836:29 *843:116 0.00011511
75 *839:40 *4185:C1 5.80706e-06
76 *839:49 *4185:C1 0.00020933
77 *839:49 *843:50 0.000181675
78 *839:81 *843:28 0.000226021
79 *839:114 *4246:C1 0.000879546
*RES
1 *4945:X *843:4 9.3 
2 *843:4 *843:10 14.0714 
3 *843:10 *843:16 13.4643 
4 *843:16 *843:28 20.8929 
5 *843:28 *843:42 35.625 
6 *843:42 *843:50 11.6607 
7 *843:50 *4185:C1 19.925 
8 *843:50 *4293:B1 15.4786 
9 *843:42 *4188:C1 9.3 
10 *843:28 *4194:C1 14.3357 
11 *843:16 *4313:B1 11.0857 
12 *843:10 *4191:C1 15.9786 
13 *843:4 *843:108 3.32143 
14 *843:108 *843:116 13.4286 
15 *843:116 *4197:C1 9.3 
16 *843:116 *843:131 29.6964 
17 *843:131 *4248:C1 9.3 
18 *843:131 *4246:C1 26.675 
19 *843:108 *4338:A 9.3 
*END

*D_NET *844 0.031295
*CONN
*I *4945:A I *D sky130_fd_sc_hd__buf_2
*I *4371:B1 I *D sky130_fd_sc_hd__o211a_1
*I *4244:C1 I *D sky130_fd_sc_hd__o221a_1
*I *4411:B1 I *D sky130_fd_sc_hd__o211a_1
*I *4161:A I *D sky130_fd_sc_hd__and2_1
*I *4944:A I *D sky130_fd_sc_hd__buf_2
*I *4946:X O *D sky130_fd_sc_hd__buf_2
*CAP
1 *4945:A 1.40568e-05
2 *4371:B1 0
3 *4244:C1 0
4 *4411:B1 0
5 *4161:A 3.80549e-05
6 *4944:A 0
7 *4946:X 0.000234445
8 *844:81 0.00143199
9 *844:64 0.00178421
10 *844:52 0.00223204
11 *844:35 0.00245091
12 *844:22 0.00268525
13 *844:20 0.0020877
14 *844:12 0.00390008
15 *844:10 0.000453456
16 *844:10 *4191:A1 0
17 *844:12 *4191:A1 0
18 *844:20 *4313:A2 0.000128161
19 *844:20 *972:16 0
20 *844:20 *972:32 0
21 *844:20 *987:64 0
22 *844:20 *989:39 0
23 *844:20 *1001:40 4.74238e-05
24 *844:20 *1004:43 0
25 *844:20 *1004:49 0
26 *844:20 *1004:84 0
27 *844:20 *1005:48 0.000193184
28 *844:20 *1005:93 0
29 *844:35 *924:32 2.91794e-05
30 *844:35 *1004:10 0
31 *844:35 *1010:52 0
32 *844:52 *1009:42 0.000840919
33 *844:52 *1009:55 0.00192808
34 *844:64 *4371:A2 0.000115298
35 *844:64 *1002:54 0.00169554
36 *844:64 *1009:55 5.80706e-06
37 *844:64 *1009:65 1.5816e-05
38 *844:64 *1009:100 4.6025e-06
39 *844:81 *4411:A2 0.000571702
40 *844:81 *4820:A1 5.91452e-05
41 *844:81 *4831:C1 0.000322453
42 *844:81 *968:44 0.000570531
43 *844:81 *1002:46 0.000484511
44 *844:81 *1009:80 5.19723e-05
45 *844:81 *1009:121 0
46 *844:81 *1010:146 0.000209555
47 *4161:B *4161:A 9.90367e-05
48 *4179:A2 *844:35 0
49 *4186:B2 *844:20 0.000111132
50 *4190:B1 *844:20 0
51 *4244:B2 *844:81 0
52 *4307:B *844:20 2.11419e-05
53 *4311:B *844:20 0.000167194
54 *4338:B *844:12 0
55 *4370:B *844:52 2.83284e-06
56 *4370:B *844:64 6.27272e-06
57 *4833:A2 *844:81 0.00010326
58 *4834:A1 *844:81 2.46999e-05
59 *4840:D *844:35 0
60 *4846:D *844:35 0
61 *4887:CLK *844:35 0.000253966
62 *4887:D *844:35 3.47797e-05
63 *4890:CLK *4945:A 5.52238e-05
64 *4891:D *844:52 7.6644e-05
65 *4915:CLK *844:81 0
66 *4916:D *844:81 0.000175512
67 *4943:A *844:35 0
68 *4994:A *844:20 0
69 *164:10 *844:35 0
70 *181:12 *844:35 0
71 *182:53 *844:35 0.00016345
72 *183:28 *844:64 0.00165399
73 *237:12 *844:20 0
74 *244:12 *844:20 0
75 *245:27 *844:20 4.29471e-05
76 *246:10 *844:20 0.000111103
77 *247:10 *844:20 0
78 *248:12 *844:20 0.00028185
79 *274:10 *844:20 0.000858156
80 *759:10 *844:81 5.26184e-05
81 *764:12 *844:81 0.00010326
82 *773:53 *844:35 0.000232889
83 *776:21 *844:52 4.43256e-05
84 *808:21 *844:35 4.44754e-05
85 *808:34 *844:22 0.000527672
86 *808:34 *844:35 3.82088e-05
87 *822:10 *844:20 0.000259021
88 *822:12 *844:20 1.78447e-05
89 *825:25 *844:81 0.000220178
90 *831:33 *844:35 9.24491e-05
91 *836:29 *844:12 0
92 *836:29 *844:20 0
93 *836:29 *844:52 0.000217275
94 *839:40 *844:35 0.000586582
95 *843:10 *4945:A 2.89016e-05
*RES
1 *4946:X *844:10 17.1036 
2 *844:10 *844:12 3.16071 
3 *844:12 *844:20 45.9643 
4 *844:20 *844:22 6.28571 
5 *844:22 *4944:A 9.3 
6 *844:22 *844:35 48.5357 
7 *844:35 *4161:A 14.7464 
8 *844:12 *844:52 37.3571 
9 *844:52 *844:64 14.515 
10 *844:64 *4411:B1 9.3 
11 *844:64 *844:81 45.9643 
12 *844:81 *4244:C1 9.3 
13 *844:52 *4371:B1 13.8 
14 *844:10 *4945:A 14.3357 
*END

*D_NET *845 0.0247243
*CONN
*I *4200:C1 I *D sky130_fd_sc_hd__o221a_1
*I *4815:B1 I *D sky130_fd_sc_hd__o211a_1
*I *4456:B1 I *D sky130_fd_sc_hd__o211a_1
*I *4202:C1 I *D sky130_fd_sc_hd__o221a_1
*I *4236:C1 I *D sky130_fd_sc_hd__o221a_1
*I *4799:B1 I *D sky130_fd_sc_hd__o211a_1
*I *4786:B1 I *D sky130_fd_sc_hd__o211a_1
*I *4738:B1 I *D sky130_fd_sc_hd__o211a_1
*I *4545:B1 I *D sky130_fd_sc_hd__o211a_1
*I *4503:A I *D sky130_fd_sc_hd__and2_1
*I *4947:X O *D sky130_fd_sc_hd__buf_2
*CAP
1 *4200:C1 9.57549e-05
2 *4815:B1 1.55834e-05
3 *4456:B1 0
4 *4202:C1 0.000219023
5 *4236:C1 0
6 *4799:B1 1.99857e-05
7 *4786:B1 0.00010458
8 *4738:B1 2.83028e-05
9 *4545:B1 0.000722572
10 *4503:A 0.000224804
11 *4947:X 0.000445862
12 *845:103 0.000825917
13 *845:88 0.00148931
14 *845:49 0.000943903
15 *845:43 0.00163889
16 *845:28 0.00172894
17 *845:26 0.00200577
18 *845:18 0.00222056
19 *845:12 0.00169122
20 *845:10 0.000977172
21 *4200:C1 *4200:A1 5.50052e-05
22 *4200:C1 *968:70 5.66971e-05
23 *4202:C1 *4236:A1 5.50052e-05
24 *4202:C1 *4957:A 0.000120953
25 *4202:C1 *848:44 0.000230355
26 *4202:C1 *967:10 5.54817e-06
27 *4202:C1 *967:22 0.000148889
28 *4503:A *966:104 0
29 *4545:B1 *4545:A2 0.000152333
30 *4799:B1 *4799:A2 1.04232e-05
31 *4815:B1 *4815:A2 5.52238e-05
32 *845:10 *4947:A 0.000232213
33 *845:18 *849:12 0
34 *845:26 *849:12 0
35 *845:28 *966:104 0
36 *845:88 *4799:A2 2.89016e-05
37 *845:88 *966:104 0
38 *845:103 *4799:A2 6.57032e-05
39 *845:103 *966:104 0.00051705
40 *4237:A *845:103 0
41 *4239:A *845:88 0.000751144
42 *4243:A *845:12 0
43 *4243:A *845:18 0
44 *4455:A1 *4503:A 0
45 *4456:A1 *845:26 0.000184745
46 *4456:C1 *845:26 0.000168265
47 *4786:C1 *4786:B1 5.80706e-06
48 *4791:A2 *845:88 1.21289e-05
49 *4791:A2 *845:103 0.000153054
50 *4799:C1 *845:103 3.34366e-05
51 *4800:A *845:88 4.35131e-05
52 *4801:B1 *845:88 0.000167161
53 *4802:B *845:88 0.000337651
54 *4815:A1 *4815:B1 1.92789e-05
55 *4827:A1 *845:18 0
56 *4853:D *845:10 5.92518e-05
57 *4893:D *845:18 0
58 *4894:CLK *4503:A 0
59 *4894:CLK *845:28 0
60 *4894:CLK *845:88 0
61 *4894:D *4503:A 6.58195e-05
62 *4903:CLK *4786:B1 7.80714e-06
63 *4903:CLK *845:49 4.8476e-05
64 *4910:CLK *845:43 2.89016e-05
65 *4910:D *4786:B1 9.24299e-05
66 *4912:D *845:88 2.51343e-06
67 *4914:D *845:12 0
68 *4960:A *845:18 1.28585e-05
69 *198:10 *4200:C1 1.00887e-05
70 *198:10 *845:12 0.00077296
71 *198:10 *845:18 0.00148499
72 *200:8 *845:43 2.65105e-05
73 *200:16 *4202:C1 0.000120368
74 *200:16 *845:103 0
75 *459:20 *4503:A 1.19309e-05
76 *498:14 *4545:B1 3.34295e-05
77 *762:10 *845:18 0
78 *772:94 *845:43 0.000528337
79 *779:102 *845:10 3.24049e-05
80 *780:12 *4786:B1 2.18827e-05
81 *805:16 *845:49 0.00010326
82 *805:42 *845:49 0.000216057
83 *816:21 *845:88 5.84267e-05
84 *816:30 *845:88 0.000206539
85 *818:12 *845:18 0
86 *818:23 *845:18 0
87 *826:12 *845:26 0.00010096
88 *826:27 *845:26 4.18895e-05
89 *832:89 *845:88 0.000812737
90 *832:98 *845:88 0.000142797
91 *832:102 *845:88 5.52302e-05
92 *833:17 *4786:B1 5.80706e-06
93 *833:19 *4786:B1 0.000141122
94 *833:19 *845:49 0.000242092
95 *836:46 *4545:B1 0.000227832
*RES
1 *4947:X *845:10 20.3 
2 *845:10 *845:12 10.4464 
3 *845:12 *845:18 26.3036 
4 *845:18 *845:26 24.6429 
5 *845:26 *845:28 2.85714 
6 *845:28 *4503:A 18.175 
7 *845:28 *845:43 25.5536 
8 *845:43 *845:49 10.8214 
9 *845:49 *4545:B1 32.6036 
10 *845:49 *4738:B1 9.72857 
11 *845:43 *4786:B1 17.2643 
12 *845:26 *845:88 28.9107 
13 *845:88 *4799:B1 9.72857 
14 *845:88 *845:103 23.2321 
15 *845:103 *4236:C1 9.3 
16 *845:103 *4202:C1 24.6214 
17 *845:18 *4456:B1 13.8 
18 *845:12 *4815:B1 14.3357 
19 *845:10 *4200:C1 16.0143 
*END

*D_NET *846 0.0136803
*CONN
*I *4226:C1 I *D sky130_fd_sc_hd__o221a_1
*I *4224:C1 I *D sky130_fd_sc_hd__o221a_1
*I *4222:C1 I *D sky130_fd_sc_hd__o221a_1
*I *4218:C1 I *D sky130_fd_sc_hd__o221a_1
*I *4216:C1 I *D sky130_fd_sc_hd__o221a_1
*I *4725:C1 I *D sky130_fd_sc_hd__o221a_1
*I *4204:C1 I *D sky130_fd_sc_hd__o221a_1
*I *4745:B1 I *D sky130_fd_sc_hd__o211a_1
*I *4733:B1 I *D sky130_fd_sc_hd__o211a_1
*I *4220:C1 I *D sky130_fd_sc_hd__o221a_1
*I *4948:X O *D sky130_fd_sc_hd__buf_2
*CAP
1 *4226:C1 0.000281409
2 *4224:C1 1.64323e-05
3 *4222:C1 3.56994e-05
4 *4218:C1 4.05636e-05
5 *4216:C1 0
6 *4725:C1 0
7 *4204:C1 4.50627e-05
8 *4745:B1 0.000574868
9 *4733:B1 0
10 *4220:C1 9.66484e-05
11 *4948:X 6.74175e-05
12 *846:62 0.000841659
13 *846:47 0.000636431
14 *846:41 0.00154162
15 *846:33 0.00153091
16 *846:29 0.000957189
17 *846:27 0.000812222
18 *846:25 0.000468821
19 *846:23 0.000720248
20 *846:10 0.000414408
21 *4220:C1 *4219:B 0
22 *4220:C1 *4220:B1 5.65955e-05
23 *4226:C1 *4226:B1 2.8266e-06
24 *4226:C1 *967:91 0.000519102
25 *846:23 *4220:A1 0.000397446
26 *846:23 *4220:B1 0.000103242
27 *846:25 *4224:B1 0
28 *846:25 *967:91 5.33614e-05
29 *846:27 *4222:B1 2.8266e-06
30 *846:29 *4222:B1 5.76278e-05
31 *846:29 *5100:A 7.08001e-05
32 *846:29 *960:10 4.48206e-05
33 *846:29 *966:80 0
34 *846:33 *966:58 0
35 *846:33 *966:71 0
36 *846:33 *971:81 0
37 *846:33 *971:83 0
38 *846:41 *4215:B 0.000133361
39 *846:47 *847:86 1.70753e-05
40 *4204:B2 *4204:C1 0.000143625
41 *4204:B2 *846:62 0.000297662
42 *4215:A *846:41 2.95726e-05
43 *4216:B2 *846:41 0.000143652
44 *4218:B2 *4218:C1 9.90431e-05
45 *4220:B2 *4220:C1 4.40586e-05
46 *4221:A *846:27 0
47 *4221:A *846:29 0
48 *4223:B *846:10 4.93285e-05
49 *4224:B2 *4224:C1 9.90431e-05
50 *4226:B2 *4226:C1 9.90431e-05
51 *4725:B1 *846:41 6.86693e-05
52 *4725:B2 *846:41 2.95641e-05
53 *4725:B2 *846:47 9.90431e-05
54 *4728:A *846:47 4.1331e-06
55 *4732:A2 *846:62 1.02504e-05
56 *4733:C1 *846:62 0.000149171
57 *4745:A1 *4745:B1 0
58 *4745:C1 *4745:B1 5.80706e-06
59 *4855:CLK *846:29 0
60 *4865:CLK *4224:C1 9.90431e-05
61 *4866:CLK *4226:C1 9.90431e-05
62 *4901:D *846:41 0.000258506
63 *4902:CLK *846:62 8.24047e-05
64 *4904:D *4745:B1 0
65 *4923:A *846:47 7.60306e-05
66 *4923:A *846:62 1.18451e-05
67 *181:60 *4745:B1 0
68 *772:118 *846:47 9.33907e-05
69 *777:23 *846:29 0
70 *777:49 *846:25 0
71 *777:49 *846:27 0
72 *777:62 *846:25 0
73 *778:25 *846:47 0
74 *798:59 *846:41 0.000127463
75 *798:59 *846:47 2.28499e-05
76 *803:12 *846:41 3.24712e-05
77 *806:6 *4222:C1 3.69047e-06
78 *806:29 *846:27 5.35824e-05
79 *837:93 *4226:C1 0
80 *838:118 *4204:C1 0.000272371
81 *838:118 *846:62 0.000535248
*RES
1 *4948:X *846:10 19.6393 
2 *846:10 *4220:C1 11.0857 
3 *846:10 *846:23 9.55357 
4 *846:23 *846:25 3.16071 
5 *846:25 *846:27 4.98214 
6 *846:27 *846:29 9.83929 
7 *846:29 *846:33 11.6071 
8 *846:33 *846:41 16.0893 
9 *846:41 *846:47 12.9643 
10 *846:47 *4733:B1 13.8 
11 *846:47 *846:62 12.9464 
12 *846:62 *4745:B1 28.1393 
13 *846:62 *4204:C1 11.8893 
14 *846:41 *4725:C1 9.3 
15 *846:33 *4216:C1 9.3 
16 *846:29 *4218:C1 14.7464 
17 *846:27 *4222:C1 14.3357 
18 *846:25 *4224:C1 14.7464 
19 *846:23 *4226:C1 21.55 
*END

*D_NET *847 0.026886
*CONN
*I *4232:C1 I *D sky130_fd_sc_hd__o221a_1
*I *4228:C1 I *D sky130_fd_sc_hd__o221a_1
*I *4230:C1 I *D sky130_fd_sc_hd__o221a_1
*I *4765:B1 I *D sky130_fd_sc_hd__o211a_1
*I *4234:C1 I *D sky130_fd_sc_hd__o221a_1
*I *4948:A I *D sky130_fd_sc_hd__buf_2
*I *4750:B1 I *D sky130_fd_sc_hd__o211a_1
*I *4588:B1 I *D sky130_fd_sc_hd__o211a_1
*I *4760:B1 I *D sky130_fd_sc_hd__o211a_1
*I *4773:B1 I *D sky130_fd_sc_hd__o211a_1
*I *4949:X O *D sky130_fd_sc_hd__clkbuf_4
*CAP
1 *4232:C1 0.000220969
2 *4228:C1 0.000816231
3 *4230:C1 0
4 *4765:B1 0
5 *4234:C1 2.04426e-05
6 *4948:A 0.000191828
7 *4750:B1 0.000148192
8 *4588:B1 0.00132754
9 *4760:B1 0.00038002
10 *4773:B1 5.23143e-05
11 *4949:X 0
12 *847:147 0.00140749
13 *847:86 0.0024404
14 *847:70 0.00167217
15 *847:62 0.00101856
16 *847:60 0.00060814
17 *847:39 0.00101568
18 *847:35 0.000602916
19 *847:33 0.00148511
20 *847:12 0.00238314
21 *847:4 0.00179729
22 *4228:C1 *4230:A1 0.000105133
23 *4232:C1 *4232:B1 5.46383e-06
24 *4232:C1 *967:41 4.49191e-05
25 *4232:C1 *967:64 8.10737e-06
26 *4588:B1 *964:8 7.15962e-05
27 *4750:B1 *4750:A2 0.000127446
28 *4760:B1 *4760:A2 0.000662889
29 *847:12 *4232:A1 0.000100165
30 *847:70 *970:33 1.98839e-05
31 *847:86 *4732:B1_N 5.41794e-05
32 *847:86 *4733:A1 0.000148903
33 *847:86 *4741:B1 0
34 *847:147 *4229:B 5.52302e-05
35 *4219:A *847:70 9.25014e-06
36 *4223:A *847:70 3.17148e-05
37 *4225:A *4234:C1 2.59355e-05
38 *4228:B2 *4228:C1 4.57352e-05
39 *4229:A *847:33 0
40 *4229:A *847:147 0.000486993
41 *4230:A2 *4228:C1 6.01685e-05
42 *4230:A2 *847:147 4.50365e-05
43 *4230:B2 *4228:C1 0.000111909
44 *4230:B2 *847:147 0.000230432
45 *4232:A2 *4232:C1 1.24368e-05
46 *4232:B2 *4232:C1 9.2194e-05
47 *4588:A2 *4588:B1 1.04232e-05
48 *4727:A1 *847:86 5.52302e-05
49 *4727:B1_N *4588:B1 3.30237e-05
50 *4727:B1_N *847:86 1.24368e-05
51 *4728:A *847:86 3.34366e-05
52 *4728:B *847:86 9.31794e-05
53 *4742:B1 *847:86 1.78447e-05
54 *4742:B2 *847:86 0.000180408
55 *4760:C1 *4760:B1 2.55788e-05
56 *4765:C1 *847:39 0
57 *4773:A2 *4773:B1 5.32693e-06
58 *4773:C1 *4773:B1 1.01249e-05
59 *4867:CLK *4228:C1 0
60 *4868:CLK *4228:C1 0
61 *4868:D *4228:C1 8.73796e-05
62 *4896:D *4588:B1 0.000172893
63 *4902:CLK *847:86 8.63888e-05
64 *4908:D *847:33 3.35721e-05
65 *4923:A *847:86 0.000729762
66 *5043:A *4760:B1 8.66063e-05
67 *181:60 *847:62 0
68 *181:60 *847:70 0
69 *181:71 *847:33 0
70 *181:71 *847:35 0
71 *181:71 *847:39 0
72 *181:79 *847:33 0
73 *181:79 *847:147 2.44318e-05
74 *183:69 *4760:B1 7.84071e-05
75 *183:69 *847:39 0
76 *183:69 *847:60 0.000217044
77 *183:69 *847:62 0.000225307
78 *660:34 *847:86 0
79 *679:14 *847:86 1.39726e-05
80 *681:10 *847:86 0.00017875
81 *704:12 *4760:B1 0.000148189
82 *704:25 *4760:B1 5.33433e-05
83 *772:118 *847:86 0.000176226
84 *777:70 *4948:A 0.000407146
85 *777:78 *4750:B1 5.57096e-05
86 *777:78 *847:86 0.000579309
87 *777:117 *4234:C1 5.33005e-05
88 *780:89 *4773:B1 4.08653e-05
89 *780:89 *847:12 7.6644e-05
90 *780:89 *847:33 0.000274294
91 *780:101 *4773:B1 0
92 *780:101 *847:33 0
93 *780:101 *847:35 0
94 *798:8 *4588:B1 7.97655e-05
95 *798:16 *4588:B1 6.78055e-06
96 *798:59 *4588:B1 0.000174804
97 *798:59 *847:86 0.000498922
98 *805:53 *847:86 0
99 *807:10 *4948:A 0.000142856
100 *807:10 *847:70 0.00012401
101 *807:27 *847:70 0.000704608
102 *809:14 *847:60 0
103 *809:20 *4760:B1 0.000580978
104 *811:6 *847:33 2.11564e-05
105 *811:12 *4773:B1 3.18676e-05
106 *833:74 *4750:B1 4.1331e-06
107 *834:12 *4773:B1 3.40128e-05
108 *834:12 *847:12 4.43046e-05
109 *846:47 *847:86 1.70753e-05
*RES
1 *4949:X *847:4 9.3 
2 *847:4 *847:12 31.3929 
3 *847:12 *4773:B1 15.4964 
4 *847:12 *847:33 20.7679 
5 *847:33 *847:35 2.25 
6 *847:35 *847:39 12.5179 
7 *847:39 *4760:B1 30.1393 
8 *847:39 *847:60 8.21429 
9 *847:60 *847:62 8.01786 
10 *847:62 *847:70 18.3571 
11 *847:70 *847:86 35.9107 
12 *847:86 *4588:B1 26.9964 
13 *847:70 *4750:B1 17.0143 
14 *847:62 *4948:A 18.4607 
15 *847:60 *4234:C1 14.3357 
16 *847:35 *4765:B1 13.8 
17 *847:33 *847:147 17.2321 
18 *847:147 *4230:C1 9.3 
19 *847:147 *4228:C1 34.05 
20 *847:4 *4232:C1 21.8357 
*END

*D_NET *848 0.00878168
*CONN
*I *4242:C1 I *D sky130_fd_sc_hd__o221a_1
*I *4949:A I *D sky130_fd_sc_hd__clkbuf_4
*I *4238:C1 I *D sky130_fd_sc_hd__o221a_1
*I *4240:C1 I *D sky130_fd_sc_hd__o221a_1
*I *4947:A I *D sky130_fd_sc_hd__buf_2
*I *4950:X O *D sky130_fd_sc_hd__dlymetal6s2s_1
*CAP
1 *4242:C1 0
2 *4949:A 0.000833983
3 *4238:C1 0
4 *4240:C1 0.00026179
5 *4947:A 0.000205792
6 *4950:X 0.000145682
7 *848:44 0.00126409
8 *848:27 0.00120726
9 *848:19 0.000751482
10 *848:10 0.000587595
11 *4240:C1 *4240:A1 3.0285e-05
12 *4240:C1 *5088:A 3.02917e-05
13 *4949:A *4238:A1 0.000576612
14 *4949:A *967:22 9.84673e-05
15 *848:19 *957:8 1.84776e-05
16 *848:27 *4242:A1 0.000411285
17 *848:27 *5088:A 6.37841e-05
18 *848:44 *4236:A1 8.35838e-05
19 *848:44 *967:22 0.000108037
20 *4202:C1 *848:44 0.000230355
21 *4238:B2 *4949:A 7.15503e-05
22 *4238:B2 *848:44 0.000182804
23 *4240:A2 *4240:C1 0
24 *4853:D *4947:A 5.92518e-05
25 *779:65 *4240:C1 0
26 *779:80 *4240:C1 0
27 *779:102 *4947:A 0.000100165
28 *837:45 *848:44 0.000659259
29 *837:58 *848:44 0.000393245
30 *837:73 *4949:A 9.44309e-06
31 *837:73 *848:44 0.000164895
32 *845:10 *4947:A 0.000232213
*RES
1 *4950:X *848:10 20.8536 
2 *848:10 *4947:A 14.7643 
3 *848:10 *848:19 3.82143 
4 *848:19 *848:27 14.1786 
5 *848:27 *4240:C1 18.175 
6 *848:27 *848:44 19.0357 
7 *848:44 *4238:C1 9.3 
8 *848:44 *4949:A 24.6393 
9 *848:19 *4242:C1 9.3 
*END

*D_NET *849 0.0337611
*CONN
*I *4950:A I *D sky130_fd_sc_hd__dlymetal6s2s_1
*I *4713:B1 I *D sky130_fd_sc_hd__o211a_1
*I *4208:C1 I *D sky130_fd_sc_hd__o221a_1
*I *4206:C1 I *D sky130_fd_sc_hd__o221a_1
*I *4212:C1 I *D sky130_fd_sc_hd__o221a_1
*I *4214:C1 I *D sky130_fd_sc_hd__o221a_1
*I *4685:B1 I *D sky130_fd_sc_hd__o211a_1
*I *4656:B1 I *D sky130_fd_sc_hd__o211a_1
*I *4210:C1 I *D sky130_fd_sc_hd__o221a_1
*I *4621:B1 I *D sky130_fd_sc_hd__o211a_1
*I *4951:X O *D sky130_fd_sc_hd__clkbuf_4
*CAP
1 *4950:A 0.000105017
2 *4713:B1 0
3 *4208:C1 0
4 *4206:C1 0.000192283
5 *4212:C1 0.000792129
6 *4214:C1 1.995e-05
7 *4685:B1 1.99857e-05
8 *4656:B1 0.000499046
9 *4210:C1 0.000623029
10 *4621:B1 1.17582e-05
11 *4951:X 4.36033e-05
12 *849:104 0.0008312
13 *849:102 0.00128292
14 *849:76 0.000654544
15 *849:55 0.00104879
16 *849:53 0.00136177
17 *849:51 0.000327323
18 *849:43 0.00204215
19 *849:24 0.00384096
20 *849:16 0.00343907
21 *849:12 0.00336411
22 *849:8 0.00218804
23 *4206:C1 *966:49 0.000184635
24 *4206:C1 *971:87 0
25 *4210:C1 *4209:B 5.58983e-05
26 *4212:C1 *4212:A1 0
27 *4212:C1 *4212:B1 2.89114e-05
28 *4212:C1 *4214:A1 0.000184745
29 *4212:C1 *5073:A 0
30 *4621:B1 *4621:A2 1.04232e-05
31 *4656:B1 *4655:A 1.87955e-05
32 *4656:B1 *968:113 0.000183726
33 *4656:B1 *1011:54 0
34 *849:12 *4815:A2 5.33978e-05
35 *849:12 *961:50 0.000107741
36 *849:12 *968:80 0
37 *849:12 *970:100 0
38 *849:43 *4621:A2 6.86693e-05
39 *849:43 *4713:A1 0.000100873
40 *849:43 *4713:A2 3.57366e-05
41 *849:76 *968:113 0.000305633
42 *849:102 *4213:B 0.000139208
43 *849:102 *4713:A2 0.00044468
44 rdata[13] *4212:C1 0
45 rdata[14] *4212:C1 0
46 *4198:A *849:12 6.1684e-05
47 *4208:A2 *849:55 0
48 *4208:B2 *849:55 2.8266e-06
49 *4208:B2 *849:102 4.35048e-05
50 *4209:A *4210:C1 0
51 *4210:B2 *4210:C1 5.45307e-05
52 *4212:B2 *4212:C1 5.71472e-05
53 *4213:A *4206:C1 0
54 *4214:B2 *4212:C1 7.61932e-05
55 *4214:B2 *4214:C1 1.04232e-05
56 *4214:B2 *849:102 0.000115258
57 *4443:A *849:16 0
58 *4445:A2 *849:16 1.28585e-05
59 *4456:A1 *849:12 0.000148911
60 *4491:A *849:16 3.92757e-05
61 *4492:A1 *849:16 0
62 *4493:C1 *849:16 0.000166976
63 *4494:B1 *849:16 0.000200406
64 *4534:A1 *849:24 1.82657e-05
65 *4534:B1 *849:24 2.89114e-05
66 *4534:C1 *849:24 0.000186669
67 *4581:B *849:24 9.7659e-05
68 *4582:B *849:24 7.37256e-05
69 *4619:A *4621:B1 3.57366e-05
70 *4619:A *849:24 0.000492333
71 *4619:B *849:24 0.000662718
72 *4685:A2 *4685:B1 1.04232e-05
73 *4685:A2 *849:76 3.99614e-06
74 *4685:C1 *4656:B1 1.76039e-05
75 *4812:A *849:12 0
76 *4813:B *849:12 0
77 *4817:B1_N *849:12 9.27592e-05
78 *4818:B *849:12 0.000320016
79 *4825:B1 *849:12 0
80 *4857:CLK *849:55 0
81 *4860:D *4212:C1 0.000151333
82 *4897:CLK *849:43 0.000150625
83 *4897:D *849:43 3.92854e-05
84 *4899:D *849:76 0.00017088
85 *4900:D *849:102 1.02504e-05
86 *4935:A *849:12 0
87 *4941:A *849:55 0
88 *4941:A *849:102 0
89 *4951:A *4950:A 9.77842e-05
90 *4951:A *849:12 0.000474567
91 *4960:A *849:12 3.68759e-05
92 *11:9 *849:16 0
93 *181:60 *849:102 0
94 *183:53 *849:12 8.03051e-05
95 *198:10 *849:12 0
96 *400:10 *849:16 1.87004e-05
97 *401:10 *849:16 0.00012401
98 *402:27 *849:16 0.000187902
99 *403:12 *849:16 0.000180134
100 *404:12 *849:16 0
101 *406:12 *849:16 0
102 *412:28 *849:16 0.000148911
103 *448:6 *849:24 0.000235232
104 *451:8 *849:16 0.000349061
105 *492:10 *849:24 0.000271345
106 *538:8 *849:24 0.000116749
107 *539:6 *849:24 0.000356028
108 *574:25 *849:43 0.000916754
109 *671:14 *849:43 0
110 *754:12 *849:12 9.61995e-05
111 *772:16 *849:16 0
112 *772:32 *849:16 0
113 *778:29 *849:51 0.000391576
114 *778:29 *849:55 0
115 *778:29 *849:102 0
116 *778:31 *4210:C1 0
117 *778:31 *849:55 0
118 *778:33 *4210:C1 0
119 *778:71 *4212:C1 0
120 *778:80 *4212:C1 0
121 *779:100 *4950:A 0.000180195
122 *779:100 *849:8 5.33005e-05
123 *801:8 *849:76 0.000187467
124 *801:10 *4656:B1 0.000102207
125 *801:10 *849:76 2.14658e-05
126 *826:12 *849:12 0.0001479
127 *826:27 *849:12 0
128 *826:27 *849:16 0.000446737
129 *838:124 *849:12 0
130 *838:124 *849:16 0.00037575
131 *845:18 *849:12 0
132 *845:26 *849:12 0
*RES
1 *4951:X *849:8 14.3357 
2 *849:8 *849:12 42.1161 
3 *849:12 *849:16 38.1696 
4 *849:16 *849:24 33.5536 
5 *849:24 *4621:B1 9.72857 
6 *849:24 *849:43 32.875 
7 *849:43 *849:51 16.5714 
8 *849:51 *849:53 4.5 
9 *849:53 *849:55 4.98214 
10 *849:55 *4210:C1 24.0857 
11 *849:55 *849:76 10.5179 
12 *849:76 *4656:B1 28.0857 
13 *849:76 *4685:B1 9.72857 
14 *849:53 *849:102 21.3036 
15 *849:102 *849:104 0.428571 
16 *849:104 *4214:C1 9.72857 
17 *849:104 *4212:C1 33.2107 
18 *849:102 *4206:C1 22.675 
19 *849:51 *4208:C1 9.3 
20 *849:43 *4713:B1 9.3 
21 *849:8 *4950:A 16.3 
*END

*D_NET *850 0.000368073
*CONN
*I *4524:A2 I *D sky130_fd_sc_hd__a21oi_1
*I *5109:X O *D sky130_fd_sc_hd__dlymetal6s2s_1
*CAP
1 *4524:A2 3.78767e-05
2 *5109:X 3.78767e-05
3 *4524:A1 *4524:A2 5.33433e-05
4 *4524:B1 *4524:A2 0.000185643
5 *479:27 *4524:A2 5.33334e-05
*RES
1 *5109:X *4524:A2 20.3679 
*END

*D_NET *851 0.000677122
*CONN
*I *5109:A I *D sky130_fd_sc_hd__dlymetal6s2s_1
*I *5110:X O *D sky130_fd_sc_hd__dlymetal6s2s_1
*CAP
1 *5109:A 0.000315689
2 *5110:X 0.000315689
3 *481:12 *5109:A 0
4 *482:12 *5109:A 4.57445e-05
*RES
1 *5110:X *5109:A 32.7429 
*END

*D_NET *852 0.00746122
*CONN
*I *4158:A1 I *D sky130_fd_sc_hd__mux2_1
*I *4252:A1 I *D sky130_fd_sc_hd__mux2_1
*I *5051:X O *D sky130_fd_sc_hd__buf_1
*CAP
1 *4158:A1 0.000261748
2 *4252:A1 0.000345475
3 *5051:X 0.00143871
4 *852:8 0.00204594
5 *4158:A1 *4250:A0 0
6 *4158:A1 *4975:A 0.000320031
7 *4158:A1 *866:25 0
8 *4158:A1 *990:10 7.90803e-05
9 *4252:A1 *4250:A0 0.000405727
10 *4252:A1 *4252:A0 5.52302e-05
11 *4252:A1 *1004:137 7.41433e-05
12 *4158:S *4158:A1 0.000490416
13 *4199:C1 *4158:A1 0.000490416
14 *4253:B *4252:A1 0
15 *4840:CLK *852:8 0.000632889
16 *224:10 *4252:A1 0
17 *774:42 *852:8 0.000134471
18 *774:44 *852:8 0.000235367
19 *789:8 *4158:A1 0.000151333
20 *789:8 *4252:A1 9.25014e-06
21 *789:21 *4158:A1 0.000166269
22 *841:77 *4158:A1 5.62613e-05
23 *841:77 *4252:A1 6.84616e-05
*RES
1 *5051:X *852:8 33.2286 
2 *852:8 *4252:A1 21.3 
3 *852:8 *4158:A1 24.9429 
*END

*D_NET *853 0.00192105
*CONN
*I *4792:B I *D sky130_fd_sc_hd__or2_1
*I *5111:X O *D sky130_fd_sc_hd__dlygate4sd1_1
*CAP
1 *4792:B 0.000410993
2 *5111:X 0.000410993
3 *4792:B *966:104 0
4 *4792:B *1002:28 5.52302e-05
5 *4807:A3 *4792:B 0.000199924
6 *200:16 *4792:B 0.000512604
7 *737:12 *4792:B 8.33559e-05
8 *772:94 *4792:B 0.000190798
9 *779:8 *4792:B 5.71472e-05
*RES
1 *5111:X *4792:B 38.35 
*END

*D_NET *854 0.000519164
*CONN
*I *5113:A I *D sky130_fd_sc_hd__dlymetal6s2s_1
*I *4678:A3 I *D sky130_fd_sc_hd__a31o_1
*I *5112:X O *D sky130_fd_sc_hd__clkbuf_2
*CAP
1 *5113:A 2.00869e-05
2 *4678:A3 7.50234e-05
3 *5112:X 2.52229e-05
4 *854:6 0.000120333
5 *4650:A *5113:A 5.52302e-05
6 *4650:A *854:6 5.52238e-05
7 *4680:A *4678:A3 9.47456e-05
8 *4680:B *4678:A3 6.74911e-05
9 *601:12 *4678:A3 5.80706e-06
*RES
1 *5112:X *854:6 9.83571 
2 *854:6 *4678:A3 20.55 
3 *854:6 *5113:A 9.83571 
*END

*D_NET *855 0.00112229
*CONN
*I *4650:B I *D sky130_fd_sc_hd__nand2_4
*I *5113:X O *D sky130_fd_sc_hd__dlymetal6s2s_1
*CAP
1 *4650:B 0.00013159
2 *5113:X 0.00013159
3 *4650:A *4650:B 0.000320024
4 *654:12 *4650:B 0.000539088
*RES
1 *5113:X *4650:B 24.0821 
*END

*D_NET *856 0.00383594
*CONN
*I *4742:A2_N I *D sky130_fd_sc_hd__a2bb2o_4
*I *4741:B1 I *D sky130_fd_sc_hd__o21ai_1
*I *4739:B I *D sky130_fd_sc_hd__nand2_1
*I *4735:A2 I *D sky130_fd_sc_hd__a21bo_1
*I *4754:B1 I *D sky130_fd_sc_hd__o41a_1
*I *4934:X O *D sky130_fd_sc_hd__clkbuf_1
*CAP
1 *4742:A2_N 0
2 *4741:B1 0.000124219
3 *4739:B 0
4 *4735:A2 0
5 *4754:B1 0.000302995
6 *4934:X 2.23854e-05
7 *856:38 0.000305689
8 *856:30 0.000337852
9 *856:8 0.000545888
10 *856:6 0.00042166
11 *4735:B1_N *856:8 2.77173e-05
12 *4735:B1_N *856:30 0.00018796
13 *4735:B1_N *856:38 0.000188586
14 *4741:A2 *4741:B1 5.33433e-05
15 *4742:A1_N *4741:B1 5.44074e-05
16 *4742:A1_N *856:38 7.95487e-05
17 *4742:B1 *856:38 3.34366e-05
18 *4742:B2 *4741:B1 6.65302e-05
19 *4742:B2 *856:38 0.000113877
20 *4934:A *856:8 0.000170964
21 *4934:A *856:30 5.7661e-06
22 *671:27 *4754:B1 2.89016e-05
23 *671:27 *856:8 6.42095e-05
24 *684:8 *4754:B1 0
25 *689:25 *856:38 0
26 *700:10 *4754:B1 0.000589019
27 *805:53 *4741:B1 1.19402e-05
28 *805:66 *4741:B1 9.90431e-05
29 *847:86 *4741:B1 0
*RES
1 *4934:X *856:6 9.72857 
2 *856:6 *856:8 5.05357 
3 *856:8 *4754:B1 26.2464 
4 *856:8 *4735:A2 9.3 
5 *856:6 *856:30 3.83929 
6 *856:30 *856:38 9.85714 
7 *856:38 *4739:B 13.8 
8 *856:38 *4741:B1 17.3 
9 *856:30 *4742:A2_N 9.3 
*END

*D_NET *857 0.00215896
*CONN
*I *4431:B1 I *D sky130_fd_sc_hd__a211o_1
*I *4430:A1 I *D sky130_fd_sc_hd__o211ai_2
*I *5114:X O *D sky130_fd_sc_hd__dlymetal6s2s_1
*CAP
1 *4431:B1 0.000201382
2 *4430:A1 7.22899e-05
3 *5114:X 0.00026771
4 *857:12 0.000541381
5 *4431:B1 *999:42 0
6 *857:12 *997:55 0.000225314
7 *857:12 *999:42 0
8 *4386:A *857:12 2.44318e-05
9 *4386:B *857:12 4.57445e-05
10 *4386:C *857:12 0.000185643
11 *181:46 *4431:B1 0.00013949
12 *199:10 *4431:B1 0
13 *390:12 *4430:A1 5.41494e-05
14 *390:12 *857:12 4.53919e-05
15 *391:12 *4431:B1 0.000356028
*RES
1 *5114:X *857:12 24.5679 
2 *857:12 *4430:A1 10.6571 
3 *857:12 *4431:B1 23.7821 
*END

*D_NET *858 0.000505818
*CONN
*I *4387:A1 I *D sky130_fd_sc_hd__o21ai_1
*I *5115:X O *D sky130_fd_sc_hd__dlygate4sd1_1
*CAP
1 *4387:A1 0.000141038
2 *5115:X 0.000141038
3 *4385:A *4387:A1 9.80173e-05
4 *4387:A2 *4387:A1 0.000125724
5 *199:10 *4387:A1 0
*RES
1 *5115:X *4387:A1 30.1893 
*END

*D_NET *859 0.00894335
*CONN
*I *4318:B I *D sky130_fd_sc_hd__and4_1
*I *5103:A I *D sky130_fd_sc_hd__dlymetal6s2s_1
*I *4384:A1 I *D sky130_fd_sc_hd__a22oi_2
*I *5102:X O *D sky130_fd_sc_hd__dlygate4sd1_1
*CAP
1 *4318:B 0.000315812
2 *5103:A 0
3 *4384:A1 0
4 *5102:X 0.000873882
5 *859:29 0.000744652
6 *859:16 0.00130272
7 *4318:B *4296:A1 0.000140933
8 *4318:B *4317:A 0
9 *4318:B *4317:B 0.000759882
10 *4318:B *999:65 0.000171375
11 *4318:B *1000:97 0.000494858
12 *4318:B *1001:71 1.99099e-05
13 *859:16 *4199:B2 0.00017309
14 *859:16 *4383:A 2.28499e-05
15 *859:16 *4384:B2 9.80173e-05
16 *859:16 *866:65 0.000885751
17 *859:16 *979:12 0.000614972
18 *859:29 *4192:A1 4.15914e-05
19 *859:29 *4195:A1 0.000226829
20 *859:29 *4384:B2 5.52238e-05
21 *859:29 *973:24 0
22 *859:29 *977:106 0.000175526
23 *859:29 *979:12 0.00020904
24 *859:29 *995:81 9.25014e-06
25 *4192:B1 *859:29 0.000103267
26 *4928:A *859:16 7.15962e-05
27 *4933:A *859:16 5.62995e-05
28 *180:86 *859:16 0.0011349
29 *194:12 *859:29 0
30 *199:10 *4318:B 0
31 *282:8 *4318:B 1.19309e-05
32 *345:8 *859:16 5.52302e-05
33 *345:8 *859:29 4.38128e-05
34 *772:48 *859:29 0.000130152
*RES
1 *5102:X *859:16 46.5857 
2 *859:16 *4384:A1 9.3 
3 *859:16 *859:29 21.5 
4 *859:29 *5103:A 9.3 
5 *859:29 *4318:B 29.9071 
*END

*D_NET *860 0.000879803
*CONN
*I *4296:A1 I *D sky130_fd_sc_hd__a22oi_2
*I *5103:X O *D sky130_fd_sc_hd__dlymetal6s2s_1
*CAP
1 *4296:A1 0.00010092
2 *5103:X 0.00010092
3 *4296:A1 *4295:C 4.70048e-05
4 *4296:A1 *4296:A2 3.99614e-06
5 *4296:A1 *4317:B 0.000435571
6 *4296:A1 *1000:97 5.04589e-05
7 *4318:B *4296:A1 0.000140933
*RES
1 *5103:X *4296:A1 22.85 
*END

*D_NET *861 0.000542893
*CONN
*I *4519:B1 I *D sky130_fd_sc_hd__a31o_1
*I *5104:X O *D sky130_fd_sc_hd__dlygate4sd1_1
*CAP
1 *4519:B1 0.000170875
2 *5104:X 0.000170875
3 *4519:B1 *985:21 3.18676e-05
4 *4519:B1 *985:27 1.21289e-05
5 *4519:B1 *995:40 0.000101921
6 *4519:A3 *4519:B1 5.52238e-05
*RES
1 *5104:X *4519:B1 22.0286 
*END

*D_NET *862 0.000867639
*CONN
*I *4518:A1_N I *D sky130_fd_sc_hd__a2bb2o_1
*I *5106:A I *D sky130_fd_sc_hd__dlygate4sd1_1
*I *5105:X O *D sky130_fd_sc_hd__dlymetal6s4s_1
*CAP
1 *4518:A1_N 0.000140122
2 *5106:A 0.000127056
3 *5105:X 0
4 *862:4 0.000267177
5 *5106:A *993:34 4.25809e-05
6 *4518:A2_N *4518:A1_N 0.000273269
7 *4518:A2_N *5106:A 1.74352e-05
8 *4522:A2 *5106:A 0
9 *431:12 *5106:A 0
*RES
1 *5105:X *862:4 9.3 
2 *862:4 *5106:A 20.4786 
3 *862:4 *4518:A1_N 12.6214 
*END

*D_NET *863 0.00232134
*CONN
*I *4254:A1 I *D sky130_fd_sc_hd__mux2_1
*I *4160:A1 I *D sky130_fd_sc_hd__mux2_1
*I *5052:X O *D sky130_fd_sc_hd__clkbuf_1
*CAP
1 *4254:A1 0.000190546
2 *4160:A1 0.000177468
3 *5052:X 0.000588991
4 *863:6 0.000957005
5 *4254:A1 *4254:A0 5.71472e-05
6 *4943:A *4160:A1 0.000119708
7 *4943:A *4254:A1 0.000129515
8 *4943:A *863:6 0.00010096
*RES
1 *5052:X *863:6 16.4071 
2 *863:6 *4160:A1 22.3714 
3 *863:6 *4254:A1 11.8893 
*END

*D_NET *864 0.00149274
*CONN
*I *4521:B I *D sky130_fd_sc_hd__nand2_1
*I *4520:B I *D sky130_fd_sc_hd__and2_1
*I *5106:X O *D sky130_fd_sc_hd__dlygate4sd1_1
*CAP
1 *4521:B 5.3404e-05
2 *4520:B 0
3 *5106:X 0.000415657
4 *864:12 0.000469061
5 *4521:B *985:67 0.000142856
6 *864:12 *985:65 0
7 *864:12 *986:31 0.000401764
8 *864:12 *997:27 0
9 *864:12 *1004:137 9.99644e-06
*RES
1 *5106:X *864:12 24.4786 
2 *864:12 *4520:B 9.3 
3 *864:12 *4521:B 10.6571 
*END

*D_NET *865 0.00415389
*CONN
*I *4319:A1 I *D sky130_fd_sc_hd__a22oi_2
*I *5107:X O *D sky130_fd_sc_hd__dlygate4sd1_1
*CAP
1 *4319:A1 0
2 *5107:X 0.00144052
3 *865:10 0.00144052
4 *865:10 *4189:A1 4.1331e-06
5 *865:10 *4199:A2 0
6 *865:10 *4319:B1 4.1331e-06
7 *865:10 *4346:C 0
8 *865:10 *4347:B1 0.000110717
9 *865:10 *4383:D 0
10 *865:10 *997:87 0
11 *865:10 *997:104 0
12 *865:10 *999:73 1.88048e-05
13 *4430:B1 *865:10 0.000200406
14 *4430:C1 *865:10 0.000211913
15 *196:14 *865:10 0
16 *199:10 *865:10 0
17 *346:8 *865:10 3.28897e-05
18 *387:10 *865:10 0
19 *387:23 *865:10 0
20 *388:10 *865:10 0.000344925
21 *389:10 *865:10 0.000344925
*RES
1 *5107:X *865:10 46.9607 
2 *865:10 *4319:A1 9.3 
*END

*D_NET *866 0.012314
*CONN
*I *5107:A I *D sky130_fd_sc_hd__dlygate4sd1_1
*I *4474:A2 I *D sky130_fd_sc_hd__o21a_1
*I *4266:A2 I *D sky130_fd_sc_hd__a31o_1
*I *4178:A1 I *D sky130_fd_sc_hd__a211o_1
*I *4250:A0 I *D sky130_fd_sc_hd__mux2_1
*I *4933:X O *D sky130_fd_sc_hd__clkbuf_1
*CAP
1 *5107:A 0.00020192
2 *4474:A2 0.000209671
3 *4266:A2 5.74421e-05
4 *4178:A1 0.000968001
5 *4250:A0 0.000755012
6 *4933:X 0
7 *866:65 0.00108756
8 *866:25 0.00157474
9 *866:6 0.00130431
10 *866:4 0.000675973
11 *4178:A1 *4180:A1 1.70399e-05
12 *4178:A1 *4180:B2 7.2707e-05
13 *4178:A1 *4266:A3 0.000441731
14 *4178:A1 *4267:C 1.95435e-05
15 *4178:A1 *4975:A 0.000340066
16 *4178:A1 *1010:80 2.82057e-05
17 *4250:A0 *4252:A0 0.000161683
18 *4250:A0 *986:31 4.7812e-05
19 *4250:A0 *1004:27 0.000320146
20 *4250:A0 *1004:137 0.000621848
21 *4266:A2 *4266:A1 7.43578e-06
22 *4266:A2 *4266:A3 9.90431e-05
23 *4474:A2 *4199:A1 8.15095e-05
24 *4474:A2 *4426:A1 1.12323e-05
25 *4474:A2 *4427:B 1.721e-05
26 *4474:A2 *4474:A1 5.71472e-05
27 *4474:A2 *979:12 0.000389854
28 *4474:A2 *990:44 6.54117e-05
29 *4474:A2 *995:48 6.76272e-05
30 *5107:A *4199:A1 0.000126439
31 *5107:A *4199:A2 0.000116526
32 *5107:A *979:12 0.000118903
33 *5107:A *995:68 3.97677e-05
34 *866:25 *1005:17 0
35 *866:65 *4426:A2 3.69047e-06
36 *866:65 *975:105 3.80953e-06
37 *866:65 *975:124 6.13757e-06
38 *4158:A1 *4250:A0 0
39 *4158:A1 *866:25 0
40 *4159:B *866:25 0
41 *4178:A2 *4178:A1 0.000267334
42 *4199:B1 *5107:A 6.05161e-06
43 *4250:S *4250:A0 2.36643e-05
44 *4252:A1 *4250:A0 0.000405727
45 *4253:B *4250:A0 0
46 *4269:A *4178:A1 0
47 *4269:C *4178:A1 7.83587e-05
48 *4839:CLK *866:25 0
49 *4886:CLK *866:25 0
50 *180:48 *4178:A1 0.000215394
51 *180:67 *4178:A1 3.85567e-05
52 *199:8 *5107:A 0.000181803
53 *789:8 *4250:A0 0
54 *789:21 *4250:A0 0
55 *797:24 *4178:A1 9.41642e-05
56 *859:16 *866:65 0.000885751
*RES
1 *4933:X *866:4 9.3 
2 *866:4 *866:6 4.5 
3 *866:6 *4250:A0 31.2286 
4 *866:6 *866:25 13.4286 
5 *866:25 *4178:A1 45.7643 
6 *866:25 *4266:A2 10.6571 
7 *866:4 *866:65 14.0714 
8 *866:65 *4474:A2 19.3179 
9 *866:65 *5107:A 18.8536 
*END

*D_NET *867 0.000394077
*CONN
*I *4683:A I *D sky130_fd_sc_hd__xnor2_1
*I *5108:X O *D sky130_fd_sc_hd__dlygate4sd1_1
*CAP
1 *4683:A 0.000124652
2 *5108:X 0.000124652
3 *4683:B *4683:A 0.000144773
4 *4684:B *4683:A 0
*RES
1 *5108:X *4683:A 21.1 
*END

*D_NET *868 0.00024007
*CONN
*I *4179:A1 I *D sky130_fd_sc_hd__o211a_1
*I *4997:X O *D sky130_fd_sc_hd__dlygate4sd3_1
*CAP
1 *4179:A1 9.14614e-05
2 *4997:X 9.14614e-05
3 *4179:A2 *4179:A1 5.71472e-05
*RES
1 *4997:X *4179:A1 20.3679 
*END

*D_NET *869 0.000454133
*CONN
*I *4182:A1 I *D sky130_fd_sc_hd__o211a_1
*I *4998:X O *D sky130_fd_sc_hd__dlygate4sd3_1
*CAP
1 *4182:A1 0.000221941
2 *4998:X 0.000221941
3 *4887:CLK *4182:A1 0
4 *773:53 *4182:A1 0
5 *839:23 *4182:A1 1.02504e-05
6 *841:22 *4182:A1 0
*RES
1 *4998:X *4182:A1 30.1893 
*END

*D_NET *870 0.000959333
*CONN
*I *4188:A1 I *D sky130_fd_sc_hd__o211a_1
*I *4999:X O *D sky130_fd_sc_hd__dlygate4sd3_1
*CAP
1 *4188:A1 0.000267564
2 *4999:X 0.000267564
3 *4849:D *4188:A1 7.92879e-05
4 *164:10 *4188:A1 0
5 *839:49 *4188:A1 1.02504e-05
6 *839:62 *4188:A1 0.000334667
*RES
1 *4999:X *4188:A1 33.3321 
*END

*D_NET *871 0.000443932
*CONN
*I *4185:A1 I *D sky130_fd_sc_hd__o211a_1
*I *5000:X O *D sky130_fd_sc_hd__dlygate4sd3_1
*CAP
1 *4185:A1 0.000157893
2 *5000:X 0.000157893
3 *164:10 *4185:A1 0
4 *839:40 *4185:A1 1.02504e-05
5 *839:49 *4185:A1 0.000117896
*RES
1 *5000:X *4185:A1 30.1893 
*END

*D_NET *872 0.000267695
*CONN
*I *4194:A1 I *D sky130_fd_sc_hd__o211a_1
*I *5001:X O *D sky130_fd_sc_hd__dlygate4sd3_1
*CAP
1 *4194:A1 8.41458e-05
2 *5001:X 8.41458e-05
3 *839:62 *4194:A1 9.94037e-05
*RES
1 *5001:X *4194:A1 20.3679 
*END

*D_NET *873 0.00409695
*CONN
*I *4162:A1 I *D sky130_fd_sc_hd__mux2_1
*I *4256:A1 I *D sky130_fd_sc_hd__mux2_1
*I *5053:X O *D sky130_fd_sc_hd__clkbuf_1
*CAP
1 *4162:A1 0.000390834
2 *4256:A1 8.45906e-05
3 *5053:X 0.00114182
4 *873:8 0.00161724
5 *4162:A1 *4162:A0 5.28345e-05
6 *4162:A1 *4256:A0 7.6644e-05
7 *4256:A1 *4256:A0 0.000252623
8 *4257:B *4256:A1 0.000151333
9 *4257:B *873:8 0.000158702
10 *4881:CLK *4162:A1 0
11 *4881:CLK *4256:A1 0
12 *4881:D *873:8 0.000170324
13 *792:8 *4162:A1 0
14 *792:25 *4162:A1 0
*RES
1 *5053:X *873:8 27.8893 
2 *873:8 *4256:A1 16.9607 
3 *873:8 *4162:A1 20.6393 
*END

*D_NET *874 0.000936021
*CONN
*I *4191:A1 I *D sky130_fd_sc_hd__o211a_1
*I *5002:X O *D sky130_fd_sc_hd__dlygate4sd3_1
*CAP
1 *4191:A1 0.000285242
2 *5002:X 0.000285242
3 *4850:D *4191:A1 0.000100823
4 *775:89 *4191:A1 7.27521e-05
5 *836:29 *4191:A1 8.23597e-06
6 *839:93 *4191:A1 0.000183726
7 *844:10 *4191:A1 0
8 *844:12 *4191:A1 0
*RES
1 *5002:X *4191:A1 33.4393 
*END

*D_NET *875 0.000836227
*CONN
*I *4226:A1 I *D sky130_fd_sc_hd__o221a_1
*I *5003:X O *D sky130_fd_sc_hd__dlygate4sd3_1
*CAP
1 *4226:A1 0.000258816
2 *5003:X 0.000258816
3 *4866:CLK *4226:A1 0.000144773
4 *4866:D *4226:A1 0.000173823
*RES
1 *5003:X *4226:A1 33.0643 
*END

*D_NET *876 0.000195803
*CONN
*I *4228:A1 I *D sky130_fd_sc_hd__o221a_1
*I *5004:X O *D sky130_fd_sc_hd__dlygate4sd3_1
*CAP
1 *4228:A1 7.5034e-05
2 *5004:X 7.5034e-05
3 *4228:A1 *5004:A 0
4 *4228:A1 *940:8 0
5 *4228:B2 *4228:A1 4.57352e-05
*RES
1 *5004:X *4228:A1 29.2429 
*END

*D_NET *877 0.000836227
*CONN
*I *4224:A1 I *D sky130_fd_sc_hd__o221a_1
*I *5005:X O *D sky130_fd_sc_hd__dlygate4sd3_1
*CAP
1 *4224:A1 0.000258816
2 *5005:X 0.000258816
3 *4224:A1 *5005:A 0
4 *4865:CLK *4224:A1 0.000144773
5 *4865:D *4224:A1 0.000173823
*RES
1 *5005:X *4224:A1 33.0643 
*END

*D_NET *878 0.000842791
*CONN
*I *4230:A1 I *D sky130_fd_sc_hd__o221a_1
*I *5006:X O *D sky130_fd_sc_hd__dlygate4sd3_1
*CAP
1 *4230:A1 0.000295116
2 *5006:X 0.000295116
3 *4230:A1 *941:12 0
4 *4228:C1 *4230:A1 0.000105133
5 *4868:D *4230:A1 0.000147426
*RES
1 *5006:X *4230:A1 33.3143 
*END

*D_NET *879 0.000960903
*CONN
*I *4218:A1 I *D sky130_fd_sc_hd__o221a_1
*I *5007:X O *D sky130_fd_sc_hd__dlygate4sd3_1
*CAP
1 *4218:A1 0.000365542
2 *5007:X 0.000365542
3 *4218:A1 *5076:A 3.18676e-05
4 *4862:CLK *4218:A1 0.000128154
5 *838:88 *4218:A1 6.97972e-05
*RES
1 *5007:X *4218:A1 33.0643 
*END

*D_NET *880 0.000539799
*CONN
*I *4214:A1 I *D sky130_fd_sc_hd__o221a_1
*I *5008:X O *D sky130_fd_sc_hd__dlygate4sd3_1
*CAP
1 *4214:A1 0.000167888
2 *5008:X 0.000167888
3 *4212:C1 *4214:A1 0.000184745
4 *4860:D *4214:A1 1.92789e-05
*RES
1 *5008:X *4214:A1 22.0107 
*END

*D_NET *881 0.000494394
*CONN
*I *4232:A1 I *D sky130_fd_sc_hd__o221a_1
*I *5009:X O *D sky130_fd_sc_hd__dlygate4sd3_1
*CAP
1 *4232:A1 0.000134344
2 *5009:X 0.000134344
3 *4232:B2 *4232:A1 0.000125542
4 *847:12 *4232:A1 0.000100165
*RES
1 *5009:X *4232:A1 30.1893 
*END

*D_NET *882 0.000596917
*CONN
*I *4200:A1 I *D sky130_fd_sc_hd__o221a_1
*I *5010:X O *D sky130_fd_sc_hd__dlygate4sd3_1
*CAP
1 *4200:A1 0.000175204
2 *5010:X 0.000175204
3 *4200:A1 *968:61 0.000132547
4 *4200:A1 *968:70 5.89557e-05
5 *4200:C1 *4200:A1 5.50052e-05
*RES
1 *5010:X *4200:A1 22.0286 
*END

*D_NET *883 0.000712541
*CONN
*I *4244:A1 I *D sky130_fd_sc_hd__o221a_1
*I *5011:X O *D sky130_fd_sc_hd__dlygate4sd3_1
*CAP
1 *4244:A1 0.000310556
2 *5011:X 0.000310556
3 *4244:A1 *949:14 2.03823e-05
4 *4875:D *4244:A1 5.32071e-05
5 *779:110 *4244:A1 1.78393e-05
*RES
1 *5011:X *4244:A1 33.0286 
*END

*D_NET *884 0.00566016
*CONN
*I *4164:A1 I *D sky130_fd_sc_hd__mux2_1
*I *4258:A1 I *D sky130_fd_sc_hd__mux2_1
*I *5054:X O *D sky130_fd_sc_hd__clkbuf_1
*CAP
1 *4164:A1 0.000254481
2 *4258:A1 0.000234331
3 *5054:X 0.00145131
4 *884:16 0.00194012
5 *4164:A1 *4983:A 2.8266e-06
6 *4164:A1 *998:6 5.52302e-05
7 *4164:A1 *998:25 4.18895e-05
8 *4258:A1 *981:12 0.000267807
9 *4258:A1 *981:21 5.52238e-05
10 *884:16 *1000:35 0.000579061
11 *4258:S *4258:A1 6.05161e-06
12 *4259:B *4258:A1 0
13 *4841:CLK *884:16 0.00024659
14 *4841:D *884:16 0.000170747
15 *4985:A *884:16 1.02132e-05
16 *170:40 *4164:A1 3.32631e-05
17 *224:44 *4164:A1 0.000221371
18 *224:44 *4258:A1 3.34783e-05
19 *784:6 *884:16 2.31395e-05
20 *792:25 *4258:A1 3.30237e-05
*RES
1 *5054:X *884:16 38.2286 
2 *884:16 *4258:A1 19.1214 
3 *884:16 *4164:A1 20.0321 
*END

*D_NET *885 0.00144365
*CONN
*I *4202:A1 I *D sky130_fd_sc_hd__o221a_1
*I *5012:X O *D sky130_fd_sc_hd__dlygate4sd3_1
*CAP
1 *4202:A1 0.000628941
2 *5012:X 0.000628941
3 *4202:A1 *5012:A 5.64835e-06
4 *4202:A1 *967:10 3.96104e-05
5 *4202:A2 *4202:A1 9.15842e-06
6 *4854:CLK *4202:A1 6.13903e-05
7 *4854:D *4202:A1 1.49642e-05
8 *4872:CLK *4202:A1 5.49995e-05
*RES
1 *5012:X *4202:A1 35.9571 
*END

*D_NET *886 0.00115983
*CONN
*I *4238:A1 I *D sky130_fd_sc_hd__o221a_1
*I *5013:X O *D sky130_fd_sc_hd__dlygate4sd3_1
*CAP
1 *4238:A1 0.00029161
2 *5013:X 0.00029161
3 *4949:A *4238:A1 0.000576612
*RES
1 *5013:X *4238:A1 34.7071 
*END

*D_NET *887 0.000224458
*CONN
*I *4212:A1 I *D sky130_fd_sc_hd__o221a_1
*I *5014:X O *D sky130_fd_sc_hd__dlygate4sd3_1
*CAP
1 *4212:A1 0.000112229
2 *5014:X 0.000112229
3 *4212:A1 *5071:A 0
4 *4212:C1 *4212:A1 0
*RES
1 *5014:X *4212:A1 29.2429 
*END

*D_NET *888 0.000688313
*CONN
*I *4222:A1 I *D sky130_fd_sc_hd__o221a_1
*I *5015:X O *D sky130_fd_sc_hd__dlygate4sd3_1
*CAP
1 *4222:A1 0.000344156
2 *5015:X 0.000344156
3 *4222:A1 *5078:A 0
4 *4222:A2 *4222:A1 0
5 *4864:D *4222:A1 0
*RES
1 *5015:X *4222:A1 33.2607 
*END

*D_NET *889 0.000454039
*CONN
*I *4216:A1 I *D sky130_fd_sc_hd__o221a_1
*I *5016:X O *D sky130_fd_sc_hd__dlygate4sd3_1
*CAP
1 *4216:A1 0.000204169
2 *5016:X 0.000204169
3 *4216:A2 *4216:A1 1.24368e-05
4 *4861:D *4216:A1 3.32631e-05
*RES
1 *5016:X *4216:A1 22.0107 
*END

*D_NET *890 0.000477474
*CONN
*I *4206:A1 I *D sky130_fd_sc_hd__o221a_1
*I *5017:X O *D sky130_fd_sc_hd__dlygate4sd3_1
*CAP
1 *4206:A1 0.000229098
2 *5017:X 0.000229098
3 *4856:D *4206:A1 1.92789e-05
*RES
1 *5017:X *4206:A1 22.4214 
*END

*D_NET *891 0.00163394
*CONN
*I *4242:A1 I *D sky130_fd_sc_hd__o221a_1
*I *5018:X O *D sky130_fd_sc_hd__dlygate4sd3_1
*CAP
1 *4242:A1 0.000562867
2 *5018:X 0.000562867
3 *4242:A1 *5018:A 5.64835e-06
4 *4874:D *4242:A1 2.11336e-05
5 *779:82 *4242:A1 3.4689e-05
6 *779:92 *4242:A1 3.54498e-05
7 *848:27 *4242:A1 0.000411285
*RES
1 *5018:X *4242:A1 37.4393 
*END

*D_NET *892 0.000516688
*CONN
*I *4236:A1 I *D sky130_fd_sc_hd__o221a_1
*I *5019:X O *D sky130_fd_sc_hd__dlygate4sd3_1
*CAP
1 *4236:A1 0.00018905
2 *5019:X 0.00018905
3 *4202:C1 *4236:A1 5.50052e-05
4 *848:44 *4236:A1 8.35838e-05
*RES
1 *5019:X *4236:A1 22.0286 
*END

*D_NET *893 0.00170923
*CONN
*I *4220:A1 I *D sky130_fd_sc_hd__o221a_1
*I *5020:X O *D sky130_fd_sc_hd__dlygate4sd3_1
*CAP
1 *4220:A1 0.000308886
2 *5020:X 0.000308886
3 *4220:A1 *4220:B1 0.000356582
4 *4220:A1 *4224:B1 0.000225609
5 *4220:A2 *4220:A1 4.43256e-05
6 *837:93 *4220:A1 6.75007e-05
7 *846:23 *4220:A1 0.000397446
*RES
1 *5020:X *4220:A1 36.35 
*END

*D_NET *894 0.00141822
*CONN
*I *4248:A1 I *D sky130_fd_sc_hd__o221a_1
*I *5021:X O *D sky130_fd_sc_hd__dlygate4sd3_1
*CAP
1 *4248:A1 0.000237457
2 *5021:X 0.000237457
3 *4248:A1 *4248:B1 2.89016e-05
4 *4248:A1 *5097:A 0
5 *4248:A1 *968:23 1.98839e-05
6 *4246:C1 *4248:A1 0.000271345
7 *4248:A2 *4248:A1 5.90995e-05
8 *839:114 *4248:A1 0.000564074
*RES
1 *5021:X *4248:A1 34.725 
*END

*D_NET *895 0.00670953
*CONN
*I *4260:A1 I *D sky130_fd_sc_hd__mux2_1
*I *4166:A1 I *D sky130_fd_sc_hd__mux2_1
*I *5055:X O *D sky130_fd_sc_hd__buf_1
*CAP
1 *4260:A1 0
2 *4166:A1 0.000287408
3 *5055:X 0.00185683
4 *895:20 0.000368949
5 *895:18 0.00193838
6 *4166:A1 *4981:A 0
7 *4166:A1 *997:23 0.000228558
8 *4166:A1 *998:25 9.20357e-05
9 *895:18 *998:6 0.000404707
10 *895:18 *998:25 0.000358971
11 *4165:A *895:18 2.59355e-05
12 *4165:B *895:18 8.42683e-05
13 *4260:S *4166:A1 3.3283e-05
14 *4260:S *895:20 0.000397911
15 *4261:B *895:18 9.25014e-06
16 *4982:A *4166:A1 7.77652e-05
17 *170:40 *895:18 6.95788e-05
18 *170:55 *4166:A1 0.000266486
19 *170:55 *895:20 0.000209209
20 *224:44 *895:18 0
*RES
1 *5055:X *895:18 46.7286 
2 *895:18 *895:20 3.82143 
3 *895:20 *4166:A1 25.7286 
4 *895:20 *4260:A1 9.3 
*END

*D_NET *896 0.00094013
*CONN
*I *4234:A1 I *D sky130_fd_sc_hd__o221a_1
*I *5022:X O *D sky130_fd_sc_hd__dlygate4sd3_1
*CAP
1 *4234:A1 0.000384526
2 *5022:X 0.000384526
3 *4234:A1 *967:68 0.000125731
4 *4234:A1 *970:58 0
5 *4866:CLK *4234:A1 4.1331e-06
6 *837:87 *4234:A1 4.12139e-05
*RES
1 *5022:X *4234:A1 33.0643 
*END

*D_NET *897 0.00108381
*CONN
*I *4240:A1 I *D sky130_fd_sc_hd__o221a_1
*I *5023:X O *D sky130_fd_sc_hd__dlygate4sd3_1
*CAP
1 *4240:A1 0.000314699
2 *5023:X 0.000314699
3 *4240:A1 *4240:B1 0
4 *4240:A1 *968:80 0.000151356
5 *4240:A1 *970:108 2.44318e-05
6 *4240:A1 *970:125 1.21258e-05
7 *4240:A2 *4240:A1 8.96812e-05
8 *4240:C1 *4240:A1 3.0285e-05
9 *4873:CLK *4240:A1 0.000146533
*RES
1 *5023:X *4240:A1 33.3143 
*END

*D_NET *898 0.000461855
*CONN
*I *4210:A1 I *D sky130_fd_sc_hd__o221a_1
*I *5024:X O *D sky130_fd_sc_hd__dlygate4sd3_1
*CAP
1 *4210:A1 0.000163688
2 *5024:X 0.000163688
3 *4210:A1 *4210:B1 5.67027e-05
4 *778:67 *4210:A1 7.77751e-05
*RES
1 *5024:X *4210:A1 21.6179 
*END

*D_NET *899 0.000264371
*CONN
*I *4246:A1 I *D sky130_fd_sc_hd__o221a_1
*I *5025:X O *D sky130_fd_sc_hd__dlygate4sd3_1
*CAP
1 *4246:A1 1.94333e-05
2 *5025:X 1.94333e-05
3 *4246:A1 *968:44 0.000144773
4 *4244:A2 *4246:A1 8.07313e-05
*RES
1 *5025:X *4246:A1 19.9571 
*END

*D_NET *900 0.000986895
*CONN
*I *4208:A1 I *D sky130_fd_sc_hd__o221a_1
*I *5026:X O *D sky130_fd_sc_hd__dlygate4sd3_1
*CAP
1 *4208:A1 0.000365624
2 *5026:X 0.000365624
3 *4208:A1 *4207:B 0.000216257
4 *4208:B2 *4208:A1 3.93893e-05
5 *4941:A *4208:A1 0
*RES
1 *5026:X *4208:A1 33.0643 
*END

*D_NET *901 0.00114608
*CONN
*I *4204:A1 I *D sky130_fd_sc_hd__o221a_1
*I *5027:X O *D sky130_fd_sc_hd__dlygate4sd3_1
*CAP
1 *4204:A1 0.000351005
2 *5027:X 0.000351005
3 *4204:A1 *966:84 0.000399246
4 *4204:A1 *971:70 4.48206e-05
*RES
1 *5027:X *4204:A1 33.0643 
*END

*D_NET *902 0.000478314
*CONN
*I *4197:A1 I *D sky130_fd_sc_hd__o211a_1
*I *5028:X O *D sky130_fd_sc_hd__dlygate4sd3_1
*CAP
1 *4197:A1 0.000102013
2 *5028:X 0.000102013
3 *843:131 *4197:A1 0.000274288
*RES
1 *5028:X *4197:A1 21.1893 
*END

*D_NET *903 0.000356657
*CONN
*I *4456:A2 I *D sky130_fd_sc_hd__o211a_1
*I *5029:X O *D sky130_fd_sc_hd__dlygate4sd3_1
*CAP
1 *4456:A2 0.000110165
2 *5029:X 0.000110165
3 *4456:A1 *4456:A2 7.91806e-05
4 *4456:C1 *4456:A2 5.71472e-05
*RES
1 *5029:X *4456:A2 20.7964 
*END

*D_NET *904 0.0010102
*CONN
*I *4545:A2 I *D sky130_fd_sc_hd__o211a_1
*I *5030:X O *D sky130_fd_sc_hd__dlygate4sd3_1
*CAP
1 *4545:A2 0.000428931
2 *5030:X 0.000428931
3 *4545:B1 *4545:A2 0.000152333
*RES
1 *5030:X *4545:A2 33.3679 
*END

*D_NET *905 0.00129766
*CONN
*I *4713:A2 I *D sky130_fd_sc_hd__o211a_1
*I *5031:X O *D sky130_fd_sc_hd__dlygate4sd3_1
*CAP
1 *4713:A2 0.000387478
2 *5031:X 0.000387478
3 *4713:A2 *4713:A1 4.22908e-05
4 *4713:A2 *971:87 0
5 *849:43 *4713:A2 3.57366e-05
6 *849:102 *4713:A2 0.00044468
*RES
1 *5031:X *4713:A2 35.6536 
*END

*D_NET *906 0.0043523
*CONN
*I *4168:A1 I *D sky130_fd_sc_hd__mux2_1
*I *4262:A1 I *D sky130_fd_sc_hd__mux2_1
*I *5056:X O *D sky130_fd_sc_hd__clkbuf_1
*CAP
1 *4168:A1 0.00038642
2 *4262:A1 5.01519e-05
3 *5056:X 0.00126523
4 *906:10 0.00170181
5 *4168:A1 *4963:A 0
6 *4168:A1 *4979:A 0.00010096
7 *906:10 *4262:A0 9.96553e-05
8 *4168:S *4168:A1 0.000227539
9 *4263:B *906:10 3.52053e-05
10 *4264:S *4168:A1 0
11 *4844:CLK *4168:A1 0.00030177
12 *4977:A *4168:A1 6.58013e-05
13 *5056:A *906:10 1.92905e-05
14 *170:59 *4168:A1 0
15 *774:113 *4262:A1 9.84673e-05
16 *796:12 *4168:A1 0
*RES
1 *5056:X *906:10 35.55 
2 *906:10 *4262:A1 14.7464 
3 *906:10 *4168:A1 23.6929 
*END

*D_NET *907 0.000687315
*CONN
*I *4278:A2 I *D sky130_fd_sc_hd__o211a_1
*I *5032:X O *D sky130_fd_sc_hd__dlygate4sd3_1
*CAP
1 *4278:A2 0.000117634
2 *5032:X 0.000117634
3 *4278:A2 *972:51 0
4 *4278:A2 *1010:52 0.00015234
5 *182:53 *4278:A2 9.92409e-05
6 *808:8 *4278:A2 0.00014285
7 *841:18 *4278:A2 4.73656e-05
8 *841:22 *4278:A2 1.02504e-05
*RES
1 *5032:X *4278:A2 31.3143 
*END

*D_NET *908 0.00127565
*CONN
*I *4293:A2 I *D sky130_fd_sc_hd__o211a_1
*I *5033:X O *D sky130_fd_sc_hd__dlygate4sd3_1
*CAP
1 *4293:A2 0.000318887
2 *5033:X 0.000318887
3 *4185:C1 *4293:A2 5.66157e-05
4 *4848:CLK *4293:A2 0.000173083
5 *775:26 *4293:A2 0.000142082
6 *843:50 *4293:A2 0.000266092
*RES
1 *5033:X *4293:A2 33.85 
*END

*D_NET *909 0.00130773
*CONN
*I *4313:A2 I *D sky130_fd_sc_hd__o211a_1
*I *5034:X O *D sky130_fd_sc_hd__dlygate4sd3_1
*CAP
1 *4313:A2 0.000432763
2 *5034:X 0.000432763
3 *4313:A2 *4313:A1 0.000220135
4 *4190:B1 *4313:A2 0
5 *4313:B1 *4313:A2 4.10796e-05
6 *4313:C1 *4313:A2 5.28345e-05
7 *844:20 *4313:A2 0.000128161
*RES
1 *5034:X *4313:A2 35.9571 
*END

*D_NET *910 0.00087974
*CONN
*I *4815:A2 I *D sky130_fd_sc_hd__o211a_1
*I *5035:X O *D sky130_fd_sc_hd__dlygate4sd3_1
*CAP
1 *4815:A2 0.000293678
2 *5035:X 0.000293678
3 *4815:A2 *970:100 5.10822e-05
4 *4815:A1 *4815:A2 3.2825e-05
5 *4815:B1 *4815:A2 5.52238e-05
6 *4815:C1 *4815:A2 9.98555e-05
7 *849:12 *4815:A2 5.33978e-05
*RES
1 *5035:X *4815:A2 33.1893 
*END

*D_NET *911 0.00100812
*CONN
*I *4799:A2 I *D sky130_fd_sc_hd__o211a_1
*I *5036:X O *D sky130_fd_sc_hd__dlygate4sd3_1
*CAP
1 *4799:A2 0.000288148
2 *5036:X 0.000288148
3 *4791:A2 *4799:A2 0.000259301
4 *4799:B1 *4799:A2 1.04232e-05
5 *200:16 *4799:A2 6.75007e-05
6 *845:88 *4799:A2 2.89016e-05
7 *845:103 *4799:A2 6.57032e-05
*RES
1 *5036:X *4799:A2 33.9036 
*END

*D_NET *912 0.00134211
*CONN
*I *4371:A2 I *D sky130_fd_sc_hd__o211a_1
*I *5037:X O *D sky130_fd_sc_hd__dlygate4sd3_1
*CAP
1 *4371:A2 0.000409509
2 *5037:X 0.000409509
3 *4371:A2 *1010:131 6.97409e-05
4 *4371:A2 *1010:146 0.000191796
5 *4371:C1 *4371:A2 5.57575e-05
6 *4891:D *4371:A2 5.17614e-05
7 *824:10 *4371:A2 3.87365e-05
8 *844:64 *4371:A2 0.000115298
*RES
1 *5037:X *4371:A2 36.7786 
*END

*D_NET *913 0.000721036
*CONN
*I *4621:A2 I *D sky130_fd_sc_hd__o211a_1
*I *5038:X O *D sky130_fd_sc_hd__dlygate4sd3_1
*CAP
1 *4621:A2 0.000286358
2 *5038:X 0.000286358
3 *4619:A *4621:A2 1.40034e-05
4 *4621:B1 *4621:A2 1.04232e-05
5 *4897:D *4621:A2 5.52238e-05
6 *849:43 *4621:A2 6.86693e-05
*RES
1 *5038:X *4621:A2 23.2607 
*END

*D_NET *914 0.00135056
*CONN
*I *4411:A2 I *D sky130_fd_sc_hd__o211a_1
*I *5039:X O *D sky130_fd_sc_hd__dlygate4sd3_1
*CAP
1 *4411:A2 0.000168544
2 *5039:X 0.000168544
3 *4411:A2 *4411:A1 1.04232e-05
4 *4411:A2 *4820:A1 0.000276186
5 *4411:A2 *1002:46 0
6 *4411:A2 *1009:80 3.18676e-05
7 *4411:A2 *1010:146 0.000123295
8 *844:81 *4411:A2 0.000571702
*RES
1 *5039:X *4411:A2 34.725 
*END

*D_NET *915 0.00136006
*CONN
*I *4750:A2 I *D sky130_fd_sc_hd__o211a_1
*I *5040:X O *D sky130_fd_sc_hd__dlygate4sd3_1
*CAP
1 *4750:A2 0.000331107
2 *5040:X 0.000331107
3 *4750:A2 *970:33 0.000444673
4 *4750:B1 *4750:A2 0.000127446
5 *777:78 *4750:A2 0.000125731
*RES
1 *5040:X *4750:A2 33.475 
*END

*D_NET *916 0.00153575
*CONN
*I *4725:A2 I *D sky130_fd_sc_hd__o221a_1
*I *5041:X O *D sky130_fd_sc_hd__dlygate4sd3_1
*CAP
1 *4725:A2 0.000631904
2 *5041:X 0.000631904
3 *4725:B1 *4725:A2 3.34295e-05
4 *4901:CLK *4725:A2 0
5 *778:25 *4725:A2 0.00023851
*RES
1 *5041:X *4725:A2 36.2429 
*END

*D_NET *917 0.0036629
*CONN
*I *4170:A1 I *D sky130_fd_sc_hd__mux2_1
*I *4264:A1 I *D sky130_fd_sc_hd__mux2_1
*I *5057:X O *D sky130_fd_sc_hd__clkbuf_1
*CAP
1 *4170:A1 0.000394153
2 *4264:A1 0
3 *5057:X 0.00106386
4 *917:10 0.00145802
5 *4170:A1 *4170:A0 1.40415e-05
6 *4170:A1 *975:12 0.000192494
7 *4170:A1 *975:105 0.000176096
8 *4168:S *4170:A1 3.57366e-05
9 *4171:B *4170:A1 0
10 *4264:S *4170:A1 0.000217526
11 *4264:S *917:10 1.00887e-05
12 *5057:A *917:10 1.92905e-05
13 *796:12 *4170:A1 8.15939e-05
*RES
1 *5057:X *917:10 32.1929 
2 *917:10 *4264:A1 13.8 
3 *917:10 *4170:A1 24.3 
*END

*D_NET *918 0.000549434
*CONN
*I *4786:A2 I *D sky130_fd_sc_hd__o211a_1
*I *5042:X O *D sky130_fd_sc_hd__dlygate4sd3_1
*CAP
1 *4786:A2 0.000207621
2 *5042:X 0.000207621
3 *813:12 *4786:A2 0.000134192
*RES
1 *5042:X *4786:A2 22.4393 
*END

*D_NET *919 0.00152785
*CONN
*I *4760:A2 I *D sky130_fd_sc_hd__o211a_1
*I *5043:X O *D sky130_fd_sc_hd__dlygate4sd3_1
*CAP
1 *4760:A2 0.000432478
2 *5043:X 0.000432478
3 *4760:B1 *4760:A2 0.000662889
4 *833:74 *4760:A2 0
*RES
1 *5043:X *4760:A2 34.2964 
*END

*D_NET *920 0.000855059
*CONN
*I *4830:B I *D sky130_fd_sc_hd__nor2_1
*I *5044:X O *D sky130_fd_sc_hd__dlygate4sd3_1
*CAP
1 *4830:B 0.000125165
2 *5044:X 0.000125165
3 *4244:A2 *4830:B 0.000265378
4 *820:16 *4830:B 0.000202128
5 *820:36 *4830:B 0.000137224
*RES
1 *5044:X *4830:B 31.975 
*END

*D_NET *921 0.00161312
*CONN
*I *4819:B I *D sky130_fd_sc_hd__nor2_1
*I *5045:X O *D sky130_fd_sc_hd__dlygate4sd3_1
*CAP
1 *4819:B 0.0002745
2 *5045:X 0.0002745
3 *4819:A *4819:B 0.000529813
4 *4820:B1 *4819:B 3.97168e-05
5 *4915:CLK *4819:B 5.52238e-05
6 *4915:D *4819:B 1.64343e-05
7 *4938:A *4819:B 4.84486e-05
8 *818:8 *4819:B 5.30637e-06
9 *818:12 *4819:B 4.84486e-05
10 *835:27 *4819:B 0.000214198
11 *836:29 *4819:B 0.000106534
*RES
1 *5045:X *4819:B 36.0643 
*END

*D_NET *922 0.000165058
*CONN
*I *4803:B I *D sky130_fd_sc_hd__nor2_1
*I *5046:X O *D sky130_fd_sc_hd__dlygate4sd3_1
*CAP
1 *4803:B 3.20492e-05
2 *5046:X 3.20492e-05
3 *4804:A1 *4803:B 0.00010096
*RES
1 *5046:X *4803:B 19.5464 
*END

*D_NET *923 6.37568e-05
*CONN
*I *4835:A I *D sky130_fd_sc_hd__nor2_1
*I *5047:X O *D sky130_fd_sc_hd__dlygate4sd3_1
*CAP
1 *4835:A 3.18784e-05
2 *5047:X 3.18784e-05
*RES
1 *5047:X *4835:A 19.1357 
*END

*D_NET *924 0.003082
*CONN
*I *4249:B I *D sky130_fd_sc_hd__and3_4
*I *4155:B I *D sky130_fd_sc_hd__and3_4
*I *4148:C I *D sky130_fd_sc_hd__and3_1
*I *4175:A_N I *D sky130_fd_sc_hd__nand2b_4
*I *4174:A_N I *D sky130_fd_sc_hd__and2b_4
*I *5058:X O *D sky130_fd_sc_hd__buf_1
*CAP
1 *4249:B 0.000216288
2 *4155:B 0
3 *4148:C 0.000110394
4 *4175:A_N 0
5 *4174:A_N 0
6 *5058:X 0.00022139
7 *924:32 0.00024131
8 *924:26 0.000425698
9 *924:17 0.000204709
10 *924:8 0.000347604
11 *4174:B *924:8 2.89114e-05
12 *4249:A *4249:B 0.000188586
13 *182:10 *4249:B 4.58976e-05
14 *831:18 *4148:C 0.000133426
15 *831:33 *4148:C 1.74352e-05
16 *831:33 *4249:B 0.000218045
17 *831:33 *924:26 5.33005e-05
18 *831:33 *924:32 0.000176234
19 *842:17 *4148:C 0.00042359
20 *844:35 *924:32 2.91794e-05
*RES
1 *5058:X *924:8 12.7286 
2 *924:8 *4174:A_N 9.3 
3 *924:8 *924:17 2.19643 
4 *924:17 *4175:A_N 9.3 
5 *924:17 *924:26 1.375 
6 *924:26 *924:32 12.1607 
7 *924:32 *4148:C 13.9429 
8 *924:32 *4155:B 9.3 
9 *924:26 *4249:B 13.9429 
*END

*D_NET *925 0.00178995
*CONN
*I *4149:A I *D sky130_fd_sc_hd__or4b_1
*I *4172:A I *D sky130_fd_sc_hd__or3b_2
*I *4154:A I *D sky130_fd_sc_hd__nor4_1
*I *5059:X O *D sky130_fd_sc_hd__clkbuf_1
*CAP
1 *4149:A 0
2 *4172:A 0.00015031
3 *4154:A 0.000144729
4 *5059:X 0
5 *925:23 0.000541812
6 *925:4 0.00053623
7 *4172:A *4172:C_N 0.00010096
8 *4172:A *5096:A 9.90367e-05
9 *5059:A *4154:A 6.05161e-06
10 *164:10 *4172:A 0
11 *168:10 *4172:A 0
12 *168:10 *925:23 0
13 *169:26 *4172:A 0.000101545
14 *179:10 *4172:A 0
15 *830:10 *4154:A 5.33786e-05
16 *830:10 *925:23 0
17 *839:62 *4172:A 5.59013e-05
*RES
1 *5059:X *925:4 9.3 
2 *925:4 *4154:A 20.5857 
3 *925:4 *925:23 9.55357 
4 *925:23 *4172:A 17.6036 
5 *925:23 *4149:A 13.8 
*END

*D_NET *926 0.000855279
*CONN
*I *4997:A I *D sky130_fd_sc_hd__dlygate4sd3_1
*I *5069:A I *D sky130_fd_sc_hd__buf_2
*I *4846:Q O *D sky130_fd_sc_hd__dfxtp_1
*CAP
1 *4997:A 0.000197591
2 *5069:A 0
3 *4846:Q 0.000208296
4 *926:12 0.000405887
5 *164:10 *926:12 4.35048e-05
*RES
1 *4846:Q *926:12 21.3 
2 *926:12 *5069:A 9.3 
3 *926:12 *4997:A 12.3 
*END

*D_NET *927 0.0016338
*CONN
*I *5017:A I *D sky130_fd_sc_hd__dlygate4sd3_1
*I *5070:A I *D sky130_fd_sc_hd__buf_2
*I *4856:Q O *D sky130_fd_sc_hd__dfxtp_1
*CAP
1 *5017:A 0.000198645
2 *5070:A 0.000252168
3 *4856:Q 0
4 *927:6 0.000450812
5 *5070:A *5008:A 6.44623e-05
6 *5070:A *5073:A 0
7 *5070:A *5074:A 0.00012544
8 rdata[10] *5017:A 4.75911e-05
9 rdata[10] *5070:A 0.00046973
10 rdata[11] *5070:A 2.49484e-05
*RES
1 *4856:Q *927:6 13.8 
2 *927:6 *5070:A 21.2464 
3 *927:6 *5017:A 17.4964 
*END

*D_NET *928 0.00240486
*CONN
*I *5026:A I *D sky130_fd_sc_hd__dlygate4sd3_1
*I *5071:A I *D sky130_fd_sc_hd__buf_2
*I *4857:Q O *D sky130_fd_sc_hd__dfxtp_1
*CAP
1 *5026:A 0.000244303
2 *5071:A 0.00086692
3 *4857:Q 0
4 *928:6 0.00111122
5 *5026:A *971:91 0
6 *5071:A *5073:A 0.000126629
7 *5071:A *930:12 5.5782e-05
8 *5071:A *971:91 0
9 *4212:A1 *5071:A 0
*RES
1 *4857:Q *928:6 13.8 
2 *928:6 *5071:A 36.9786 
3 *928:6 *5026:A 17.9071 
*END

*D_NET *929 0.0009713
*CONN
*I *5072:A I *D sky130_fd_sc_hd__buf_2
*I *5024:A I *D sky130_fd_sc_hd__dlygate4sd3_1
*I *4858:Q O *D sky130_fd_sc_hd__dfxtp_1
*CAP
1 *5072:A 0.000336077
2 *5024:A 0.000149573
3 *4858:Q 0
4 *929:4 0.00048565
5 *4859:D *5024:A 0
6 *778:67 *5024:A 0
*RES
1 *4858:Q *929:4 9.3 
2 *929:4 *5024:A 20.4786 
3 *929:4 *5072:A 15.0857 
*END

*D_NET *930 0.0014476
*CONN
*I *5014:A I *D sky130_fd_sc_hd__dlygate4sd3_1
*I *5073:A I *D sky130_fd_sc_hd__buf_2
*I *4859:Q O *D sky130_fd_sc_hd__dfxtp_1
*CAP
1 *5014:A 0
2 *5073:A 0.000267635
3 *4859:Q 0.000202538
4 *930:12 0.000470173
5 rdata[11] *5073:A 0
6 rdata[11] *930:12 0.000150257
7 rdata[12] *930:12 0.000115364
8 rdata[13] *5073:A 5.92267e-05
9 *4212:C1 *5073:A 0
10 *5070:A *5073:A 0
11 *5071:A *5073:A 0.000126629
12 *5071:A *930:12 5.5782e-05
*RES
1 *4859:Q *930:12 23.2107 
2 *930:12 *5073:A 23.8536 
3 *930:12 *5014:A 9.3 
*END

*D_NET *931 0.000891462
*CONN
*I *5008:A I *D sky130_fd_sc_hd__dlygate4sd3_1
*I *5074:A I *D sky130_fd_sc_hd__buf_2
*I *4860:Q O *D sky130_fd_sc_hd__dfxtp_1
*CAP
1 *5008:A 6.47554e-05
2 *5074:A 0.000217115
3 *4860:Q 0
4 *931:6 0.000281871
5 rdata[14] *5008:A 2.57126e-05
6 rdata[14] *5074:A 0.000112106
7 *5070:A *5008:A 6.44623e-05
8 *5070:A *5074:A 0.00012544
*RES
1 *4860:Q *931:6 13.8 
2 *931:6 *5074:A 18.9786 
3 *931:6 *5008:A 15.4429 
*END

*D_NET *932 0.000698565
*CONN
*I *5075:A I *D sky130_fd_sc_hd__buf_2
*I *5016:A I *D sky130_fd_sc_hd__dlygate4sd3_1
*I *4861:Q O *D sky130_fd_sc_hd__dfxtp_1
*CAP
1 *5075:A 0.000189219
2 *5016:A 0
3 *4861:Q 0.000160064
4 *932:10 0.000349282
5 rdata[15] *5075:A 0
*RES
1 *4861:Q *932:10 16.2821 
2 *932:10 *5016:A 13.8 
3 *932:10 *5075:A 16.9964 
*END

*D_NET *933 0.0011488
*CONN
*I *5007:A I *D sky130_fd_sc_hd__dlygate4sd3_1
*I *5076:A I *D sky130_fd_sc_hd__buf_2
*I *4862:Q O *D sky130_fd_sc_hd__dfxtp_1
*CAP
1 *5007:A 0
2 *5076:A 0.000190598
3 *4862:Q 0.000367868
4 *933:10 0.000558466
5 *4218:A1 *5076:A 3.18676e-05
*RES
1 *4862:Q *933:10 15.3 
2 *933:10 *5076:A 12.7107 
3 *933:10 *5007:A 9.3 
*END

*D_NET *934 0.000929511
*CONN
*I *5077:A I *D sky130_fd_sc_hd__buf_2
*I *5020:A I *D sky130_fd_sc_hd__dlygate4sd3_1
*I *4863:Q O *D sky130_fd_sc_hd__dfxtp_1
*CAP
1 *5077:A 0.000246579
2 *5020:A 0
3 *4863:Q 0.000218176
4 *934:8 0.000464756
*RES
1 *4863:Q *934:8 12.7286 
2 *934:8 *5020:A 9.3 
3 *934:8 *5077:A 13.55 
*END

*D_NET *935 0.000661109
*CONN
*I *5078:A I *D sky130_fd_sc_hd__buf_2
*I *5015:A I *D sky130_fd_sc_hd__dlygate4sd3_1
*I *4864:Q O *D sky130_fd_sc_hd__dfxtp_1
*CAP
1 *5078:A 0.000175597
2 *5015:A 0
3 *4864:Q 0.000141435
4 *935:10 0.000317032
5 rdata[18] *5078:A 1.85361e-05
6 rdata[9] *935:10 8.50795e-06
7 *4222:A1 *5078:A 0
*RES
1 *4864:Q *935:10 15.9786 
2 *935:10 *5015:A 13.8 
3 *935:10 *5078:A 16.8893 
*END

*D_NET *936 0.00191729
*CONN
*I *4149:C I *D sky130_fd_sc_hd__or4b_1
*I *4154:C I *D sky130_fd_sc_hd__nor4_1
*I *4172:C_N I *D sky130_fd_sc_hd__or3b_2
*I *5060:X O *D sky130_fd_sc_hd__clkbuf_1
*CAP
1 *4149:C 0.000153618
2 *4154:C 0
3 *4172:C_N 0.000218388
4 *5060:X 8.45524e-05
5 *936:21 0.000300656
6 *936:8 0.000449978
7 *4172:C_N *5096:A 0.000161947
8 *4149:D_N *4149:C 5.52238e-05
9 *4154:D *4149:C 7.17235e-05
10 *4172:A *4172:C_N 0.00010096
11 *164:10 *4149:C 6.2589e-06
12 *164:10 *936:8 0
13 *164:10 *936:21 0
14 *169:26 *4149:C 0.000185643
15 *179:10 *4172:C_N 9.80173e-05
16 *830:25 *4149:C 3.03304e-05
*RES
1 *5060:X *936:8 15.1393 
2 *936:8 *4172:C_N 18.4607 
3 *936:8 *936:21 2.25 
4 *936:21 *4154:C 13.8 
5 *936:21 *4149:C 17.3714 
*END

*D_NET *937 0.000824149
*CONN
*I *5079:A I *D sky130_fd_sc_hd__buf_2
*I *5005:A I *D sky130_fd_sc_hd__dlygate4sd3_1
*I *4865:Q O *D sky130_fd_sc_hd__dfxtp_1
*CAP
1 *5079:A 0.000100127
2 *5005:A 0.000174343
3 *4865:Q 0.000120671
4 *937:8 0.000395141
5 rdata[19] *5079:A 3.38674e-05
6 *4224:A1 *5005:A 0
*RES
1 *4865:Q *937:8 15.1571 
2 *937:8 *5005:A 16.9607 
3 *937:8 *5079:A 15.7464 
*END

*D_NET *938 0.00142891
*CONN
*I *4998:A I *D sky130_fd_sc_hd__dlygate4sd3_1
*I *5080:A I *D sky130_fd_sc_hd__buf_2
*I *4847:Q O *D sky130_fd_sc_hd__dfxtp_1
*CAP
1 *4998:A 0.000332325
2 *5080:A 0.000144379
3 *4847:Q 0.000120688
4 *938:6 0.000597391
5 rdata[1] *5080:A 0
6 *164:10 *4998:A 0
7 *164:10 *5080:A 0.00010597
8 *839:40 *4998:A 0.000128154
*RES
1 *4847:Q *938:6 10.6571 
2 *938:6 *5080:A 21.7643 
3 *938:6 *4998:A 22.9429 
*END

*D_NET *939 0.00114165
*CONN
*I *5003:A I *D sky130_fd_sc_hd__dlygate4sd3_1
*I *5081:A I *D sky130_fd_sc_hd__buf_2
*I *4866:Q O *D sky130_fd_sc_hd__dfxtp_1
*CAP
1 *5003:A 0
2 *5081:A 0.000202959
3 *4866:Q 0.000367868
4 *939:10 0.000570827
*RES
1 *4866:Q *939:10 15.3 
2 *939:10 *5081:A 12.7107 
3 *939:10 *5003:A 9.3 
*END

*D_NET *940 0.000689374
*CONN
*I *5004:A I *D sky130_fd_sc_hd__dlygate4sd3_1
*I *5082:A I *D sky130_fd_sc_hd__buf_2
*I *4867:Q O *D sky130_fd_sc_hd__dfxtp_1
*CAP
1 *5004:A 0.000122166
2 *5082:A 9.05907e-05
3 *4867:Q 9.18899e-05
4 *940:8 0.000304647
5 rdata[21] *940:8 8.00806e-05
6 *4228:A1 *5004:A 0
7 *4228:A1 *940:8 0
*RES
1 *4867:Q *940:8 15.7464 
2 *940:8 *5082:A 15.1571 
3 *940:8 *5004:A 16.05 
*END

*D_NET *941 0.000346742
*CONN
*I *5083:A I *D sky130_fd_sc_hd__buf_2
*I *5006:A I *D sky130_fd_sc_hd__dlygate4sd3_1
*I *4868:Q O *D sky130_fd_sc_hd__dfxtp_1
*CAP
1 *5083:A 0
2 *5006:A 3.18784e-05
3 *4868:Q 0.000117944
4 *941:12 0.000149822
5 rdata[22] *941:12 4.70981e-05
6 *4230:A1 *941:12 0
*RES
1 *4868:Q *941:12 20.4786 
2 *941:12 *5006:A 9.83571 
3 *941:12 *5083:A 9.3 
*END

*D_NET *942 0.00123908
*CONN
*I *5084:A I *D sky130_fd_sc_hd__buf_2
*I *5009:A I *D sky130_fd_sc_hd__dlygate4sd3_1
*I *4869:Q O *D sky130_fd_sc_hd__dfxtp_1
*CAP
1 *5084:A 0.000226861
2 *5009:A 0.000192483
3 *4869:Q 0.000158552
4 *942:8 0.000577896
5 *942:8 *967:64 8.32875e-05
*RES
1 *4869:Q *942:8 15.9786 
2 *942:8 *5009:A 16.9607 
3 *942:8 *5084:A 17.8714 
*END

*D_NET *943 0.00202997
*CONN
*I *5085:A I *D sky130_fd_sc_hd__buf_2
*I *5022:A I *D sky130_fd_sc_hd__dlygate4sd3_1
*I *4870:Q O *D sky130_fd_sc_hd__dfxtp_1
*CAP
1 *5085:A 0.000831597
2 *5022:A 0.000180362
3 *4870:Q 0
4 *943:4 0.00101196
5 *5022:A *967:87 6.05161e-06
6 *5022:A *970:58 0
*RES
1 *4870:Q *943:4 9.3 
2 *943:4 *5022:A 20.8893 
3 *943:4 *5085:A 19.1929 
*END

*D_NET *944 0.00276666
*CONN
*I *5086:A I *D sky130_fd_sc_hd__buf_2
*I *5019:A I *D sky130_fd_sc_hd__dlygate4sd3_1
*I *4871:Q O *D sky130_fd_sc_hd__dfxtp_1
*CAP
1 *5086:A 0.000263351
2 *5019:A 0.000275394
3 *4871:Q 0.000259689
4 *944:8 0.000798435
5 *5019:A *4957:A 0.000102507
6 *5019:A *967:22 7.74135e-05
7 *5086:A *4957:A 0.000149653
8 rdata[25] *5086:A 2.76585e-05
9 rdata[8] *5086:A 0.000111444
10 *4202:A2 *5019:A 2.4741e-05
11 *4872:CLK *5019:A 3.63775e-05
12 *4872:CLK *944:8 0.000393252
13 *200:16 *5019:A 0.000175191
14 *779:158 *944:8 7.15503e-05
*RES
1 *4871:Q *944:8 18.8536 
2 *944:8 *5019:A 27.55 
3 *944:8 *5086:A 19.5321 
*END

*D_NET *945 0.00133746
*CONN
*I *5013:A I *D sky130_fd_sc_hd__dlygate4sd3_1
*I *5087:A I *D sky130_fd_sc_hd__buf_2
*I *4872:Q O *D sky130_fd_sc_hd__dfxtp_1
*CAP
1 *5013:A 0.000248498
2 *5087:A 0.00036106
3 *4872:Q 0
4 *945:4 0.000609557
5 *5013:A *967:41 0.000118348
*RES
1 *4872:Q *945:4 9.3 
2 *945:4 *5087:A 24.55 
3 *945:4 *5013:A 13.0321 
*END

*D_NET *946 0.0020439
*CONN
*I *5023:A I *D sky130_fd_sc_hd__dlygate4sd3_1
*I *5088:A I *D sky130_fd_sc_hd__buf_2
*I *4873:Q O *D sky130_fd_sc_hd__dfxtp_1
*CAP
1 *5023:A 0.00016203
2 *5088:A 0.000610858
3 *4873:Q 0
4 *946:4 0.000772888
5 rdata[28] *5088:A 2.15121e-05
6 *4240:A2 *5088:A 2.44453e-05
7 *4240:C1 *5088:A 3.02917e-05
8 *4873:CLK *5023:A 0.000276211
9 *4873:CLK *5088:A 8.18783e-05
10 *848:27 *5088:A 6.37841e-05
*RES
1 *4873:Q *946:4 9.3 
2 *946:4 *5088:A 29.4071 
3 *946:4 *5023:A 13.0321 
*END

*D_NET *947 0.00117408
*CONN
*I *4153:A I *D sky130_fd_sc_hd__or2_1
*I *4146:A I *D sky130_fd_sc_hd__inv_2
*I *5061:X O *D sky130_fd_sc_hd__clkbuf_1
*CAP
1 *4153:A 0.000302978
2 *4146:A 3.82418e-05
3 *5061:X 8.07577e-05
4 *947:6 0.000421978
5 *4151:A *4153:A 4.88637e-05
6 *4153:B *4153:A 0.000232399
7 *167:6 *4153:A 4.88637e-05
*RES
1 *5061:X *947:6 10.2464 
2 *947:6 *4146:A 10.0321 
3 *947:6 *4153:A 13.9607 
*END

*D_NET *948 0.000945561
*CONN
*I *5018:A I *D sky130_fd_sc_hd__dlygate4sd3_1
*I *5089:A I *D sky130_fd_sc_hd__buf_2
*I *4874:Q O *D sky130_fd_sc_hd__dfxtp_1
*CAP
1 *5018:A 0.000287348
2 *5089:A 0.000182609
3 *4874:Q 0
4 *948:4 0.000469956
5 *4242:A1 *5018:A 5.64835e-06
*RES
1 *4874:Q *948:4 9.3 
2 *948:4 *5089:A 21.3 
3 *948:4 *5018:A 13.0321 
*END

*D_NET *949 0.00124441
*CONN
*I *5090:A I *D sky130_fd_sc_hd__buf_2
*I *5011:A I *D sky130_fd_sc_hd__dlygate4sd3_1
*I *4875:Q O *D sky130_fd_sc_hd__dfxtp_1
*CAP
1 *5090:A 0.000257847
2 *5011:A 0
3 *4875:Q 0.000312834
4 *949:14 0.000570682
5 rdata[29] *5090:A 8.26622e-05
6 *4244:A1 *949:14 2.03823e-05
*RES
1 *4875:Q *949:14 18.5857 
2 *949:14 *5011:A 13.8 
3 *949:14 *5090:A 18.6393 
*END

*D_NET *950 0.00130954
*CONN
*I *5091:A I *D sky130_fd_sc_hd__buf_2
*I *5000:A I *D sky130_fd_sc_hd__dlygate4sd3_1
*I *4848:Q O *D sky130_fd_sc_hd__dfxtp_1
*CAP
1 *5091:A 0.000232557
2 *5000:A 0.000135031
3 *4848:Q 0.000229498
4 *950:8 0.000597086
5 rdata[2] *5091:A 0.000115369
6 *164:10 *5091:A 0
7 *164:10 *950:8 0
*RES
1 *4848:Q *950:8 17.8714 
2 *950:8 *5000:A 15.9786 
3 *950:8 *5091:A 18.0143 
*END

*D_NET *951 0.0021217
*CONN
*I *5092:A I *D sky130_fd_sc_hd__buf_2
*I *5025:A I *D sky130_fd_sc_hd__dlygate4sd3_1
*I *4876:Q O *D sky130_fd_sc_hd__dfxtp_1
*CAP
1 *5092:A 0.00062249
2 *5025:A 0.000218345
3 *4876:Q 4.80594e-05
4 *951:8 0.000888894
5 *5025:A *968:44 0.000186662
6 *5025:A *972:144 0
7 *4244:A2 *5025:A 9.92409e-05
8 *4245:A *5025:A 0
9 *4245:A *5092:A 0
10 *4246:B2 *5025:A 0
11 *4246:B2 *951:8 5.39629e-06
12 *4876:D *5025:A 5.26091e-05
*RES
1 *4876:Q *951:8 14.3357 
2 *951:8 *5025:A 19.0321 
3 *951:8 *5092:A 25.1571 
*END

*D_NET *952 0.00247063
*CONN
*I *5093:A I *D sky130_fd_sc_hd__buf_2
*I *5021:A I *D sky130_fd_sc_hd__dlygate4sd3_1
*I *4877:Q O *D sky130_fd_sc_hd__dfxtp_1
*CAP
1 *5093:A 0.000669198
2 *5021:A 0.000157687
3 *4877:Q 0
4 *952:6 0.000826885
5 *5021:A *5097:A 2.10446e-05
6 *5093:A *5097:A 0.000294562
7 rdata[6] *5093:A 0.000139337
8 *4876:CLK *5021:A 0.00036192
*RES
1 *4877:Q *952:6 13.8 
2 *952:6 *5021:A 17.9429 
3 *952:6 *5093:A 28.2821 
*END

*D_NET *953 0.000493657
*CONN
*I *4999:A I *D sky130_fd_sc_hd__dlygate4sd3_1
*I *5094:A I *D sky130_fd_sc_hd__buf_2
*I *4849:Q O *D sky130_fd_sc_hd__dfxtp_1
*CAP
1 *4999:A 9.15606e-05
2 *5094:A 0
3 *4849:Q 0.00011272
4 *953:12 0.00020428
5 rdata[3] *953:12 4.15914e-05
6 *164:10 *953:12 4.35048e-05
*RES
1 *4849:Q *953:12 20.4786 
2 *953:12 *5094:A 9.3 
3 *953:12 *4999:A 10.6571 
*END

*D_NET *954 0.00237386
*CONN
*I *5002:A I *D sky130_fd_sc_hd__dlygate4sd3_1
*I *5095:A I *D sky130_fd_sc_hd__buf_2
*I *4850:Q O *D sky130_fd_sc_hd__dfxtp_1
*CAP
1 *5002:A 0.000252505
2 *5095:A 0.000927405
3 *4850:Q 0
4 *954:4 0.00117991
5 *843:10 *5095:A 1.40415e-05
*RES
1 *4850:Q *954:4 9.3 
2 *954:4 *5095:A 23.8357 
3 *954:4 *5002:A 22.425 
*END

*D_NET *955 0.00223371
*CONN
*I *5001:A I *D sky130_fd_sc_hd__dlygate4sd3_1
*I *5096:A I *D sky130_fd_sc_hd__buf_2
*I *4851:Q O *D sky130_fd_sc_hd__dfxtp_1
*CAP
1 *5001:A 6.93275e-05
2 *5096:A 0.000320543
3 *4851:Q 8.77254e-05
4 *955:10 0.000477595
5 *955:10 *1010:22 5.5782e-05
6 *4172:A *5096:A 9.90367e-05
7 *4172:C_N *5096:A 0.000161947
8 *169:26 *5096:A 4.27338e-05
9 *179:10 *5096:A 0.000118584
10 *180:12 *955:10 0
11 *839:62 *5001:A 0.00018345
12 *839:62 *5096:A 0.000616988
*RES
1 *4851:Q *955:10 20.2464 
2 *955:10 *5096:A 18.8893 
3 *955:10 *5001:A 11.0679 
*END

*D_NET *956 0.00404508
*CONN
*I *5097:A I *D sky130_fd_sc_hd__buf_2
*I *5028:A I *D sky130_fd_sc_hd__dlygate4sd3_1
*I *4852:Q O *D sky130_fd_sc_hd__dfxtp_1
*CAP
1 *5097:A 0.00103074
2 *5028:A 0.000147672
3 *4852:Q 0
4 *956:6 0.00117841
5 *5097:A *968:10 0.00017461
6 rdata[6] *5097:A 5.51716e-05
7 *4248:A1 *5097:A 0
8 *5021:A *5097:A 2.10446e-05
9 *5093:A *5097:A 0.000294562
10 *199:10 *5097:A 0
11 *843:131 *5028:A 0.00025263
12 *843:131 *5097:A 0.000890249
*RES
1 *4852:Q *956:6 13.8 
2 *956:6 *5028:A 17.4964 
3 *956:6 *5097:A 39.7286 
*END

*D_NET *957 0.00147246
*CONN
*I *5098:A I *D sky130_fd_sc_hd__buf_2
*I *5010:A I *D sky130_fd_sc_hd__dlygate4sd3_1
*I *4853:Q O *D sky130_fd_sc_hd__dfxtp_1
*CAP
1 *5098:A 0.000195119
2 *5010:A 0.000195855
3 *4853:Q 4.33587e-05
4 *957:8 0.000434333
5 *5010:A *968:70 0.000138432
6 rdata[7] *5098:A 5.74309e-05
7 *4951:A *5010:A 0.000244721
8 *4951:A *5098:A 0.000144732
9 *848:19 *957:8 1.84776e-05
*RES
1 *4853:Q *957:8 14.3357 
2 *957:8 *5010:A 18.3179 
3 *957:8 *5098:A 17.8714 
*END

*D_NET *958 0.00156171
*CONN
*I *4150:B I *D sky130_fd_sc_hd__or4_1
*I *5062:X O *D sky130_fd_sc_hd__clkbuf_1
*CAP
1 *4150:B 0.000437818
2 *5062:X 0.000437818
3 *4150:B *4150:A 2.00751e-05
4 *4150:B *4150:C 0.000539217
5 *4150:B *4150:D 0.000103267
6 ready *4150:B 0
7 *5064:A *4150:B 2.35149e-05
*RES
1 *5062:X *4150:B 37.975 
*END

*D_NET *959 0.000832514
*CONN
*I *5012:A I *D sky130_fd_sc_hd__dlygate4sd3_1
*I *5099:A I *D sky130_fd_sc_hd__buf_2
*I *4854:Q O *D sky130_fd_sc_hd__dfxtp_1
*CAP
1 *5012:A 0.000251248
2 *5099:A 0.000162185
3 *4854:Q 0
4 *959:4 0.000413433
5 *4202:A1 *5012:A 5.64835e-06
*RES
1 *4854:Q *959:4 9.3 
2 *959:4 *5099:A 20.8893 
3 *959:4 *5012:A 13.1571 
*END

*D_NET *960 0.00197137
*CONN
*I *5100:A I *D sky130_fd_sc_hd__buf_2
*I *5027:A I *D sky130_fd_sc_hd__dlygate4sd3_1
*I *4855:Q O *D sky130_fd_sc_hd__dfxtp_1
*CAP
1 *5100:A 0.00061573
2 *5027:A 0
3 *4855:Q 0.000136237
4 *960:10 0.000751967
5 *5100:A *4222:B1 0.000200413
6 *960:10 *4222:B1 2.41865e-05
7 *960:10 *966:80 0.000101545
8 *4222:B2 *5100:A 1.58163e-05
9 *838:103 *960:10 9.85396e-06
10 *846:29 *5100:A 7.08001e-05
11 *846:29 *960:10 4.48206e-05
*RES
1 *4855:Q *960:10 16.3893 
2 *960:10 *5027:A 13.8 
3 *960:10 *5100:A 25.2464 
*END

*D_NET *961 0.0129768
*CONN
*I *4793:B I *D sky130_fd_sc_hd__nand2_1
*I *4807:B1 I *D sky130_fd_sc_hd__o41a_1
*I *4809:B I *D sky130_fd_sc_hd__and2_1
*I *4826:B1 I *D sky130_fd_sc_hd__o21ai_1
*I *4821:B I *D sky130_fd_sc_hd__nor2_1
*I *4822:B I *D sky130_fd_sc_hd__and2_1
*I *4832:B I *D sky130_fd_sc_hd__xnor2_1
*I *4810:B I *D sky130_fd_sc_hd__nor2_1
*I *4816:B I *D sky130_fd_sc_hd__xor2_1
*I *4800:B I *D sky130_fd_sc_hd__xnor2_1
*I *4952:X O *D sky130_fd_sc_hd__buf_2
*CAP
1 *4793:B 0
2 *4807:B1 3.57004e-05
3 *4809:B 0
4 *4826:B1 0
5 *4821:B 0
6 *4822:B 0
7 *4832:B 0.000217462
8 *4810:B 2.11142e-05
9 *4816:B 0.000130666
10 *4800:B 0.00027041
11 *4952:X 0
12 *961:79 0.000261346
13 *961:77 0.000280683
14 *961:65 0.000616034
15 *961:52 0.000423204
16 *961:50 0.000284934
17 *961:35 0.000712213
18 *961:27 0.00050872
19 *961:23 0.000586586
20 *961:6 0.000703446
21 *4800:B *970:27 0.000128161
22 *961:23 *966:104 0
23 *961:23 *970:27 0.000247771
24 *961:50 *970:100 0.000456341
25 *4794:B *961:23 0.000186662
26 *4794:B *961:27 1.5424e-05
27 *4801:B1 *961:27 9.0145e-05
28 *4805:D *961:23 0
29 *4807:A1 *961:27 5.33005e-05
30 *4807:A2 *961:27 1.87175e-05
31 *4807:A3 *961:27 5.52302e-05
32 *4807:A4 *4807:B1 5.36047e-06
33 *4807:A4 *961:27 5.74499e-06
34 *4810:A *961:65 0
35 *4811:B *4810:B 9.60875e-05
36 *4811:B *961:52 5.33005e-05
37 *4811:B *961:65 5.7661e-06
38 *4818:B *961:50 0.000172829
39 *4822:A *4832:B 0
40 *4822:A *961:77 4.7194e-05
41 *4822:A *961:79 5.71472e-05
42 *4826:A2 *961:65 0.000396892
43 *4827:A1 *961:65 1.02936e-05
44 *4827:A1 *961:77 2.78608e-05
45 *4827:A2 *961:65 2.14658e-05
46 *4827:A2 *961:77 0.00010096
47 *4827:B1 *961:65 0
48 *4827:B1 *961:77 0.000104956
49 *4833:B1 *4832:B 0.000144773
50 *4834:A1 *4832:B 0.000140933
51 *4834:A3 *4832:B 0.000185643
52 *4836:A2 *4832:B 0.000209219
53 *183:53 *961:35 0.000670467
54 *737:12 *961:23 9.29326e-05
55 *740:10 *4800:B 5.52302e-05
56 *740:10 *961:23 0
57 *745:24 *4807:B1 4.69652e-05
58 *745:24 *961:23 9.47613e-05
59 *745:24 *961:27 0.000428915
60 *754:12 *4816:B 0.000265453
61 *754:12 *961:35 4.18895e-05
62 *754:12 *961:50 0.000172925
63 *764:6 *961:77 4.54062e-05
64 *764:12 *4832:B 2.73339e-05
65 *764:12 *961:77 0.00044852
66 *764:12 *961:79 6.87574e-05
67 *772:94 *961:23 5.84547e-05
68 *779:10 *961:35 0.00014388
69 *817:14 *4810:B 5.52238e-05
70 *817:14 *961:65 0.000130419
71 *818:8 *4816:B 0
72 *820:16 *961:77 9.90367e-05
73 *835:27 *4816:B 0.000393943
74 *835:27 *961:35 0.000397918
75 *835:54 *961:35 0.000870365
76 *836:46 *961:35 0.000169615
77 *849:12 *961:50 0.000107741
*RES
1 *4952:X *961:6 13.8 
2 *961:6 *4800:B 18.8536 
3 *961:6 *961:23 14.2857 
4 *961:23 *961:27 4.66071 
5 *961:27 *961:35 22.9821 
6 *961:35 *4816:B 13.55 
7 *961:35 *961:50 18.8393 
8 *961:50 *961:52 0.535714 
9 *961:52 *4810:B 10.2464 
10 *961:52 *961:65 7.44643 
11 *961:65 *961:77 7.82143 
12 *961:77 *961:79 1.35714 
13 *961:79 *4832:B 16.175 
14 *961:79 *4822:B 9.3 
15 *961:77 *4821:B 9.3 
16 *961:65 *4826:B1 9.3 
17 *961:50 *4809:B 9.3 
18 *961:27 *4807:B1 10.4071 
19 *961:23 *4793:B 9.3 
*END

*D_NET *962 0.0157628
*CONN
*I *4766:B I *D sky130_fd_sc_hd__or2_1
*I *4762:A2 I *D sky130_fd_sc_hd__a21bo_1
*I *4761:B I *D sky130_fd_sc_hd__xnor2_1
*I *4746:B I *D sky130_fd_sc_hd__xnor2_1
*I *4780:B1 I *D sky130_fd_sc_hd__o41ai_2
*I *4796:A2_N I *D sky130_fd_sc_hd__a2bb2o_4
*I *4787:B I *D sky130_fd_sc_hd__xnor2_1
*I *4788:A2 I *D sky130_fd_sc_hd__a21boi_1
*I *4795:B1 I *D sky130_fd_sc_hd__o21ai_1
*I *4779:B I *D sky130_fd_sc_hd__xnor2_1
*I *4953:X O *D sky130_fd_sc_hd__buf_4
*CAP
1 *4766:B 0.000212824
2 *4762:A2 0.000335369
3 *4761:B 0.000509202
4 *4746:B 0.000549802
5 *4780:B1 2.23854e-05
6 *4796:A2_N 0
7 *4787:B 0.000284358
8 *4788:A2 0
9 *4795:B1 1.69531e-05
10 *4779:B 0.000126171
11 *4953:X 0
12 *962:90 0.00115108
13 *962:88 0.000505248
14 *962:86 0.000750207
15 *962:75 0.000692304
16 *962:51 0.000449795
17 *962:38 0.00019082
18 *962:34 0.000394177
19 *962:21 0.000560781
20 *962:4 0.000511548
21 *4746:B *963:23 0
22 *4762:A2 *4769:B1 5.52302e-05
23 *4766:B *4774:B 5.33005e-05
24 *4787:B *1002:28 0.000587304
25 *962:90 *963:23 0
26 *4746:A *4746:B 9.90367e-05
27 *4759:A1 *4746:B 6.07532e-05
28 *4762:B1_N *4762:A2 9.90367e-05
29 *4769:A1 *4766:B 0
30 *4769:A1 *962:88 0
31 *4769:A1 *962:90 0
32 *4770:B2 *4762:A2 0.000315165
33 *4779:A *4779:B 0.000318107
34 *4779:A *962:21 1.39726e-05
35 *4780:A1 *962:86 5.71472e-05
36 *4780:A2 *4766:B 2.39876e-05
37 *4780:A2 *962:86 0.000285688
38 *4780:A3 *4780:B1 0
39 *4780:A3 *962:86 1.21258e-05
40 *4780:A4 *962:86 9.90367e-05
41 *4781:A *4746:B 0.000118189
42 *4781:A *4761:B 4.87854e-05
43 *4781:C *4746:B 4.98055e-06
44 *4781:D *4746:B 3.34295e-05
45 *4781:D *4766:B 0.000356417
46 *4781:D *962:88 0.000142797
47 *4781:D *962:90 0.000166269
48 *4785:A1 *962:21 6.65398e-05
49 *4788:B1_N *962:51 9.90431e-05
50 *4789:A *4787:B 0.000114724
51 *4796:B2 *962:51 5.52238e-05
52 *4805:B *4787:B 0.000184392
53 *4925:A *4787:B 0.000227021
54 *4926:A *962:38 5.33005e-05
55 *4926:A *962:51 0.000331126
56 *183:53 *4795:B1 5.33005e-05
57 *183:53 *962:34 0.000431224
58 *671:39 *4746:B 0.000726964
59 *694:8 *4746:B 5.52302e-05
60 *703:12 *4746:B 0.000108848
61 *707:6 *4761:B 9.27866e-05
62 *707:23 *4761:B 2.15245e-05
63 *707:23 *4762:A2 6.71854e-05
64 *713:27 *4766:B 7.90803e-05
65 *715:10 *4766:B 0
66 *722:10 *4779:B 4.01768e-05
67 *723:10 *962:75 7.77751e-05
68 *723:10 *962:86 2.44318e-05
69 *726:21 *962:21 0.000115873
70 *745:24 *962:34 0.000198698
71 *745:24 *962:51 0.000536813
72 *745:24 *962:75 4.49293e-05
73 *780:10 *962:34 6.39901e-05
74 *780:12 *962:34 1.76135e-05
75 *780:47 *962:34 2.26327e-05
76 *780:47 *962:75 0.000107503
77 *809:24 *4762:A2 6.25878e-05
78 *809:28 *4762:A2 0.000158772
79 *810:29 *962:86 2.60984e-05
80 *811:29 *4766:B 5.33005e-05
81 *813:12 *962:21 1.92905e-05
82 *813:25 *962:21 0.00066746
83 *813:38 *962:21 5.41794e-05
84 *833:17 *962:21 0
85 *835:77 *4795:B1 5.33005e-05
86 *835:77 *962:34 0.000358977
87 *835:77 *962:75 7.71417e-05
*RES
1 *4953:X *962:4 9.3 
2 *962:4 *4779:B 13.0321 
3 *962:4 *962:21 19.1786 
4 *962:21 *4795:B1 9.83571 
5 *962:21 *962:34 11.2857 
6 *962:34 *962:38 5.03571 
7 *962:38 *4788:A2 9.3 
8 *962:38 *962:51 6.85714 
9 *962:51 *4787:B 27.8893 
10 *962:51 *4796:A2_N 9.3 
11 *962:34 *962:75 9.64286 
12 *962:75 *4780:B1 9.72857 
13 *962:75 *962:86 14.0714 
14 *962:86 *962:88 1.94643 
15 *962:88 *962:90 2.25 
16 *962:90 *4746:B 28.4429 
17 *962:90 *4761:B 20.7107 
18 *962:88 *4762:A2 22.1571 
19 *962:86 *4766:B 19.6214 
*END

*D_NET *963 0.00736596
*CONN
*I *4767:B I *D sky130_fd_sc_hd__nand2_1
*I *4774:B I *D sky130_fd_sc_hd__xnor2_1
*I *4770:A2_N I *D sky130_fd_sc_hd__a2bb2o_4
*I *4769:B1 I *D sky130_fd_sc_hd__o21ai_1
*I *4751:B I *D sky130_fd_sc_hd__xnor2_1
*I *4954:X O *D sky130_fd_sc_hd__clkbuf_2
*CAP
1 *4767:B 1.99857e-05
2 *4774:B 0.000368866
3 *4770:A2_N 2.3671e-05
4 *4769:B1 1.40355e-05
5 *4751:B 0.000176934
6 *4954:X 0
7 *963:49 0.000683341
8 *963:34 0.000430178
9 *963:23 0.000546339
10 *963:4 0.00059722
11 *4751:B *971:41 4.46186e-06
12 *4746:B *963:23 0
13 *4751:A *4751:B 0.000222156
14 *4762:A2 *4769:B1 5.52302e-05
15 *4766:B *4774:B 5.33005e-05
16 *4767:A *4767:B 0
17 *4767:A *4774:B 0.00014183
18 *4768:A *4767:B 1.04232e-05
19 *4768:A *4774:B 4.88637e-05
20 *4768:A *963:49 3.18676e-05
21 *4768:B *963:49 1.39726e-05
22 *4769:A1 *963:23 1.99099e-05
23 *4769:A1 *963:34 0.000103041
24 *4769:A1 *963:49 1.17968e-05
25 *4770:B1 *963:34 0
26 *4774:A *4774:B 0.000315158
27 *4781:C *4774:B 3.97677e-05
28 *4781:D *4774:B 0.000225609
29 *4782:B1 *4751:B 0
30 *183:69 *4751:B 0.000132473
31 *183:69 *963:23 0.000998867
32 *671:47 *4751:B 1.00073e-05
33 *704:25 *963:23 0
34 *707:23 *963:23 0
35 *713:6 *4774:B 0.000170964
36 *713:6 *963:49 4.58976e-05
37 *715:10 *963:49 0
38 *718:6 *4774:B 0.00053128
39 *809:24 *4769:B1 2.89114e-05
40 *810:14 *4770:A2_N 5.52302e-05
41 *811:29 *4774:B 8.41815e-05
42 *837:87 *4751:B 0.000139907
43 *837:87 *963:23 0.00101028
44 *962:90 *963:23 0
*RES
1 *4954:X *963:4 9.3 
2 *963:4 *4751:B 22.8179 
3 *963:4 *963:23 18.75 
4 *963:23 *4769:B1 14.3357 
5 *963:23 *963:34 2.55357 
6 *963:34 *4770:A2_N 14.3357 
7 *963:34 *963:49 10.125 
8 *963:49 *4774:B 21.3357 
9 *963:49 *4767:B 9.72857 
*END

*D_NET *964 0.005972
*CONN
*I *4734:B I *D sky130_fd_sc_hd__xnor2_4
*I *4740:B I *D sky130_fd_sc_hd__xnor2_2
*I *4726:B I *D sky130_fd_sc_hd__xnor2_4
*I *4720:B I *D sky130_fd_sc_hd__nor2_1
*I *4721:B I *D sky130_fd_sc_hd__and2_4
*I *4955:X O *D sky130_fd_sc_hd__buf_12
*CAP
1 *4734:B 0.000243338
2 *4740:B 0.000198608
3 *4726:B 3.79457e-05
4 *4720:B 0
5 *4721:B 7.82041e-05
6 *4955:X 3.54817e-05
7 *964:45 0.000586121
8 *964:32 0.000568622
9 *964:14 0.00037095
10 *964:8 0.000714729
11 *4740:B *971:62 0.000210801
12 *4204:B2 *4726:B 1.92905e-05
13 *4588:B1 *964:8 7.15962e-05
14 *4720:A *4721:B 0.000111383
15 *671:14 *964:14 0.000199706
16 *671:14 *964:32 2.48938e-05
17 *671:27 *4734:B 0.000196097
18 *671:27 *964:32 0.000802624
19 *671:27 *964:45 0.00035158
20 *672:8 *4721:B 0.000188586
21 *684:8 *4734:B 0
22 *685:12 *4734:B 0.000128161
23 *685:12 *4740:B 5.33005e-05
24 *685:12 *964:45 3.17148e-05
25 *700:10 *4734:B 1.46624e-05
26 *700:10 *964:32 5.94737e-05
27 *700:10 *964:45 0.000112006
28 *778:161 *4721:B 4.69993e-05
29 *778:161 *964:14 0.00027323
30 *798:59 *964:8 0.000186669
31 *804:22 *964:32 0
32 *838:118 *4726:B 5.52302e-05
*RES
1 *4955:X *964:8 15.5679 
2 *964:8 *964:14 11.6964 
3 *964:14 *4721:B 12.3357 
4 *964:14 *4720:B 9.3 
5 *964:8 *964:32 10.4464 
6 *964:32 *4726:B 14.7643 
7 *964:32 *964:45 4.67857 
8 *964:45 *4740:B 18.0321 
9 *964:45 *4734:B 19.05 
*END

*D_NET *965 0.00066664
*CONN
*I *4525:A2 I *D sky130_fd_sc_hd__a21bo_1
*I *5101:X O *D sky130_fd_sc_hd__buf_2
*CAP
1 *4525:A2 0.000293149
2 *5101:X 0.000293149
3 *4525:A2 *979:61 0
4 *5101:A *4525:A2 5.23057e-05
5 *430:20 *4525:A2 0
6 *438:18 *4525:A2 2.80368e-05
*RES
1 *5101:X *4525:A2 31.8321 
*END

*D_NET *966 0.0268333
*CONN
*I *4212:B1 I *D sky130_fd_sc_hd__o221a_1
*I *4222:B1 I *D sky130_fd_sc_hd__o221a_1
*I *4204:B1 I *D sky130_fd_sc_hd__o221a_1
*I *4236:B1 I *D sky130_fd_sc_hd__o221a_1
*I *4218:B1 I *D sky130_fd_sc_hd__o221a_1
*I *4216:B1 I *D sky130_fd_sc_hd__o221a_1
*I *4206:B1 I *D sky130_fd_sc_hd__o221a_1
*I *4214:B1 I *D sky130_fd_sc_hd__o221a_1
*I *4208:B1 I *D sky130_fd_sc_hd__o221a_1
*I *4210:B1 I *D sky130_fd_sc_hd__o221a_1
*I *4956:X O *D sky130_fd_sc_hd__clkbuf_4
*CAP
1 *4212:B1 0.000418332
2 *4222:B1 0.000173913
3 *4204:B1 5.68788e-05
4 *4236:B1 0
5 *4218:B1 0
6 *4216:B1 7.72835e-05
7 *4206:B1 0
8 *4214:B1 0
9 *4208:B1 0.000998604
10 *4210:B1 0.000465155
11 *4956:X 0
12 *966:104 0.00178703
13 *966:100 0.00216238
14 *966:94 0.00304206
15 *966:84 0.00313589
16 *966:80 0.000766834
17 *966:71 0.000453091
18 *966:58 0.000567441
19 *966:49 0.000370115
20 *966:40 0.000344225
21 *966:23 0.00140545
22 *966:6 0.000680212
23 *966:4 0.000418332
24 *4204:B1 *971:70 0.000150625
25 *966:94 *4545:A1 0.000248788
26 *966:104 *970:27 0
27 *4201:A *966:104 0
28 *4204:A1 *966:84 0.000399246
29 *4206:C1 *966:49 0.000184635
30 *4208:A2 *4208:B1 4.8035e-05
31 *4210:A1 *4210:B1 5.67027e-05
32 *4210:B2 *4210:B1 5.68713e-05
33 *4212:A2 *4210:B1 2.84398e-05
34 *4212:B2 *4212:B1 0.000178883
35 *4212:C1 *4212:B1 2.89114e-05
36 *4216:A2 *4216:B1 6.05161e-06
37 *4216:B2 *4216:B1 3.18676e-05
38 *4222:A2 *4222:B1 0.000148542
39 *4222:A2 *966:80 0.000113877
40 *4222:B2 *4222:B1 0.000128154
41 *4236:B2 *966:104 0.000318298
42 *4502:A1 *966:100 0.000110566
43 *4502:A1 *966:104 0
44 *4502:S *966:104 9.59321e-05
45 *4503:A *966:104 0
46 *4504:A2 *966:100 0.000187893
47 *4543:C *966:94 0.000185643
48 *4731:B *966:94 5.52238e-05
49 *4732:A2 *966:94 0.000654896
50 *4752:A *966:94 0.000380173
51 *4752:B *966:94 0.000142043
52 *4752:C *966:94 3.80385e-05
53 *4753:B1 *966:94 0.000318101
54 *4792:B *966:104 0
55 *4793:A *966:104 5.58941e-05
56 *4798:B *966:104 6.43134e-05
57 *4799:C1 *966:104 0.000125731
58 *4805:D *966:104 0.000142082
59 *4857:D *4208:B1 0.000170324
60 *4864:CLK *966:84 0.000281006
61 *4894:D *966:104 0.000177941
62 *4995:A *966:94 0.000196968
63 *5100:A *4222:B1 0.000200413
64 *181:60 *4204:B1 7.60306e-05
65 *200:16 *966:104 0
66 *459:20 *966:100 0
67 *459:20 *966:104 0
68 *462:8 *966:94 3.94624e-05
69 *462:15 *966:94 1.32552e-05
70 *498:14 *966:94 6.42095e-05
71 *499:30 *966:94 0.00014285
72 *737:12 *966:104 0
73 *740:10 *966:104 0.000175526
74 *778:67 *4210:B1 0.000186669
75 *778:71 *4210:B1 0
76 *779:65 *966:104 0
77 *815:14 *966:104 0.000773608
78 *815:16 *966:104 0.000170654
79 *827:14 *966:104 0
80 *827:22 *966:100 0
81 *832:89 *966:104 9.21859e-05
82 *832:134 *966:104 0
83 *836:65 *966:94 7.94117e-05
84 *838:42 *4212:B1 5.03772e-05
85 *838:57 *4210:B1 2.49484e-05
86 *838:57 *966:23 0.000210535
87 *838:57 *966:40 0.000184635
88 *838:57 *966:49 5.80706e-06
89 *838:66 *966:49 0.000206083
90 *838:66 *966:58 5.80706e-06
91 *838:75 *966:58 0.000184392
92 *838:88 *966:58 3.67452e-05
93 *838:88 *966:71 0.000294201
94 *838:88 *966:80 1.76039e-05
95 *838:97 *966:80 6.07232e-05
96 *845:28 *966:104 0
97 *845:88 *966:104 0
98 *845:103 *966:104 0.00051705
99 *846:27 *4222:B1 2.8266e-06
100 *846:29 *4222:B1 5.76278e-05
101 *846:29 *966:80 0
102 *846:33 *966:58 0
103 *846:33 *966:71 0
104 *960:10 *4222:B1 2.41865e-05
105 *960:10 *966:80 0.000101545
106 *961:23 *966:104 0
*RES
1 *4956:X *966:4 9.3 
2 *966:4 *966:6 4.5 
3 *966:6 *4210:B1 22.1571 
4 *966:6 *966:23 4.98214 
5 *966:23 *4208:B1 25.9964 
6 *966:23 *966:40 4.375 
7 *966:40 *4214:B1 13.8 
8 *966:40 *966:49 4.98214 
9 *966:49 *4206:B1 13.8 
10 *966:49 *966:58 5.28571 
11 *966:58 *4216:B1 15.175 
12 *966:58 *966:71 6.80357 
13 *966:71 *4218:B1 13.8 
14 *966:71 *966:80 4.67857 
15 *966:80 *966:84 13.25 
16 *966:84 *966:94 47.8393 
17 *966:94 *966:100 13.3839 
18 *966:100 *966:104 46.7946 
19 *966:104 *4236:B1 9.3 
20 *966:84 *4204:B1 20.2464 
21 *966:80 *4222:B1 19.7464 
22 *966:4 *4212:B1 15.6214 
*END

*D_NET *967 0.0221621
*CONN
*I *4202:B1 I *D sky130_fd_sc_hd__o221a_1
*I *4230:B1 I *D sky130_fd_sc_hd__o221a_1
*I *4228:B1 I *D sky130_fd_sc_hd__o221a_1
*I *4226:B1 I *D sky130_fd_sc_hd__o221a_1
*I *4224:B1 I *D sky130_fd_sc_hd__o221a_1
*I *4220:B1 I *D sky130_fd_sc_hd__o221a_1
*I *4234:B1 I *D sky130_fd_sc_hd__o221a_1
*I *4232:B1 I *D sky130_fd_sc_hd__o221a_1
*I *4238:B1 I *D sky130_fd_sc_hd__o221a_1
*I *4957:X O *D sky130_fd_sc_hd__buf_2
*CAP
1 *4202:B1 0
2 *4230:B1 0.000631823
3 *4228:B1 0.000518105
4 *4226:B1 3.46442e-05
5 *4224:B1 0.000165486
6 *4220:B1 0.000110861
7 *4234:B1 3.65273e-05
8 *4232:B1 8.35796e-06
9 *4238:B1 4.50727e-05
10 *4957:X 0.000241776
11 *967:117 0.000712837
12 *967:91 0.000605816
13 *967:87 0.00102172
14 *967:68 0.00105024
15 *967:64 0.00282494
16 *967:41 0.00254444
17 *967:22 0.00127666
18 *967:10 0.000648852
19 *4228:B1 *970:58 0
20 *967:10 *4957:A 0.000244168
21 *967:68 *4229:B 0
22 *967:87 *970:58 0
23 *967:91 *970:58 0
24 rdata[25] *967:10 9.84673e-05
25 *4202:A1 *967:10 3.96104e-05
26 *4202:A2 *967:22 0.000122425
27 *4202:C1 *967:10 5.54817e-06
28 *4202:C1 *967:22 0.000148889
29 *4220:A1 *4220:B1 0.000356582
30 *4220:A1 *4224:B1 0.000225609
31 *4220:A2 *4220:B1 0.000435496
32 *4220:A2 *4224:B1 0.000214052
33 *4220:B2 *4220:B1 5.65955e-05
34 *4220:C1 *4220:B1 5.65955e-05
35 *4224:A2 *4224:B1 9.24395e-05
36 *4225:A *4234:B1 6.42095e-05
37 *4225:A *967:87 5.52238e-05
38 *4226:B2 *4226:B1 5.71472e-05
39 *4226:C1 *4226:B1 2.8266e-06
40 *4226:C1 *967:91 0.000519102
41 *4228:A2 *4228:B1 0.000441437
42 *4229:A *967:64 0.000139767
43 *4229:A *967:68 1.31516e-05
44 *4230:A2 *4230:B1 0.000880677
45 *4232:A2 *4232:B1 5.46383e-06
46 *4232:A2 *967:64 0.00168681
47 *4232:B2 *967:64 9.84673e-05
48 *4232:C1 *4232:B1 5.46383e-06
49 *4232:C1 *967:41 4.49191e-05
50 *4232:C1 *967:64 8.10737e-06
51 *4234:A1 *967:68 0.000125731
52 *4863:D *967:91 0
53 *4866:CLK *4226:B1 5.52302e-05
54 *4867:CLK *4228:B1 0
55 *4868:CLK *4230:B1 0
56 *4869:D *967:64 0.000623433
57 *4870:D *967:87 9.51375e-05
58 *4872:CLK *967:41 5.50052e-05
59 *4872:D *967:41 0.00010272
60 *4949:A *967:22 9.84673e-05
61 *5013:A *967:41 0.000118348
62 *5019:A *967:22 7.74135e-05
63 *5022:A *967:87 6.05161e-06
64 *181:71 *967:68 0.000986214
65 *181:79 *967:64 0.000431198
66 *200:16 *967:22 1.12578e-05
67 *777:62 *967:91 0
68 *777:117 *4234:B1 0.0001399
69 *777:117 *967:87 0.000104974
70 *809:14 *967:87 0
71 *837:91 *4226:B1 1.09595e-05
72 *837:91 *4228:B1 0.00016106
73 *837:93 *4224:B1 1.08359e-05
74 *837:93 *4226:B1 2.8266e-06
75 *846:23 *4220:B1 0.000103242
76 *846:25 *4224:B1 0
77 *846:25 *967:91 5.33614e-05
78 *848:44 *967:22 0.000108037
79 *942:8 *967:64 8.32875e-05
*RES
1 *4957:X *967:10 19.1214 
2 *967:10 *967:22 15.5357 
3 *967:22 *4238:B1 14.5321 
4 *967:22 *967:41 20.375 
5 *967:41 *4232:B1 9.72857 
6 *967:41 *967:64 49.8571 
7 *967:64 *967:68 17.375 
8 *967:68 *4234:B1 10.6571 
9 *967:68 *967:87 14.9911 
10 *967:87 *967:91 12.3661 
11 *967:91 *4220:B1 14.9071 
12 *967:91 *4224:B1 23.0321 
13 *967:87 *967:117 1.76786 
14 *967:117 *4226:B1 14.9161 
15 *967:117 *4228:B1 26.2375 
16 *967:64 *4230:B1 32.175 
17 *967:10 *4202:B1 13.8 
*END

*D_NET *968 0.0365155
*CONN
*I *4242:B1 I *D sky130_fd_sc_hd__o221a_1
*I *4957:A I *D sky130_fd_sc_hd__buf_2
*I *4956:A I *D sky130_fd_sc_hd__clkbuf_4
*I *4240:B1 I *D sky130_fd_sc_hd__o221a_1
*I *4200:B2 I *D sky130_fd_sc_hd__o221a_1
*I *4244:B1 I *D sky130_fd_sc_hd__o221a_1
*I *4246:B1 I *D sky130_fd_sc_hd__o221a_1
*I *4248:B1 I *D sky130_fd_sc_hd__o221a_1
*I *4958:X O *D sky130_fd_sc_hd__clkbuf_4
*CAP
1 *4242:B1 9.85767e-05
2 *4957:A 0.000605117
3 *4956:A 2.03441e-05
4 *4240:B1 3.2636e-05
5 *4200:B2 0
6 *4244:B1 0
7 *4246:B1 0
8 *4248:B1 4.40887e-05
9 *4958:X 0.000144977
10 *968:113 0.00316731
11 *968:107 0.00429391
12 *968:97 0.00332587
13 *968:95 0.003493
14 *968:80 0.00122955
15 *968:70 0.000741469
16 *968:61 0.000781887
17 *968:44 0.00159799
18 *968:23 0.00182588
19 *968:10 0.0010439
20 *4240:B1 *970:125 0
21 *968:44 *4831:C1 3.34366e-05
22 *968:44 *972:144 0
23 *968:80 *970:108 0.000186049
24 *968:80 *970:125 1.15281e-05
25 *968:95 *4237:B 0.000575092
26 *968:95 *970:125 0.000535194
27 rdata[8] *4957:A 2.70164e-05
28 *4200:A1 *968:61 0.000132547
29 *4200:A1 *968:70 5.89557e-05
30 *4200:A2 *968:61 4.2932e-05
31 *4200:A2 *968:70 0.000567116
32 *4200:C1 *968:70 5.66971e-05
33 *4202:C1 *4957:A 0.000120953
34 *4208:A2 *968:113 0.000482584
35 *4211:A *968:113 1.74352e-05
36 *4235:A *968:95 4.70078e-05
37 *4238:B2 *4957:A 0.000318891
38 *4240:A1 *4240:B1 0
39 *4240:A1 *968:80 0.000151356
40 *4242:B2 *4242:B1 0.000197385
41 *4242:B2 *968:80 0.000372406
42 *4244:A2 *968:44 0.000168447
43 *4245:A *968:44 0
44 *4246:A1 *968:44 0.000144773
45 *4246:C1 *968:23 0.00184861
46 *4248:A1 *4248:B1 2.89016e-05
47 *4248:A1 *968:23 1.98839e-05
48 *4248:A2 *4248:B1 1.97695e-05
49 *4248:B2 *968:10 1.99099e-05
50 *4544:A2 *968:97 0.000103267
51 *4577:A *968:107 0.000173083
52 *4581:A *968:107 0.00017379
53 *4583:B *968:107 0
54 *4584:A2 *968:97 4.75911e-05
55 *4584:A2 *968:107 4.25921e-05
56 *4585:A1 *968:107 7.33017e-05
57 *4585:B1 *968:107 0
58 *4614:A2 *968:107 0.000205171
59 *4647:A1 *968:107 0.000270943
60 *4647:A1 *968:113 0.000227539
61 *4648:B1 *968:107 0
62 *4649:C1 *968:107 9.54412e-05
63 *4656:B1 *968:113 0.000183726
64 *4681:A *968:113 7.28784e-05
65 *4706:A_N *968:113 0.000266479
66 *4709:B1 *968:113 9.60939e-05
67 *4794:A *968:97 0.000145753
68 *4795:A1 *968:97 5.29818e-05
69 *4805:C *968:97 0.000195194
70 *4807:A4 *968:97 0.000128146
71 *4899:D *968:113 0.00017088
72 *5010:A *968:70 0.000138432
73 *5019:A *4957:A 0.000102507
74 *5025:A *968:44 0.000186662
75 *5086:A *4957:A 0.000149653
76 *5097:A *968:10 0.00017461
77 *199:10 *968:10 0.000118352
78 *200:16 *4957:A 1.55327e-05
79 *200:16 *968:97 0.000754027
80 *462:19 *968:97 0.000147356
81 *496:12 *968:107 0.000128154
82 *499:30 *968:97 0
83 *531:21 *968:107 8.07951e-05
84 *535:12 *968:107 0
85 *537:8 *968:107 3.97543e-05
86 *540:12 *968:107 0.000195912
87 *567:19 *968:107 0
88 *568:27 *968:107 0
89 *602:10 *968:113 0.000106817
90 *735:8 *968:97 0.000120708
91 *772:94 *968:97 0
92 *801:8 *968:113 3.92691e-05
93 *801:10 *968:113 0.000314733
94 *801:12 *968:113 9.76689e-05
95 *814:8 *968:97 0.000340578
96 *814:10 *968:97 0.000239852
97 *814:12 *968:97 4.66203e-05
98 *814:62 *968:97 4.75812e-05
99 *827:14 *968:97 0
100 *827:22 *968:97 0
101 *836:46 *968:97 0
102 *837:85 *4957:A 0
103 *837:85 *968:97 0
104 *838:8 *4956:A 5.7661e-06
105 *838:8 *968:113 0.000272603
106 *838:42 *968:113 4.88637e-05
107 *838:124 *968:80 6.8646e-06
108 *839:114 *968:23 2.95641e-05
109 *839:114 *968:44 5.62995e-05
110 *843:131 *968:10 3.34366e-05
111 *844:81 *968:44 0.000570531
112 *849:12 *968:80 0
113 *849:76 *968:113 0.000305633
114 *967:10 *4957:A 0.000244168
*RES
1 *4958:X *968:10 22.9786 
2 *968:10 *4248:B1 10.2643 
3 *968:10 *968:23 19.0357 
4 *968:23 *4246:B1 9.3 
5 *968:23 *968:44 30.2679 
6 *968:44 *4244:B1 9.3 
7 *968:44 *968:61 11.9286 
8 *968:61 *4200:B2 9.3 
9 *968:61 *968:70 9.96429 
10 *968:70 *968:80 14.4821 
11 *968:80 *4240:B1 10.0321 
12 *968:80 *968:95 18.3214 
13 *968:95 *968:97 51.2768 
14 *968:97 *968:107 32.3839 
15 *968:107 *968:113 49.9643 
16 *968:113 *4956:A 9.72857 
17 *968:95 *4957:A 27.8536 
18 *968:70 *4242:B1 16.3536 
*END

*D_NET *969 0.000955565
*CONN
*I *4150:A I *D sky130_fd_sc_hd__or4_1
*I *5063:X O *D sky130_fd_sc_hd__clkbuf_1
*CAP
1 *4150:A 0.000322669
2 *5063:X 0.000322669
3 *4150:A *4150:C 1.99099e-05
4 *4150:B *4150:A 2.00751e-05
5 *166:12 *4150:A 0.000270243
*RES
1 *5063:X *4150:A 33.7429 
*END

*D_NET *970 0.0254514
*CONN
*I *4241:B I *D sky130_fd_sc_hd__and2_1
*I *4237:B I *D sky130_fd_sc_hd__and2_1
*I *4235:B I *D sky130_fd_sc_hd__and2_1
*I *4239:B I *D sky130_fd_sc_hd__and2_1
*I *4201:B I *D sky130_fd_sc_hd__and2_1
*I *4225:B I *D sky130_fd_sc_hd__and2_1
*I *4227:B I *D sky130_fd_sc_hd__and2_1
*I *4229:B I *D sky130_fd_sc_hd__and2_1
*I *4219:B I *D sky130_fd_sc_hd__and2_1
*I *4198:B I *D sky130_fd_sc_hd__and2_1
*I *4959:X O *D sky130_fd_sc_hd__buf_2
*CAP
1 *4241:B 0
2 *4237:B 9.50248e-05
3 *4235:B 0
4 *4239:B 0.000183076
5 *4201:B 0
6 *4225:B 0
7 *4227:B 0.00012479
8 *4229:B 0.000286756
9 *4219:B 2.23854e-05
10 *4198:B 0.000101271
11 *4959:X 0
12 *970:125 0.000434731
13 *970:108 0.000924397
14 *970:100 0.00122196
15 *970:58 0.000982113
16 *970:52 0.00124585
17 *970:33 0.00287661
18 *970:27 0.00320422
19 *970:19 0.00195814
20 *970:4 0.000213795
21 *4198:B *4959:A 1.66277e-05
22 *970:27 *1002:28 0.000647747
23 *970:27 *1002:30 0.000423124
24 *4198:A *4198:B 0.000188586
25 *4198:A *970:19 1.39726e-05
26 *4201:A *970:33 0.000123295
27 *4220:B2 *970:52 7.77751e-05
28 *4220:C1 *4219:B 0
29 *4223:B *970:52 0.000351008
30 *4225:A *970:52 0.000141183
31 *4225:A *970:58 0
32 *4227:A *4229:B 9.27592e-05
33 *4228:B1 *970:58 0
34 *4230:A2 *4229:B 2.89114e-05
35 *4234:A1 *970:58 0
36 *4235:A *4237:B 0.000498034
37 *4235:A *970:125 0.00010096
38 *4240:A1 *970:108 2.44318e-05
39 *4240:A1 *970:125 1.21258e-05
40 *4240:A2 *970:108 3.48001e-05
41 *4240:A2 *970:125 6.05161e-06
42 *4240:B1 *970:125 0
43 *4240:B2 *4239:B 0.000295844
44 *4241:A *970:100 0.000277524
45 *4242:B2 *970:108 9.93135e-05
46 *4746:A *970:33 5.33005e-05
47 *4750:A2 *970:33 0.000444673
48 *4755:A *970:33 0.000144773
49 *4800:B *970:27 0.000128161
50 *4805:D *970:27 0.000225609
51 *4814:B *4239:B 4.1331e-06
52 *4815:A2 *970:100 5.10822e-05
53 *4820:A2 *970:19 9.25014e-06
54 *4820:A2 *970:100 0.000400048
55 *4866:CLK *970:52 1.21289e-05
56 *4866:CLK *970:58 5.49544e-05
57 *4960:A *970:19 2.92136e-05
58 *5022:A *970:58 0
59 *181:60 *970:52 0.000177307
60 *183:53 *970:19 3.06366e-05
61 *183:53 *970:100 9.24491e-05
62 *198:10 *970:19 3.74936e-05
63 *198:10 *970:100 0.000183587
64 *754:12 *970:100 6.20855e-06
65 *772:94 *970:27 0.000422171
66 *772:94 *970:33 1.76135e-05
67 *805:42 *970:33 0.000597113
68 *805:53 *970:33 4.88637e-05
69 *807:27 *970:33 0.00174729
70 *817:12 *970:100 0.000527792
71 *827:8 *970:33 0.000230482
72 *827:14 *970:33 3.34295e-05
73 *832:89 *970:27 0.000325377
74 *838:124 *4239:B 0
75 *847:70 *970:33 1.98839e-05
76 *847:147 *4229:B 5.52302e-05
77 *849:12 *970:100 0
78 *961:23 *970:27 0.000247771
79 *961:50 *970:100 0.000456341
80 *966:104 *970:27 0
81 *967:68 *4229:B 0
82 *967:87 *970:58 0
83 *967:91 *970:58 0
84 *968:80 *970:108 0.000186049
85 *968:80 *970:125 1.15281e-05
86 *968:95 *4237:B 0.000575092
87 *968:95 *970:125 0.000535194
*RES
1 *4959:X *970:4 9.3 
2 *970:4 *4198:B 11.8 
3 *970:4 *970:19 6.67857 
4 *970:19 *970:27 37.8571 
5 *970:27 *970:33 48.875 
6 *970:33 *4219:B 9.72857 
7 *970:33 *970:52 22.3393 
8 *970:52 *970:58 14.875 
9 *970:58 *4229:B 19.8536 
10 *970:58 *4227:B 15.5679 
11 *970:52 *4225:B 9.3 
12 *970:27 *4201:B 13.8 
13 *970:19 *970:100 27.4464 
14 *970:100 *970:108 8.5 
15 *970:108 *4239:B 22.675 
16 *970:108 *970:125 8.375 
17 *970:125 *4235:B 9.3 
18 *970:125 *4237:B 14.7643 
19 *970:100 *4241:B 9.3 
*END

*D_NET *971 0.0227952
*CONN
*I *4221:B I *D sky130_fd_sc_hd__and2_1
*I *4215:B I *D sky130_fd_sc_hd__and2_1
*I *4205:B I *D sky130_fd_sc_hd__and2_1
*I *4213:B I *D sky130_fd_sc_hd__and2_1
*I *4207:B I *D sky130_fd_sc_hd__and2_1
*I *4211:B I *D sky130_fd_sc_hd__and2_1
*I *4209:B I *D sky130_fd_sc_hd__and2_1
*I *4217:B I *D sky130_fd_sc_hd__and2_1
*I *4203:B I *D sky130_fd_sc_hd__and2_1
*I *4959:A I *D sky130_fd_sc_hd__buf_2
*I *4960:X O *D sky130_fd_sc_hd__buf_2
*CAP
1 *4221:B 0.000343407
2 *4215:B 4.97125e-05
3 *4205:B 7.23508e-05
4 *4213:B 7.67921e-05
5 *4207:B 0.000373227
6 *4211:B 0
7 *4209:B 0.000261429
8 *4217:B 0
9 *4203:B 0.000282721
10 *4959:A 9.92514e-05
11 *4960:X 0
12 *971:91 0.000670648
13 *971:89 0.00094891
14 *971:87 0.000513562
15 *971:83 0.000631773
16 *971:81 0.000800103
17 *971:70 0.000916838
18 *971:62 0.00241861
19 *971:41 0.00299934
20 *971:37 0.00344473
21 *971:4 0.00244699
22 *4203:B *1012:51 3.70128e-05
23 *4198:A *4959:A 8.07313e-05
24 *4198:A *971:37 4.35452e-05
25 *4198:B *4959:A 1.66277e-05
26 *4204:A1 *971:70 4.48206e-05
27 *4204:B1 *971:70 0.000150625
28 *4206:C1 *971:87 0
29 *4208:A1 *4207:B 0.000216257
30 *4208:B2 *4207:B 0.000216862
31 *4210:A2 *4209:B 6.26653e-05
32 *4210:A2 *971:91 1.19309e-05
33 *4210:B2 *4209:B 0.000143652
34 *4210:C1 *4209:B 5.58983e-05
35 *4213:A *971:87 0.000148903
36 *4213:A *971:89 3.34295e-05
37 *4215:A *4215:B 6.05161e-06
38 *4217:A *971:70 9.87672e-05
39 *4218:B2 *971:81 0.000142152
40 *4221:A *4221:B 0.000100261
41 *4233:A *971:41 7.80929e-05
42 *4713:A2 *971:87 0
43 *4736:A1 *971:62 4.14279e-05
44 *4736:A2 *971:41 2.21972e-05
45 *4737:B1 *971:62 9.90431e-05
46 *4738:C1 *971:41 0
47 *4740:B *971:62 0.000210801
48 *4751:B *971:41 4.46186e-06
49 *4752:A *4203:B 0
50 *4752:A *971:41 0
51 *4784:A *971:37 0.000116209
52 *4785:A1 *971:37 0.000137273
53 *4785:A2 *971:37 6.12754e-05
54 *4802:B *971:37 8.02593e-05
55 *4804:A1 *971:37 0.00042642
56 *4804:B1 *971:37 3.48705e-05
57 *4855:CLK *971:70 0
58 *4903:CLK *971:41 0
59 *4936:A *971:37 2.89016e-05
60 *4941:A *4207:B 6.62783e-05
61 *4941:A *971:89 0
62 *4941:A *971:91 0
63 *4952:A *971:37 0.000656833
64 *4995:A *4203:B 0
65 *5026:A *971:91 0
66 *5041:A *971:81 6.92093e-05
67 *5041:A *971:83 2.93304e-05
68 *5071:A *971:91 0
69 *181:56 *4207:B 0.000233494
70 *181:60 *971:70 0.000157578
71 *671:27 *4203:B 0
72 *684:8 *971:41 0
73 *685:12 *971:62 0.00031119
74 *689:8 *971:62 1.40306e-05
75 *725:6 *971:37 0.000143625
76 *725:14 *971:37 3.18676e-05
77 *777:12 *4221:B 5.52302e-05
78 *777:12 *971:62 0.000227532
79 *777:23 *971:70 0
80 *780:12 *971:37 2.39148e-05
81 *780:12 *971:41 0
82 *798:59 *971:83 0
83 *798:59 *971:87 0
84 *813:8 *971:41 5.33882e-05
85 *813:62 *971:41 2.72545e-05
86 *832:61 *971:37 2.65105e-05
87 *833:17 *971:37 1.0562e-05
88 *833:46 *971:37 2.77289e-05
89 *838:118 *4203:B 5.52302e-05
90 *846:33 *971:81 0
91 *846:33 *971:83 0
92 *846:41 *4215:B 0.000133361
93 *849:102 *4213:B 0.000139208
*RES
1 *4960:X *971:4 9.3 
2 *971:4 *4959:A 11.5143 
3 *971:4 *971:37 46.1429 
4 *971:37 *971:41 24.3571 
5 *971:41 *4203:B 18.8357 
6 *971:41 *971:62 32.2857 
7 *971:62 *971:70 18.1786 
8 *971:70 *4217:B 9.3 
9 *971:70 *971:81 13.4821 
10 *971:81 *971:83 5.13393 
11 *971:83 *971:87 5.36607 
12 *971:87 *971:89 3.16071 
13 *971:89 *971:91 7.10714 
14 *971:91 *4209:B 18.9518 
15 *971:91 *4211:B 13.8 
16 *971:89 *4207:B 24.1929 
17 *971:87 *4213:B 15.5857 
18 *971:83 *4205:B 15.1482 
19 *971:81 *4215:B 15.175 
20 *971:62 *4221:B 15.1929 
*END

*D_NET *972 0.0267699
*CONN
*I *4243:B I *D sky130_fd_sc_hd__and2_1
*I *4245:B I *D sky130_fd_sc_hd__and2_1
*I *4247:B I *D sky130_fd_sc_hd__and2_1
*I *4196:A2 I *D sky130_fd_sc_hd__a211o_1
*I *4193:A2 I *D sky130_fd_sc_hd__a211o_1
*I *4190:A2 I *D sky130_fd_sc_hd__a211o_1
*I *4186:B1 I *D sky130_fd_sc_hd__a22o_1
*I *4177:B1 I *D sky130_fd_sc_hd__a22o_1
*I *4181:A2 I *D sky130_fd_sc_hd__a211o_1
*I *4184:A2 I *D sky130_fd_sc_hd__a211o_1
*I *4961:X O *D sky130_fd_sc_hd__clkbuf_4
*CAP
1 *4243:B 0.000872583
2 *4245:B 0
3 *4247:B 0
4 *4196:A2 4.16731e-05
5 *4193:A2 0.000473357
6 *4190:A2 0
7 *4186:B1 0.00024135
8 *4177:B1 0.000638124
9 *4181:A2 0
10 *4184:A2 0.000229789
11 *4961:X 0
12 *972:144 0.00230791
13 *972:131 0.00246298
14 *972:116 0.00151554
15 *972:99 0.00131032
16 *972:51 0.00118574
17 *972:32 0.00202973
18 *972:16 0.00229085
19 *972:10 0.00101703
20 *972:4 0.000610599
21 *4177:B1 *4177:A2 5.77518e-06
22 *4177:B1 *974:24 9.35053e-05
23 *4177:B1 *974:26 0.000145753
24 *4184:A2 *4183:A2 0
25 *4186:B1 *4186:A1 2.07462e-05
26 *4186:B1 *5067:A 3.18872e-05
27 *4186:B1 *973:10 9.71197e-05
28 *4186:B1 *974:14 2.93215e-05
29 *4186:B1 *1001:40 0.000141729
30 *972:32 *4271:A 7.46294e-06
31 *972:32 *974:14 0
32 *972:32 *986:48 1.28585e-05
33 *972:32 *1001:40 5.12625e-05
34 *972:51 *986:48 0.000315205
35 *972:51 *1010:52 0
36 *972:116 *1002:54 0.000101601
37 *972:116 *1010:131 2.42095e-05
38 *972:144 *4831:C1 0
39 *4181:A1 *972:51 0.000529507
40 *4181:B1 *4177:B1 0.000153385
41 *4182:B1 *4177:B1 0
42 *4184:A1 *4184:A2 4.22908e-05
43 *4184:B1 *4184:A2 4.87953e-05
44 *4185:B1 *4184:A2 0
45 *4186:A2 *4186:B1 0
46 *4186:B2 *4186:B1 3.49484e-05
47 *4190:A1 *4193:A2 2.47697e-05
48 *4190:A1 *972:10 0.000398974
49 *4190:A1 *972:99 0.000261246
50 *4190:C1 *972:99 3.14078e-05
51 *4190:C1 *972:116 4.70078e-05
52 *4191:B1 *972:16 0.000103004
53 *4196:C1 *972:116 0.000123902
54 *4197:B1 *4196:A2 9.25014e-06
55 *4197:B1 *972:131 0.00030945
56 *4245:A *972:144 5.80706e-06
57 *4247:A *972:144 0.00119436
58 *4248:B2 *972:131 5.62995e-05
59 *4278:A2 *972:51 0
60 *4312:B *972:16 0.00017379
61 *4336:A *4193:A2 0.000177941
62 *4337:A1 *4193:A2 0
63 *4916:CLK *4243:B 0.000739579
64 *4986:A *972:16 0
65 *4986:A *972:32 0.000638987
66 *4994:A *972:16 0.000148196
67 *5025:A *972:144 0
68 *180:22 *972:32 0.000250201
69 *180:44 *4177:B1 4.51198e-05
70 *182:39 *4177:B1 0.000310665
71 *182:53 *4184:A2 1.05524e-05
72 *182:53 *972:32 0
73 *182:53 *972:51 0
74 *182:68 *972:32 0
75 *182:91 *4193:A2 0.000281854
76 *183:18 *972:10 1.21289e-05
77 *183:18 *972:16 0.000358977
78 *194:12 *4193:A2 5.80706e-06
79 *196:14 *972:116 1.58163e-05
80 *199:10 *4196:A2 0
81 *237:12 *972:32 0.0003797
82 *775:14 *972:16 0.000206307
83 *776:71 *972:131 0.000468708
84 *822:10 *972:16 0.000265356
85 *823:40 *972:131 2.1527e-05
86 *825:12 *4196:A2 7.98104e-05
87 *825:12 *972:131 0.000181297
88 *839:81 *972:16 9.3616e-05
89 *839:110 *972:131 5.16537e-05
90 *841:18 *972:51 1.87955e-05
91 *841:22 *972:51 0.000143831
92 *841:37 *972:51 9.25014e-06
93 *843:42 *972:16 0
94 *844:20 *972:16 0
95 *844:20 *972:32 0
96 *968:44 *972:144 0
*RES
1 *4961:X *972:4 9.3 
2 *972:4 *972:10 4.98214 
3 *972:10 *972:16 25.6429 
4 *972:16 *972:32 32.4911 
5 *972:32 *4184:A2 18.0411 
6 *972:32 *972:51 18.7411 
7 *972:51 *4181:A2 9.3 
8 *972:51 *4177:B1 29.7107 
9 *972:16 *4186:B1 27.4964 
10 *972:10 *4190:A2 9.3 
11 *972:4 *972:99 5.46429 
12 *972:99 *4193:A2 29.5857 
13 *972:99 *972:116 10.375 
14 *972:116 *4196:A2 14.8357 
15 *972:116 *972:131 26.8929 
16 *972:131 *4247:B 9.3 
17 *972:131 *972:144 37.1071 
18 *972:144 *4245:B 9.3 
19 *972:144 *4243:B 21.1571 
*END

*D_NET *973 0.0118181
*CONN
*I *4189:A2 I *D sky130_fd_sc_hd__a22o_1
*I *4195:A2 I *D sky130_fd_sc_hd__a22o_1
*I *4199:A2 I *D sky130_fd_sc_hd__a221o_1
*I *4192:A2 I *D sky130_fd_sc_hd__a22o_1
*I *5067:X O *D sky130_fd_sc_hd__clkbuf_2
*CAP
1 *4189:A2 0
2 *4195:A2 3.04135e-05
3 *4199:A2 0.000743116
4 *4192:A2 0
5 *5067:X 0.000340472
6 *973:35 0.00087072
7 *973:24 0.00146173
8 *973:10 0.00170501
9 *4195:A2 *4973:A 5.33005e-05
10 *4199:A2 *988:55 0.000193833
11 *4199:A2 *988:83 0.000317602
12 *4199:A2 *988:102 2.24646e-05
13 *973:24 *4189:A1 2.24763e-05
14 *973:24 *4189:B2 0.000753287
15 *973:24 *4192:B2 0.000139913
16 *973:24 *979:12 1.19402e-05
17 *973:24 *986:78 0.000148196
18 *973:24 *987:41 0
19 *973:24 *987:52 0
20 *973:24 *1004:90 0
21 *973:35 *4192:B2 0.000136951
22 *973:35 *988:102 0.000176234
23 *4186:B1 *973:10 9.71197e-05
24 *4186:B2 *973:10 6.4443e-05
25 *4189:B1 *973:24 9.90431e-05
26 *4190:B1 *973:10 0.000101545
27 *4192:B1 *973:24 6.05161e-06
28 *4192:B1 *973:35 4.43256e-05
29 *4301:A1 *973:24 0.000101545
30 *4430:B1 *4199:A2 0
31 *4920:A *4199:A2 0.00040576
32 *5107:A *4199:A2 0.000116526
33 *194:12 *973:24 0.00143266
34 *249:29 *973:24 6.5185e-05
35 *258:10 *973:24 0.000339366
36 *259:10 *973:24 7.81658e-05
37 *262:12 *973:24 3.48139e-05
38 *263:16 *973:24 0
39 *274:10 *973:10 6.16864e-05
40 *274:10 *973:24 2.10446e-05
41 *386:25 *4199:A2 3.45894e-05
42 *387:23 *4199:A2 2.6949e-05
43 *388:10 *4199:A2 0
44 *772:48 *4199:A2 0.00112588
45 *772:48 *973:35 0.000164554
46 *775:14 *973:10 0.000190838
47 *781:33 *4199:A2 7.83659e-05
48 *859:29 *973:24 0
49 *865:10 *4199:A2 0
*RES
1 *5067:X *973:10 21.1036 
2 *973:10 *973:24 44.5179 
3 *973:24 *4192:A2 9.3 
4 *973:24 *973:35 8.10714 
5 *973:35 *4199:A2 34.5054 
6 *973:35 *4195:A2 14.3357 
7 *973:10 *4189:A2 13.8 
*END

*D_NET *974 0.0122661
*CONN
*I *5067:A I *D sky130_fd_sc_hd__clkbuf_2
*I *4183:A2 I *D sky130_fd_sc_hd__a22o_1
*I *4180:A2 I *D sky130_fd_sc_hd__a22o_1
*I *4177:A2 I *D sky130_fd_sc_hd__a22o_1
*I *4155:C I *D sky130_fd_sc_hd__and3_4
*I *5068:X O *D sky130_fd_sc_hd__clkbuf_2
*CAP
1 *5067:A 0.000131738
2 *4183:A2 0.000396994
3 *4180:A2 4.63741e-05
4 *4177:A2 8.89751e-05
5 *4155:C 0.000714581
6 *5068:X 0
7 *974:26 0.000888097
8 *974:24 0.000672322
9 *974:14 0.00182803
10 *974:4 0.00102137
11 *4155:C *4156:A0 0.000396427
12 *4155:C *986:48 0
13 *4183:A2 *4183:A1 1.00073e-05
14 *4183:A2 *986:57 1.98839e-05
15 *974:14 *1001:40 0
16 *974:14 *1010:22 0
17 *974:24 *986:48 0
18 *974:26 *986:48 0
19 *4156:A1 *4155:C 0.000175519
20 *4177:B1 *4177:A2 5.77518e-06
21 *4177:B1 *974:24 9.35053e-05
22 *4177:B1 *974:26 0.000145753
23 *4178:B1 *4177:A2 6.05916e-05
24 *4178:C1 *4177:A2 3.99614e-06
25 *4181:B1 *974:24 0.000125724
26 *4184:A2 *4183:A2 0
27 *4184:B1 *4183:A2 0
28 *4186:B1 *5067:A 3.18872e-05
29 *4186:B1 *974:14 2.93215e-05
30 *4186:B2 *5067:A 5.33005e-05
31 *4189:B1 *974:14 0.000104227
32 *4287:A *974:14 1.29456e-05
33 *4310:A1 *974:14 7.08227e-05
34 *4310:A2 *974:14 0.00011891
35 *4986:A *5067:A 0.000217546
36 *4986:A *974:14 0.000140719
37 *170:6 *4155:C 9.90367e-05
38 *170:98 *4155:C 0.000577404
39 *180:22 *974:14 0
40 *180:44 *4183:A2 0.00038557
41 *180:44 *974:14 2.24646e-05
42 *180:44 *974:24 0.00104089
43 *180:48 *4180:A2 9.58181e-05
44 *180:67 *4155:C 0.000738182
45 *180:67 *974:26 0.00017335
46 *255:10 *974:14 0.000657134
47 *255:10 *974:24 0.000748693
48 *784:17 *4155:C 0
49 *784:17 *974:24 0
50 *784:17 *974:26 0
51 *842:17 *4155:C 0.000122159
52 *972:32 *974:14 0
*RES
1 *5068:X *974:4 9.3 
2 *974:4 *974:14 23.6429 
3 *974:14 *974:24 17.8393 
4 *974:24 *974:26 2.70536 
5 *974:26 *4155:C 34.2554 
6 *974:26 *4177:A2 15.5768 
7 *974:24 *4180:A2 14.7464 
8 *974:14 *4183:A2 19.4786 
9 *974:4 *5067:A 21.425 
*END

*D_NET *975 0.0178903
*CONN
*I *4427:A I *D sky130_fd_sc_hd__and3_1
*I *4426:B1 I *D sky130_fd_sc_hd__a21oi_1
*I *4199:B2 I *D sky130_fd_sc_hd__a221o_1
*I *4689:A0 I *D sky130_fd_sc_hd__mux2_1
*I *4549:D I *D sky130_fd_sc_hd__and4b_1
*I *4591:D I *D sky130_fd_sc_hd__and4b_1
*I *4632:D I *D sky130_fd_sc_hd__and4b_1
*I *4145:A I *D sky130_fd_sc_hd__inv_2
*I *4663:D I *D sky130_fd_sc_hd__and4b_1
*I *4264:A0 I *D sky130_fd_sc_hd__mux2_1
*I *4962:X O *D sky130_fd_sc_hd__buf_6
*CAP
1 *4427:A 4.93487e-05
2 *4426:B1 0
3 *4199:B2 9.9732e-05
4 *4689:A0 0
5 *4549:D 0.000189839
6 *4591:D 2.72999e-05
7 *4632:D 4.35657e-05
8 *4145:A 0
9 *4663:D 0
10 *4264:A0 0
11 *4962:X 0
12 *975:124 0.000221323
13 *975:105 0.0017932
14 *975:74 0.000579256
15 *975:63 0.00056137
16 *975:52 0.000693933
17 *975:38 0.000599613
18 *975:31 0.00181253
19 *975:12 0.00199838
20 *975:6 0.00176871
21 *4199:B2 *979:12 0.00027338
22 *4427:A *993:57 9.60875e-05
23 *4549:D *976:122 0.000334667
24 *4591:D *4591:C 1.24368e-05
25 *4632:D *4632:B 1.21258e-05
26 *4632:D *4632:C 1.24368e-05
27 *975:31 *4262:A0 0.000223675
28 *975:31 *4663:A_N 0.00024238
29 *975:31 *4663:C 6.85089e-05
30 *975:38 *4662:A2_N 2.12647e-05
31 *975:38 *4663:A_N 0.000305692
32 *975:38 *4663:C 0.000290765
33 *975:52 *4663:A_N 0.00043801
34 *975:52 *976:51 2.30116e-06
35 *975:52 *977:23 3.20153e-05
36 *975:52 *994:94 1.99992e-05
37 *975:63 *976:74 0.000171375
38 *975:63 *976:87 3.34366e-05
39 *975:63 *994:80 6.98302e-05
40 *975:63 *994:94 0.000139826
41 *975:74 *976:87 0.000192585
42 *975:74 *976:98 0.000388132
43 *975:74 *976:109 0.000171375
44 *975:74 *976:122 3.34366e-05
45 *975:74 *994:80 0.000246057
46 *975:105 *979:12 0
47 *975:124 *4426:A2 5.52302e-05
48 *975:124 *993:57 8.46829e-05
49 *4170:A1 *975:12 0.000192494
50 *4170:A1 *975:105 0.000176096
51 *4199:B1 *4199:B2 1.28809e-05
52 *4263:A *975:12 3.11088e-05
53 *4263:A *975:31 0.000247171
54 *4263:B *975:31 7.74135e-05
55 *4593:B *975:74 0
56 *4662:B2 *975:52 0.000173797
57 *4843:CLK *975:105 0.000411109
58 *4884:CLK *975:31 3.69047e-06
59 *4884:D *975:31 0.00015971
60 *4928:A *4199:B2 0
61 *4928:A *975:105 0.000202328
62 *4966:A *975:105 0.000149904
63 *170:59 *975:105 0
64 *519:20 *4549:D 2.3541e-05
65 *549:12 *4549:D 0
66 *556:12 *4591:D 3.55505e-05
67 *614:10 *975:52 0
68 *617:10 *975:52 1.94945e-05
69 *774:10 *975:105 3.69697e-05
70 *774:12 *975:105 0.000321155
71 *796:23 *975:63 0.000135028
72 *796:25 *4549:D 0
73 *796:25 *975:74 0
74 *840:53 *975:105 0
75 *840:55 *975:105 0
76 *840:57 *975:105 0
77 *840:61 *975:12 0
78 *840:61 *975:105 0
79 *841:118 *975:105 0.000888056
80 *859:16 *4199:B2 0.00017309
81 *866:65 *975:105 3.80953e-06
82 *866:65 *975:124 6.13757e-06
*RES
1 *4962:X *975:6 13.8 
2 *975:6 *975:12 9.71429 
3 *975:12 *4264:A0 9.3 
4 *975:12 *975:31 33.9509 
5 *975:31 *4663:D 9.3 
6 *975:31 *975:38 3.29911 
7 *975:38 *975:52 20.0175 
8 *975:52 *4145:A 9.3 
9 *975:52 *975:63 8.41071 
10 *975:63 *4632:D 14.4473 
11 *975:63 *975:74 9.83929 
12 *975:74 *4591:D 14.4473 
13 *975:74 *4549:D 18.4116 
14 *975:38 *4689:A0 9.3 
15 *975:6 *975:105 41.1964 
16 *975:105 *4199:B2 21.8937 
17 *975:105 *975:124 2.73214 
18 *975:124 *4426:B1 9.3 
19 *975:124 *4427:A 10.2464 
*END

*D_NET *976 0.0147646
*CONN
*I *4506:A1_N I *D sky130_fd_sc_hd__o2bb2a_1
*I *4549:C I *D sky130_fd_sc_hd__and4b_1
*I *4591:C I *D sky130_fd_sc_hd__and4b_1
*I *4592:A1_N I *D sky130_fd_sc_hd__o2bb2a_1
*I *4631:A1_N I *D sky130_fd_sc_hd__o2bb2a_1
*I *4632:C I *D sky130_fd_sc_hd__and4b_1
*I *4662:A1_N I *D sky130_fd_sc_hd__o2bb2a_1
*I *4689:A1 I *D sky130_fd_sc_hd__mux2_1
*I *4663:C I *D sky130_fd_sc_hd__and4b_1
*I *4262:A0 I *D sky130_fd_sc_hd__mux2_1
*I *4963:X O *D sky130_fd_sc_hd__clkbuf_2
*CAP
1 *4506:A1_N 0.000518325
2 *4549:C 0
3 *4591:C 5.47291e-05
4 *4592:A1_N 8.70388e-06
5 *4631:A1_N 2.9969e-05
6 *4632:C 5.22464e-05
7 *4662:A1_N 0.000301942
8 *4689:A1 0
9 *4663:C 0.00022672
10 *4262:A0 0.000221345
11 *4963:X 0
12 *976:122 0.000659103
13 *976:109 0.000251462
14 *976:98 0.000175978
15 *976:87 0.000195573
16 *976:74 0.000242197
17 *976:51 0.000827882
18 *976:29 0.000321577
19 *976:23 0.0020331
20 *976:4 0.00176932
21 *4506:A1_N *4506:B1 0.000144285
22 *4506:A1_N *4507:B 8.23247e-06
23 *4506:A1_N *4512:B 0.000211913
24 *4506:A1_N *977:46 0
25 *4506:A1_N *998:84 0.000115474
26 *4506:A1_N *998:92 0.000220448
27 *4506:A1_N *1000:62 7.77751e-05
28 *4506:A1_N *1003:10 0
29 *4591:C *4591:B 6.05161e-06
30 *4592:A1_N *4592:A2_N 6.05161e-06
31 *4632:C *4632:B 2.59355e-05
32 *976:51 *994:94 7.89309e-05
33 *976:74 *994:94 0.000127664
34 *4263:A *4262:A0 9.75679e-05
35 *4549:D *976:122 0.000334667
36 *4591:D *4591:C 1.24368e-05
37 *4632:D *4632:C 1.24368e-05
38 *4662:B2 *4662:A1_N 9.60875e-05
39 *4662:B2 *976:74 0.000107875
40 *4664:A *976:51 9.84673e-05
41 *4664:B *976:29 1.46689e-05
42 *4688:A2 *976:51 6.49875e-05
43 *161:19 *976:74 0.000129868
44 *161:19 *976:87 0.000217478
45 *161:30 *976:87 9.25014e-06
46 *161:30 *976:98 0.000378882
47 *161:41 *4506:A1_N 0.000187012
48 *161:41 *976:98 9.25014e-06
49 *161:41 *976:109 0.00016384
50 *161:41 *976:122 0.000406926
51 *161:52 *4506:A1_N 0.000928453
52 *556:12 *4591:C 1.21258e-05
53 *580:18 *4631:A1_N 5.4633e-05
54 *587:10 *976:51 8.01123e-05
55 *587:10 *976:74 2.05938e-05
56 *617:10 *976:29 3.11713e-05
57 *617:31 *976:51 0.000358318
58 *618:6 *976:51 4.77002e-05
59 *619:10 *976:51 0.000102659
60 *642:18 *4662:A1_N 0.000198975
61 *906:10 *4262:A0 9.96553e-05
62 *975:31 *4262:A0 0.000223675
63 *975:31 *4663:C 6.85089e-05
64 *975:38 *4663:C 0.000290765
65 *975:52 *976:51 2.30116e-06
66 *975:63 *976:74 0.000171375
67 *975:63 *976:87 3.34366e-05
68 *975:74 *976:87 0.000192585
69 *975:74 *976:98 0.000388132
70 *975:74 *976:109 0.000171375
71 *975:74 *976:122 3.34366e-05
*RES
1 *4963:X *976:4 9.3 
2 *976:4 *4262:A0 23.4786 
3 *976:4 *976:23 18.625 
4 *976:23 *976:29 10.3393 
5 *976:29 *4663:C 12.7107 
6 *976:29 *4689:A1 9.3 
7 *976:23 *976:51 14.9107 
8 *976:51 *4662:A1_N 18.6348 
9 *976:51 *976:74 4.73214 
10 *976:74 *4632:C 14.7643 
11 *976:74 *976:87 2.85714 
12 *976:87 *4631:A1_N 14.3491 
13 *976:87 *976:98 4.98214 
14 *976:98 *4592:A1_N 13.9384 
15 *976:98 *976:109 2.25 
16 *976:109 *4591:C 14.7643 
17 *976:109 *976:122 5.28571 
18 *976:122 *4549:C 13.8 
19 *976:122 *4506:A1_N 29.5634 
*END

*D_NET *977 0.02522
*CONN
*I *4507:C I *D sky130_fd_sc_hd__and4b_1
*I *4461:C I *D sky130_fd_sc_hd__and4b_1
*I *4460:A1_N I *D sky130_fd_sc_hd__o2bb2a_1
*I *4372:B1 I *D sky130_fd_sc_hd__o211a_1
*I *4373:A1 I *D sky130_fd_sc_hd__a211oi_1
*I *4195:B2 I *D sky130_fd_sc_hd__a22o_1
*I *4414:A I *D sky130_fd_sc_hd__and4_1
*I *4416:B2 I *D sky130_fd_sc_hd__a22o_1
*I *4548:A1_N I *D sky130_fd_sc_hd__o2bb2a_1
*I *4963:A I *D sky130_fd_sc_hd__clkbuf_2
*I *4964:X O *D sky130_fd_sc_hd__buf_2
*CAP
1 *4507:C 3.18316e-05
2 *4461:C 7.18765e-05
3 *4460:A1_N 0
4 *4372:B1 0.000267881
5 *4373:A1 0
6 *4195:B2 0
7 *4414:A 0
8 *4416:B2 0
9 *4548:A1_N 0
10 *4963:A 0.000234321
11 *4964:X 4.42861e-05
12 *977:117 0.00105377
13 *977:106 0.00132426
14 *977:92 0.00224622
15 *977:83 0.0003537
16 *977:68 0.000734017
17 *977:54 0.000535984
18 *977:52 0.000475009
19 *977:46 0.00117194
20 *977:31 0.000940932
21 *977:23 0.00250328
22 *977:6 0.00259753
23 *4372:B1 *4372:C1 0.000148435
24 *4461:C *4461:A_N 0.00012747
25 *4461:C *4461:B 0.000268403
26 *4507:C *4507:B 5.52302e-05
27 *977:23 *4548:B1 0.00019384
28 *977:23 *4631:B1 0.000438927
29 *977:23 *978:49 8.56716e-05
30 *977:23 *978:96 2.82057e-05
31 *977:23 *994:63 0
32 *977:23 *996:100 0.000570759
33 *977:23 *996:102 6.98302e-05
34 *977:23 *997:136 0.000106299
35 *977:31 *4548:B1 2.89114e-05
36 *977:46 *4512:B 0
37 *977:46 *998:84 0
38 *977:46 *998:92 0
39 *977:46 *1003:10 5.84267e-05
40 *977:52 *1003:10 5.83233e-05
41 *977:52 *1003:30 0.000577594
42 *977:54 *4461:A_N 5.55213e-05
43 *977:54 *4461:B 6.79902e-05
44 *977:68 *4461:A_N 0.000172005
45 *977:68 *4461:B 4.05662e-05
46 *977:68 *979:61 0.000173097
47 *977:68 *1003:30 0
48 *977:68 *1003:45 0.00018202
49 *977:68 *1006:14 0
50 *977:83 *979:61 1.02504e-05
51 *977:83 *1003:73 1.5942e-05
52 *977:83 *1006:45 0.000236638
53 *977:83 *1008:14 0.000128154
54 *977:92 *1006:59 0.000412318
55 *977:92 *1008:14 0.000211336
56 *977:106 *4384:B1 9.51102e-05
57 *977:106 *979:12 0.000177234
58 *977:106 *997:55 0.00027246
59 *977:106 *1003:73 0.000160571
60 *977:117 *4372:C1 5.52302e-05
61 *977:117 *979:106 0
62 *977:117 *1006:59 0.000191403
63 *977:117 *1008:14 0.00022751
64 *977:117 *1008:31 3.2006e-05
65 *4168:A1 *4963:A 0
66 *4343:A *977:117 5.59013e-05
67 *4343:B *977:117 0
68 *4344:A *977:117 1.02504e-05
69 *4344:B *977:117 0
70 *4372:A2 *4372:B1 2.78584e-05
71 *4374:B *4372:B1 0.00014285
72 *4379:A_N *977:106 9.90431e-05
73 *4380:B *977:117 6.09476e-05
74 *4418:B1 *977:52 5.41794e-05
75 *4418:B1 *977:68 0
76 *4461:D *4461:C 0.000142856
77 *4462:A *977:68 0
78 *4506:A1_N *977:46 0
79 *4508:A *4507:C 8.46741e-05
80 *4548:B2 *977:31 9.90367e-05
81 *4550:A *977:31 9.7049e-06
82 *4550:A *977:46 0.000111383
83 *4550:B *977:46 3.34366e-05
84 *4660:B1 *977:23 0
85 *4662:B2 *977:23 0
86 *4844:CLK *4963:A 0
87 *4884:D *4963:A 2.90501e-05
88 *4964:A *977:23 0.000176196
89 *4990:A *977:68 2.11419e-05
90 *4992:A *977:68 6.86792e-05
91 *161:19 *977:23 0
92 *161:41 *977:23 0
93 *161:52 *977:23 0
94 *301:19 *977:117 0.000207134
95 *304:14 *977:117 0
96 *348:12 *977:106 0.000360894
97 *351:18 *977:106 0.00140659
98 *393:14 *977:106 0.000137983
99 *441:10 *977:68 0
100 *441:10 *977:83 0
101 *442:6 *977:68 0.000161868
102 *511:12 *977:46 0
103 *511:16 *977:46 6.57815e-05
104 *614:10 *977:23 0.000224647
105 *796:23 *977:6 1.40306e-05
106 *796:23 *977:23 0.000551769
107 *796:25 *977:46 0.00033407
108 *796:36 *977:52 0
109 *859:29 *977:106 0.000175526
110 *975:52 *977:23 3.20153e-05
*RES
1 *4964:X *977:6 9.83571 
2 *977:6 *4963:A 22.0679 
3 *977:6 *977:23 47.1607 
4 *977:23 *977:31 7.65625 
5 *977:31 *4548:A1_N 9.3 
6 *977:31 *977:46 20.0045 
7 *977:46 *977:52 13.0536 
8 *977:52 *977:54 0.683036 
9 *977:54 *977:68 25.3527 
10 *977:68 *4416:B2 13.8 
11 *977:68 *977:83 6.17857 
12 *977:83 *4414:A 13.8 
13 *977:83 *977:92 5.28571 
14 *977:92 *977:106 45.5893 
15 *977:106 *4195:B2 9.3 
16 *977:92 *977:117 20.375 
17 *977:117 *4373:A1 9.3 
18 *977:117 *4372:B1 13.4429 
19 *977:54 *4460:A1_N 9.3 
20 *977:52 *4461:C 12.3 
21 *977:46 *4507:C 14.7464 
*END

*D_NET *978 0.015952
*CONN
*I *4260:A0 I *D sky130_fd_sc_hd__mux2_1
*I *4561:A1 I *D sky130_fd_sc_hd__a22o_1
*I *4512:A I *D sky130_fd_sc_hd__nand2_1
*I *4467:A I *D sky130_fd_sc_hd__nand2_1
*I *4630:A1 I *D sky130_fd_sc_hd__a31o_1
*I *4625:A1 I *D sky130_fd_sc_hd__a21oi_2
*I *4624:A1 I *D sky130_fd_sc_hd__a22oi_1
*I *4660:A1 I *D sky130_fd_sc_hd__a21oi_2
*I *4599:A I *D sky130_fd_sc_hd__nand2_1
*I *4560:A I *D sky130_fd_sc_hd__nand4_1
*I *4965:X O *D sky130_fd_sc_hd__buf_2
*CAP
1 *4260:A0 0
2 *4561:A1 0
3 *4512:A 9.70956e-05
4 *4467:A 0.000554804
5 *4630:A1 0
6 *4625:A1 0
7 *4624:A1 0.000173247
8 *4660:A1 8.3779e-05
9 *4599:A 8.61686e-05
10 *4560:A 0.000113306
11 *4965:X 0.00033678
12 *978:96 0.00097329
13 *978:73 0.000350298
14 *978:71 0.000177051
15 *978:60 0.000397191
16 *978:49 0.000805726
17 *978:43 0.00162607
18 *978:28 0.00137956
19 *978:20 0.00126685
20 *978:10 0.00123591
21 *4467:A *4467:B 0.00030128
22 *4467:A *979:42 0
23 *4560:A *996:49 4.62539e-05
24 *4624:A1 *4557:A 5.52302e-05
25 *4624:A1 *983:54 9.45504e-05
26 *4660:A1 *994:69 0.000125724
27 *978:10 *979:6 6.03385e-05
28 *978:10 *979:23 2.65105e-05
29 *978:10 *999:29 8.4624e-06
30 *978:20 *4556:A2 0.000175643
31 *978:20 *4561:A2 0
32 *978:20 *4981:A 2.28499e-05
33 *978:20 *996:6 4.35567e-05
34 *978:20 *996:19 0.000436967
35 *978:28 *981:98 0.000359997
36 *978:28 *994:43 0
37 *978:43 *4514:B2 7.96335e-05
38 *978:43 *981:98 0.000183726
39 *978:43 *981:122 0.000339751
40 *978:43 *996:81 0.000276211
41 *978:43 *996:100 0.00038945
42 *978:49 *4548:B1 0.000146474
43 *978:49 *994:63 0
44 *978:60 *983:60 0
45 *978:60 *994:63 0.000600511
46 *978:60 *994:69 9.25014e-06
47 *978:60 *1000:35 0
48 *978:73 *4557:A 0.000219064
49 *978:73 *4557:B 1.74352e-05
50 *978:73 *4557:C 9.50968e-06
51 *978:73 *983:54 6.97409e-05
52 *978:96 *4514:A1 0
53 *978:96 *4548:B1 5.59013e-05
54 *978:96 *979:42 0
55 *978:96 *994:63 0
56 *4166:S *978:20 0.000276396
57 *4261:A *978:10 6.98302e-05
58 *4261:A *978:20 0.000193125
59 *4471:A *4467:A 3.18676e-05
60 *4516:A *4512:A 9.90431e-05
61 *4516:B *978:96 0.000125724
62 *4560:C *978:20 2.14658e-05
63 *4561:B1 *978:20 0
64 *4561:B2 *978:28 1.19402e-05
65 *4590:A *4560:A 0
66 *4590:A *978:28 0
67 *4624:B1 *4624:A1 1.04232e-05
68 *4625:A2 *978:60 0
69 *4625:A2 *978:73 0.00010096
70 *4625:B1 *4624:A1 5.52302e-05
71 *4630:A3 *4660:A1 7.60306e-05
72 *4630:A3 *978:73 9.71197e-05
73 *4660:B1 *4660:A1 0
74 *4660:B1 *978:73 5.52238e-05
75 *4843:CLK *978:10 7.83587e-05
76 *4843:CLK *978:20 0.000218026
77 *161:52 *4467:A 0
78 *161:52 *978:96 0
79 *463:16 *4467:A 0.00014285
80 *472:10 *978:96 0
81 *504:20 *4512:A 0.00010096
82 *504:20 *978:96 0
83 *513:8 *978:20 0.00011193
84 *514:8 *978:73 9.77274e-05
85 *515:6 *4624:A1 1.92905e-05
86 *516:23 *4560:A 0
87 *516:23 *978:28 0
88 *556:12 *978:60 0
89 *840:53 *978:20 3.34295e-05
90 *977:23 *978:49 8.56716e-05
91 *977:23 *978:96 2.82057e-05
*RES
1 *4965:X *978:10 18.6571 
2 *978:10 *978:20 23.4286 
3 *978:20 *978:28 14.6607 
4 *978:28 *4560:A 20.2464 
5 *978:28 *978:43 17.3571 
6 *978:43 *978:49 11.9821 
7 *978:49 *4599:A 10.6571 
8 *978:49 *978:60 12.2143 
9 *978:60 *4660:A1 16.05 
10 *978:60 *978:71 4.5 
11 *978:71 *978:73 5.875 
12 *978:73 *4624:A1 13.2643 
13 *978:73 *4625:A1 9.3 
14 *978:71 *4630:A1 9.3 
15 *978:43 *978:96 6.04464 
16 *978:96 *4467:A 24.9696 
17 *978:96 *4512:A 15.9696 
18 *978:20 *4561:A1 9.3 
19 *978:10 *4260:A0 13.8 
*END

*D_NET *979 0.0217529
*CONN
*I *4547:A1 I *D sky130_fd_sc_hd__a31o_1
*I *4342:A I *D sky130_fd_sc_hd__nand2_1
*I *4413:A1 I *D sky130_fd_sc_hd__a31o_1
*I *4375:A I *D sky130_fd_sc_hd__nand2_1
*I *4414:B I *D sky130_fd_sc_hd__and4_1
*I *4416:A1 I *D sky130_fd_sc_hd__a22o_1
*I *4505:A1 I *D sky130_fd_sc_hd__a31o_1
*I *4965:A I *D sky130_fd_sc_hd__buf_2
*I *4192:B2 I *D sky130_fd_sc_hd__a22o_1
*I *4966:X O *D sky130_fd_sc_hd__buf_2
*CAP
1 *4547:A1 0
2 *4342:A 0.000324846
3 *4413:A1 4.12103e-05
4 *4375:A 1.99167e-05
5 *4414:B 1.69531e-05
6 *4416:A1 0
7 *4505:A1 0.000135658
8 *4965:A 3.82418e-05
9 *4192:B2 0.000137537
10 *4966:X 6.73418e-05
11 *979:106 0.000869764
12 *979:89 0.00105388
13 *979:76 0.000820182
14 *979:61 0.00107309
15 *979:42 0.00146296
16 *979:36 0.00129603
17 *979:23 0.00085172
18 *979:12 0.0014747
19 *979:6 0.00144914
20 *4192:B2 *4192:A1 0.000137983
21 *4342:A *1006:67 0.000276587
22 *4342:A *1008:14 0
23 *4413:A1 *1006:67 3.07555e-05
24 *4413:A1 *1008:14 0
25 *4414:B *4414:D 5.33005e-05
26 *4505:A1 *1000:47 0.000351156
27 *979:6 *999:29 0.000221634
28 *979:12 *4199:A1 1.41029e-05
29 *979:12 *995:48 0
30 *979:12 *995:68 0.000205234
31 *979:12 *995:81 0.000261204
32 *979:23 *999:29 0.000186669
33 *979:36 *4554:A2 0.000446597
34 *979:36 *998:25 9.60939e-05
35 *979:36 *998:76 0.000474132
36 *979:36 *999:29 0.00105012
37 *979:42 *984:59 0.000117997
38 *979:42 *1000:43 0
39 *979:61 *4467:B 0.000132452
40 *979:61 *1000:47 0.000432237
41 *979:61 *1000:62 9.90431e-05
42 *979:61 *1003:30 0
43 *979:61 *1006:14 0.000250931
44 *979:61 *1006:30 0.000275163
45 *979:61 *1006:45 2.24646e-05
46 *979:76 *1003:54 0.000315887
47 *979:76 *1003:73 5.41794e-05
48 *979:89 *4414:D 4.27935e-05
49 *979:89 *1003:73 0
50 *979:89 *1006:59 0
51 *979:106 *1006:59 0.000103128
52 *4199:B2 *979:12 0.00027338
53 *4379:B *4413:A1 0
54 *4379:B *979:106 4.58976e-05
55 *4380:A *4375:A 9.90431e-05
56 *4380:A *979:106 0.00014285
57 *4380:B *979:106 3.30352e-05
58 *4415:A *979:76 0
59 *4418:A2_N *979:76 0
60 *4467:A *979:42 0
61 *4470:A_N *4505:A1 0.000137515
62 *4470:A_N *979:61 7.77751e-05
63 *4474:A2 *979:12 0.000389854
64 *4505:B1 *4505:A1 6.86693e-05
65 *4515:A_N *979:36 2.89114e-05
66 *4525:A2 *979:61 0
67 *4554:B1 *979:12 0
68 *4554:B1 *979:36 5.52302e-05
69 *5107:A *979:12 0.000118903
70 *161:52 *979:61 4.20528e-05
71 *161:65 *979:61 0.000175414
72 *180:86 *979:12 0.000146225
73 *181:50 *4414:B 5.33005e-05
74 *181:50 *979:89 0.000184745
75 *194:12 *4192:B2 2.89114e-05
76 *304:14 *4342:A 0.00010096
77 *339:14 *979:106 9.90431e-05
78 *373:12 *4375:A 5.33433e-05
79 *373:12 *979:106 9.22103e-06
80 *374:12 *979:76 3.56976e-05
81 *375:12 *979:76 0
82 *376:14 *979:76 4.79842e-05
83 *392:12 *979:89 0
84 *418:14 *979:61 5.22045e-05
85 *418:14 *979:76 3.73468e-05
86 *430:12 *979:61 0
87 *439:10 *979:61 0
88 *472:10 *979:42 2.8266e-06
89 *504:20 *979:42 0
90 *511:12 *979:36 0.000513671
91 *841:118 *979:12 0.000353653
92 *859:16 *979:12 0.000614972
93 *859:29 *979:12 0.00020904
94 *973:24 *4192:B2 0.000139913
95 *973:24 *979:12 1.19402e-05
96 *973:35 *4192:B2 0.000136951
97 *975:105 *979:12 0
98 *977:68 *979:61 0.000173097
99 *977:83 *979:61 1.02504e-05
100 *977:106 *979:12 0.000177234
101 *977:117 *979:106 0
102 *978:10 *979:6 6.03385e-05
103 *978:10 *979:23 2.65105e-05
104 *978:96 *979:42 0
*RES
1 *4966:X *979:6 11.4786 
2 *979:6 *979:12 47.6786 
3 *979:12 *4192:B2 12.7286 
4 *979:6 *979:23 1.76786 
5 *979:23 *4965:A 10.0321 
6 *979:23 *979:36 23.2679 
7 *979:36 *979:42 18.2321 
8 *979:42 *4505:A1 13.55 
9 *979:42 *979:61 30 
10 *979:61 *4416:A1 9.3 
11 *979:61 *979:76 15.0536 
12 *979:76 *4414:B 9.83571 
13 *979:76 *979:89 13.9821 
14 *979:89 *4375:A 14.7464 
15 *979:89 *979:106 16.0179 
16 *979:106 *4413:A1 14.5321 
17 *979:106 *4342:A 21.6571 
18 *979:36 *4547:A1 9.3 
*END

*D_NET *980 0.000310166
*CONN
*I *4150:D I *D sky130_fd_sc_hd__or4_1
*I *5064:X O *D sky130_fd_sc_hd__clkbuf_1
*CAP
1 *4150:D 7.66306e-05
2 *5064:X 7.66306e-05
3 *4150:B *4150:D 0.000103267
4 *5064:A *4150:D 5.36379e-05
*RES
1 *5064:X *4150:D 29.475 
*END

*D_NET *981 0.0162163
*CONN
*I *4514:B2 I *D sky130_fd_sc_hd__a22o_1
*I *4513:A I *D sky130_fd_sc_hd__and4_1
*I *4468:A I *D sky130_fd_sc_hd__and4_1
*I *4469:B2 I *D sky130_fd_sc_hd__a22o_1
*I *4556:B2 I *D sky130_fd_sc_hd__a22o_1
*I *4559:A I *D sky130_fd_sc_hd__nand4_1
*I *4558:A I *D sky130_fd_sc_hd__nand3_1
*I *4557:A I *D sky130_fd_sc_hd__and3_1
*I *4597:A1 I *D sky130_fd_sc_hd__o21a_1
*I *4258:A0 I *D sky130_fd_sc_hd__mux2_1
*I *4967:X O *D sky130_fd_sc_hd__buf_2
*CAP
1 *4514:B2 0.000108568
2 *4513:A 0
3 *4468:A 0.000154695
4 *4469:B2 0
5 *4556:B2 0
6 *4559:A 0.000175192
7 *4558:A 0
8 *4557:A 0.000411792
9 *4597:A1 0
10 *4258:A0 0
11 *4967:X 0.000128403
12 *981:122 0.000183344
13 *981:102 0.000482533
14 *981:98 0.000730564
15 *981:85 0.000419544
16 *981:68 0.000343461
17 *981:37 0.000573672
18 *981:31 0.000633864
19 *981:21 0.00185132
20 *981:12 0.00143106
21 *4468:A *4468:C 6.05161e-06
22 *4468:A *4469:B1 9.71197e-05
23 *4468:A *985:65 7.83366e-05
24 *4468:A *1004:137 5.91336e-05
25 *4514:B2 *4514:B1 1.97695e-05
26 *4514:B2 *994:52 7.17235e-05
27 *4514:B2 *996:73 0.000178847
28 *4514:B2 *996:81 0.000142856
29 *4557:A *4597:A2 2.44318e-05
30 *4557:A *992:79 5.52302e-05
31 *4557:A *992:85 4.5424e-05
32 *4559:A *983:29 5.59013e-05
33 *4559:A *1000:35 0.000175892
34 *981:12 *1000:35 5.33005e-05
35 *981:21 *995:8 5.52302e-05
36 *981:31 *983:10 7.05447e-05
37 *981:31 *984:27 1.02504e-05
38 *981:31 *984:46 0.000135502
39 *981:31 *992:29 0.000126446
40 *981:37 *4597:A2 0.00038301
41 *981:37 *983:10 3.34366e-05
42 *981:37 *984:27 5.83304e-05
43 *981:37 *992:79 0
44 *981:68 *992:29 0.000268514
45 *981:85 *4556:A2 0.000164561
46 *981:85 *992:29 7.83659e-05
47 *981:98 *4556:A2 3.51442e-05
48 *981:98 *994:43 7.25296e-05
49 *981:98 *997:23 0.000534229
50 *981:98 *997:136 0.000433256
51 *981:102 *996:49 5.41794e-05
52 *981:102 *997:27 0
53 *981:122 *996:73 6.27058e-05
54 *981:122 *997:136 0.000222666
55 *4258:A1 *981:12 0.000267807
56 *4258:A1 *981:21 5.52238e-05
57 *4258:S *981:21 1.56e-05
58 *4598:B *4557:A 0
59 *4624:A1 *4557:A 5.52302e-05
60 *4968:A *4468:A 0.000175512
61 *4968:A *981:102 0.000596908
62 *4978:A *981:31 0.000128161
63 *4978:A *981:68 0.000260986
64 *4978:A *981:85 0.000236821
65 *4978:A *981:98 0.000166983
66 *4980:A *981:21 4.87854e-05
67 *4980:A *981:31 0
68 *224:44 *981:12 0.000266092
69 *553:8 *4557:A 0
70 *553:26 *4557:A 0.000186669
71 *580:18 *4557:A 0.000103267
72 *792:25 *981:21 0.000455707
73 *792:25 *981:31 0.000523458
74 *978:28 *981:98 0.000359997
75 *978:43 *4514:B2 7.96335e-05
76 *978:43 *981:98 0.000183726
77 *978:43 *981:122 0.000339751
78 *978:73 *4557:A 0.000219064
*RES
1 *4967:X *981:12 22.3 
2 *981:12 *4258:A0 9.3 
3 *981:12 *981:21 21.875 
4 *981:21 *981:31 17.6429 
5 *981:31 *981:37 8.92857 
6 *981:37 *4597:A1 9.3 
7 *981:37 *4557:A 26.7821 
8 *981:31 *4558:A 13.8 
9 *981:21 *981:68 3.46429 
10 *981:68 *4559:A 25.3 
11 *981:68 *981:85 3.16071 
12 *981:85 *4556:B2 13.8 
13 *981:85 *981:98 15.9107 
14 *981:98 *981:102 12.2143 
15 *981:102 *4469:B2 13.8 
16 *981:102 *4468:A 17.8179 
17 *981:98 *981:122 3.41071 
18 *981:122 *4513:A 9.3 
19 *981:122 *4514:B2 13.1571 
*END

*D_NET *982 0.0115556
*CONN
*I *4315:A I *D sky130_fd_sc_hd__and4_1
*I *4314:B2 I *D sky130_fd_sc_hd__a22oi_1
*I *4189:B2 I *D sky130_fd_sc_hd__a22o_1
*I *4340:B2 I *D sky130_fd_sc_hd__a22oi_1
*I *4339:A I *D sky130_fd_sc_hd__and4_1
*I *4377:A I *D sky130_fd_sc_hd__and4_1
*I *4378:B2 I *D sky130_fd_sc_hd__a22o_1
*I *4376:A I *D sky130_fd_sc_hd__nand2_1
*I *4968:X O *D sky130_fd_sc_hd__clkbuf_2
*CAP
1 *4315:A 0
2 *4314:B2 0
3 *4189:B2 0.00128164
4 *4340:B2 0.000325729
5 *4339:A 0
6 *4377:A 2.89285e-05
7 *4378:B2 2.09102e-05
8 *4376:A 0.000144701
9 *4968:X 0
10 *982:83 0.00157969
11 *982:79 0.000810137
12 *982:58 0.000885879
13 *982:49 0.00042834
14 *982:38 0.000681571
15 *982:23 0.000772302
16 *982:4 0.00062373
17 *4189:B2 *4186:A1 0.000100625
18 *4189:B2 *4189:A1 0.000326505
19 *4189:B2 *4302:B 5.33005e-05
20 *4189:B2 *984:99 0.000126915
21 *4340:B2 *4340:A2 4.19624e-06
22 *4340:B2 *1003:93 1.89507e-06
23 *4340:B2 *1006:67 9.54798e-06
24 *4340:B2 *1006:73 0.000110956
25 *4376:A *997:55 0
26 *4376:A *1000:97 0.000134748
27 *4377:A *984:59 5.80706e-06
28 *4377:A *984:70 2.80507e-05
29 *982:23 *1000:97 0
30 *982:49 *4340:A2 0
31 *982:49 *984:70 0.000389509
32 *982:49 *984:78 1.19402e-05
33 *982:58 *984:78 3.38136e-05
34 *982:79 *984:78 0.000293219
35 *982:79 *984:93 2.88424e-05
36 *982:79 *1006:73 2.14658e-05
37 *982:83 *4314:A2 0.000120035
38 *982:83 *4314:B1 1.90213e-05
39 *982:83 *1006:73 7.61932e-05
40 *4302:D *4189:B2 9.41642e-05
41 *4314:A1 *982:38 4.29471e-05
42 *4314:A1 *982:49 0
43 *4314:A1 *982:83 2.42577e-05
44 *4425:A *4376:A 1.00375e-05
45 *4425:B *4376:A 6.42338e-05
46 *4459:B1 *4376:A 3.51442e-05
47 *181:46 *4376:A 1.39841e-05
48 *278:12 *982:83 5.71472e-05
49 *339:14 *4377:A 3.34295e-05
50 *384:8 *4376:A 2.58997e-05
51 *385:12 *4376:A 9.60771e-05
52 *385:12 *982:23 0.000221492
53 *391:12 *4376:A 0.000227539
54 *391:12 *982:23 0.000107268
55 *792:33 *982:23 0.00020071
56 *792:33 *982:38 6.7848e-05
57 *973:24 *4189:B2 0.000753287
*RES
1 *4968:X *982:4 9.3 
2 *982:4 *4376:A 23.6393 
3 *982:4 *982:23 14.9375 
4 *982:23 *4378:B2 14.3804 
5 *982:23 *982:38 4.46429 
6 *982:38 *4377:A 14.6839 
7 *982:38 *982:49 9.38393 
8 *982:49 *4339:A 13.8 
9 *982:49 *982:58 1.33929 
10 *982:58 *4340:B2 27.4429 
11 *982:58 *982:79 16.0893 
12 *982:79 *982:83 6.08929 
13 *982:83 *4189:B2 34.9071 
14 *982:83 *4314:B2 9.3 
15 *982:79 *4315:A 9.3 
*END

*D_NET *983 0.014323
*CONN
*I *4557:B I *D sky130_fd_sc_hd__and3_1
*I *4514:A1 I *D sky130_fd_sc_hd__a22o_1
*I *4513:B I *D sky130_fd_sc_hd__and4_1
*I *4423:B2 I *D sky130_fd_sc_hd__a22o_1
*I *4422:A I *D sky130_fd_sc_hd__nand4_1
*I *4468:B I *D sky130_fd_sc_hd__and4_1
*I *4558:B I *D sky130_fd_sc_hd__nand3_1
*I *4556:A1 I *D sky130_fd_sc_hd__a22o_1
*I *4559:B I *D sky130_fd_sc_hd__nand4_1
*I *4597:A2 I *D sky130_fd_sc_hd__o21a_1
*I *4969:X O *D sky130_fd_sc_hd__buf_2
*CAP
1 *4557:B 3.76456e-05
2 *4514:A1 0.000333913
3 *4513:B 0
4 *4423:B2 0.000101123
5 *4422:A 5.15657e-05
6 *4468:B 0
7 *4558:B 0
8 *4556:A1 6.2065e-05
9 *4559:B 4.36033e-05
10 *4597:A2 0.000226295
11 *4969:X 0
12 *983:89 0.000894232
13 *983:70 0.00116933
14 *983:64 0.00050044
15 *983:60 0.000910752
16 *983:54 0.00107488
17 *983:29 0.000496513
18 *983:23 0.000390845
19 *983:10 0.000398049
20 *983:4 0.000704803
21 *4422:A *4422:D 0.00014285
22 *4422:A *997:42 1.81478e-05
23 *4422:A *999:29 3.19564e-05
24 *4423:B2 *4423:B1 5.52238e-05
25 *4423:B2 *997:42 6.04162e-05
26 *4423:B2 *999:29 7.57869e-05
27 *4423:B2 *999:42 1.76135e-05
28 *4514:A1 *994:63 5.80706e-06
29 *4556:A1 *994:30 9.15804e-05
30 *4559:B *4599:B 5.33005e-05
31 *4597:A2 *994:17 0
32 *983:10 *992:62 1.98839e-05
33 *983:29 *984:27 0.000361914
34 *983:29 *992:51 0.000274294
35 *983:29 *992:62 4.58976e-05
36 *983:29 *994:17 0.00059933
37 *983:29 *994:30 7.90803e-05
38 *983:60 *994:63 0
39 *983:60 *996:81 5.58941e-05
40 *983:60 *1000:35 0.000243642
41 *983:60 *1000:43 0.000261234
42 *983:64 *994:43 4.08637e-05
43 *983:64 *994:52 5.52302e-05
44 *983:70 *4468:C 0.000110844
45 *983:70 *994:43 0.00018372
46 *983:70 *996:53 0.000177867
47 *983:70 *998:25 0.000171368
48 *983:70 *998:29 0.000478012
49 *983:70 *998:46 0.00011891
50 *983:89 *4422:D 0.00106783
51 *983:89 *998:46 1.02504e-05
52 *4557:A *4597:A2 2.44318e-05
53 *4559:A *983:29 5.59013e-05
54 *4561:B2 *4556:A1 0
55 *4600:A *983:60 0.000184626
56 *4624:A1 *983:54 9.45504e-05
57 *4625:A2 *983:54 5.33334e-05
58 *4625:A2 *983:60 0.000107494
59 *4625:B1 *983:54 2.89114e-05
60 *4968:A *983:70 0
61 *4968:A *983:89 0
62 *4980:A *983:10 0
63 *4980:A *983:29 0
64 *382:10 *983:89 0.000273269
65 *471:12 *4514:A1 9.25014e-06
66 *515:6 *983:10 0.000139907
67 *515:6 *983:54 0.000217141
68 *556:12 *983:60 3.48139e-05
69 *781:33 *4423:B2 5.52238e-05
70 *792:29 *983:60 5.34659e-05
71 *792:29 *983:70 8.2395e-05
72 *792:29 *983:89 2.25929e-05
73 *792:33 *983:89 6.676e-06
74 *978:60 *983:60 0
75 *978:73 *4557:B 1.74352e-05
76 *978:73 *983:54 6.97409e-05
77 *978:96 *4514:A1 0
78 *981:31 *983:10 7.05447e-05
79 *981:37 *4597:A2 0.00038301
80 *981:37 *983:10 3.34366e-05
*RES
1 *4969:X *983:4 9.3 
2 *983:4 *983:10 7.60714 
3 *983:10 *4597:A2 19.05 
4 *983:10 *983:23 4.5 
5 *983:23 *983:29 16.5357 
6 *983:29 *4559:B 14.3357 
7 *983:29 *4556:A1 15.1393 
8 *983:23 *4558:B 9.3 
9 *983:4 *983:54 7.51786 
10 *983:54 *983:60 17.3036 
11 *983:60 *983:64 5.44643 
12 *983:64 *983:70 16.1071 
13 *983:70 *4468:B 13.8 
14 *983:70 *983:89 28.3214 
15 *983:89 *4422:A 15.8893 
16 *983:89 *4423:B2 16.5857 
17 *983:64 *4513:B 9.3 
18 *983:60 *4514:A1 17.3714 
19 *983:54 *4557:B 9.83571 
*END

*D_NET *984 0.0299446
*CONN
*I *4339:B I *D sky130_fd_sc_hd__and4_1
*I *4340:A1 I *D sky130_fd_sc_hd__a22oi_1
*I *4303:A1 I *D sky130_fd_sc_hd__a22o_1
*I *4302:A I *D sky130_fd_sc_hd__nand4_1
*I *4186:A1 I *D sky130_fd_sc_hd__a22o_1
*I *4315:B I *D sky130_fd_sc_hd__and4_1
*I *4377:B I *D sky130_fd_sc_hd__and4_1
*I *4469:A1 I *D sky130_fd_sc_hd__a22o_1
*I *4969:A I *D sky130_fd_sc_hd__buf_2
*I *4256:A0 I *D sky130_fd_sc_hd__mux2_1
*I *4970:X O *D sky130_fd_sc_hd__buf_6
*CAP
1 *4339:B 0
2 *4340:A1 0.000171185
3 *4303:A1 6.29352e-05
4 *4302:A 0
5 *4186:A1 0.0014006
6 *4315:B 0
7 *4377:B 0
8 *4469:A1 0
9 *4969:A 0
10 *4256:A0 0.000240758
11 *4970:X 0.000183828
12 *984:99 0.00156361
13 *984:93 0.00164157
14 *984:78 0.00188453
15 *984:72 0.000650967
16 *984:70 0.000273664
17 *984:59 0.00201591
18 *984:46 0.00289743
19 *984:27 0.00369013
20 *984:8 0.00297041
21 *4186:A1 *4189:A1 0.00018372
22 *4186:A1 *1001:40 4.23644e-06
23 *4340:A1 *4339:D 9.90431e-05
24 *4340:A1 *4375:B 4.8035e-05
25 *4340:A1 *1005:106 2.58821e-05
26 *984:27 *992:25 0.000174563
27 *984:27 *992:51 3.68898e-05
28 *984:27 *992:62 2.42516e-05
29 *984:27 *992:79 0
30 *984:46 *992:79 0
31 *984:46 *996:53 0.000527085
32 *984:46 *997:136 8.58864e-05
33 *984:59 *4521:A 0
34 *984:59 *1000:89 0
35 *984:59 *1003:73 0.000127253
36 *984:70 *1003:73 5.80706e-06
37 *984:70 *1003:93 0.000413098
38 *984:72 *1005:106 2.14658e-05
39 *984:78 *1005:106 0.000100625
40 *984:99 *4189:A1 0.000362472
41 *4162:A1 *4256:A0 7.6644e-05
42 *4169:B *984:27 2.89016e-05
43 *4186:B1 *4186:A1 2.07462e-05
44 *4186:B2 *4186:A1 0.000397083
45 *4187:C1 *4186:A1 1.3701e-05
46 *4189:B2 *4186:A1 0.000100625
47 *4189:B2 *984:99 0.000126915
48 *4256:A1 *4256:A0 0.000252623
49 *4257:B *4256:A0 5.30637e-06
50 *4302:D *984:99 9.41642e-05
51 *4303:B2 *984:93 0.000142856
52 *4314:A1 *984:78 0.000335781
53 *4316:A *984:93 0
54 *4325:C *984:93 0.000446597
55 *4355:A2 *984:93 7.17235e-05
56 *4377:A *984:59 5.80706e-06
57 *4377:A *984:70 2.80507e-05
58 *4471:B *984:59 0.000127446
59 *4481:A1 *984:59 2.19778e-05
60 *4598:B *984:46 2.88424e-05
61 *4844:D *984:27 0.000167931
62 *4845:D *984:27 1.64343e-05
63 *4929:A *4186:A1 2.89016e-05
64 *4968:A *984:46 0.000535916
65 *4970:A *984:8 6.05161e-06
66 *4970:A *984:27 0.000117436
67 *181:46 *984:59 0
68 *194:12 *4186:A1 0.000248486
69 *196:14 *4303:A1 6.81083e-05
70 *196:14 *984:99 0.000125731
71 *199:10 *4303:A1 0
72 *199:10 *984:99 0
73 *249:29 *4186:A1 0.000134748
74 *278:12 *984:93 2.34204e-05
75 *278:23 *984:93 5.06983e-05
76 *279:10 *984:93 0.000231415
77 *301:8 *4340:A1 0.000182694
78 *317:8 *984:93 7.48301e-06
79 *339:14 *984:59 2.37761e-05
80 *427:12 *984:59 4.71964e-05
81 *428:10 *984:59 0.000221641
82 *430:12 *984:59 0
83 *430:20 *984:59 0.000120645
84 *437:12 *984:59 0
85 *438:10 *984:59 3.34672e-05
86 *439:10 *984:59 0
87 *440:10 *984:59 0.000343233
88 *441:10 *984:59 0
89 *463:16 *984:59 5.33882e-05
90 *478:12 *984:59 0.000161937
91 *479:16 *984:59 0.000265458
92 *775:14 *4186:A1 0.000401717
93 *788:8 *984:27 2.87555e-06
94 *792:25 *984:46 0.000529363
95 *792:29 *984:46 0
96 *792:33 *984:59 0
97 *841:118 *984:27 0.00013949
98 *979:42 *984:59 0.000117997
99 *981:31 *984:27 1.02504e-05
100 *981:31 *984:46 0.000135502
101 *981:37 *984:27 5.83304e-05
102 *982:49 *984:70 0.000389509
103 *982:49 *984:78 1.19402e-05
104 *982:58 *984:78 3.38136e-05
105 *982:79 *984:78 0.000293219
106 *982:79 *984:93 2.88424e-05
107 *983:29 *984:27 0.000361914
*RES
1 *4970:X *984:8 11.4964 
2 *984:8 *4256:A0 23.6214 
3 *984:8 *984:27 36.5714 
4 *984:27 *4969:A 13.8 
5 *984:27 *984:46 37.9286 
6 *984:46 *4469:A1 9.3 
7 *984:46 *984:59 41.9821 
8 *984:59 *4377:B 13.8 
9 *984:59 *984:70 14.3393 
10 *984:70 *984:72 0.535714 
11 *984:72 *984:78 17.9286 
12 *984:78 *4315:B 13.8 
13 *984:78 *984:93 28.625 
14 *984:93 *984:99 9.55357 
15 *984:99 *4186:A1 40.2107 
16 *984:99 *4302:A 9.3 
17 *984:93 *4303:A1 14.8357 
18 *984:72 *4340:A1 13.55 
19 *984:70 *4339:B 9.3 
*END

*D_NET *985 0.0125414
*CONN
*I *4519:A1 I *D sky130_fd_sc_hd__a31o_1
*I *4475:B1 I *D sky130_fd_sc_hd__a2bb2o_1
*I *4423:A1 I *D sky130_fd_sc_hd__a22o_1
*I *4476:C_N I *D sky130_fd_sc_hd__or4bb_4
*I *4521:A I *D sky130_fd_sc_hd__nand2_1
*I *4520:A I *D sky130_fd_sc_hd__and2_1
*I *4518:B1 I *D sky130_fd_sc_hd__a2bb2o_1
*I *4517:C_N I *D sky130_fd_sc_hd__or3b_1
*I *4554:A1 I *D sky130_fd_sc_hd__a21oi_2
*I *4254:A0 I *D sky130_fd_sc_hd__mux2_1
*I *4971:X O *D sky130_fd_sc_hd__buf_6
*CAP
1 *4519:A1 0
2 *4475:B1 0
3 *4423:A1 0.000730576
4 *4476:C_N 0
5 *4521:A 3.9901e-05
6 *4520:A 0
7 *4518:B1 3.18784e-05
8 *4517:C_N 0
9 *4554:A1 0.000195313
10 *4254:A0 0.000214344
11 *4971:X 0
12 *985:90 0.000772628
13 *985:67 0.000140852
14 *985:65 0.000443061
15 *985:61 0.000947132
16 *985:51 0.000924533
17 *985:38 0.000455258
18 *985:27 0.000524299
19 *985:21 0.00159422
20 *985:4 0.0016212
21 *4254:A0 *4971:A 0.000271904
22 *4423:A1 *4422:B 0
23 *4423:A1 *4423:B1 3.57366e-05
24 *4423:A1 *997:42 0
25 *4554:A1 *995:40 0.000362531
26 *985:21 *4971:A 0.000255294
27 *985:27 *995:40 0.000325581
28 *985:38 *995:40 3.17148e-05
29 *985:51 *993:53 8.05006e-05
30 *985:51 *995:48 0
31 *985:51 *995:110 2.95726e-05
32 *985:61 *4473:B1 0
33 *985:61 *4476:D_N 5.12937e-05
34 *985:65 *4422:B 0
35 *985:90 *4422:B 0
36 *4254:A1 *4254:A0 5.71472e-05
37 *4254:S *4254:A0 2.14757e-05
38 *4254:S *985:21 0.000109074
39 *4424:B *4423:A1 4.61475e-05
40 *4468:A *985:65 7.83366e-05
41 *4476:B *985:61 0.000386507
42 *4518:A2_N *985:38 7.4826e-05
43 *4519:B1 *985:21 3.18676e-05
44 *4519:B1 *985:27 1.21289e-05
45 *4521:B *985:67 0.000142856
46 *4522:B1 *4554:A1 0
47 *4554:B1 *4554:A1 0
48 *4968:A *4423:A1 0.000245465
49 *4968:A *985:65 0.000132477
50 *4968:A *985:90 3.20153e-05
51 *4992:A *4423:A1 1.53439e-06
52 *224:42 *985:21 0
53 *382:10 *4423:A1 7.6644e-05
54 *431:37 *985:51 0.000228558
55 *431:37 *985:61 0.000230482
56 *432:8 *985:38 4.13573e-05
57 *432:8 *985:51 0.000195481
58 *432:42 *985:51 0.000167988
59 *433:8 *985:38 0
60 *433:8 *985:51 0
61 *478:12 *4521:A 2.89114e-05
62 *478:12 *985:67 5.33334e-05
63 *479:16 *4521:A 5.30637e-06
64 *781:33 *4423:A1 6.21606e-05
65 *864:12 *985:65 0
66 *984:59 *4521:A 0
*RES
1 *4971:X *985:4 9.3 
2 *985:4 *4254:A0 13.5321 
3 *985:4 *985:21 31.7321 
4 *985:21 *985:27 8.33929 
5 *985:27 *4554:A1 18.4786 
6 *985:27 *985:38 3.16071 
7 *985:38 *4517:C_N 13.8 
8 *985:38 *985:51 13 
9 *985:51 *985:61 22.1607 
10 *985:61 *985:65 11 
11 *985:65 *985:67 2.58929 
12 *985:67 *4518:B1 9.83571 
13 *985:67 *4520:A 9.3 
14 *985:65 *4521:A 10.2643 
15 *985:61 *985:90 1.03571 
16 *985:90 *4476:C_N 13.8 
17 *985:90 *4423:A1 26.7643 
18 *985:51 *4475:B1 9.3 
19 *985:21 *4519:A1 9.3 
*END

*D_NET *986 0.0275649
*CONN
*I *4294:A I *D sky130_fd_sc_hd__nand2_1
*I *4317:A I *D sky130_fd_sc_hd__nand2_1
*I *4381:A I *D sky130_fd_sc_hd__nand2_1
*I *4345:A I *D sky130_fd_sc_hd__nand2_1
*I *4279:A I *D sky130_fd_sc_hd__nand2_1
*I *4183:B2 I *D sky130_fd_sc_hd__a22o_1
*I *4422:B I *D sky130_fd_sc_hd__nand4_1
*I *4971:A I *D sky130_fd_sc_hd__buf_6
*I *4972:X O *D sky130_fd_sc_hd__buf_4
*CAP
1 *4294:A 0
2 *4317:A 9.32966e-05
3 *4381:A 0.000519812
4 *4345:A 2.23854e-05
5 *4279:A 2.23854e-05
6 *4183:B2 1.53361e-05
7 *4422:B 0.000694699
8 *4971:A 0.000187796
9 *4972:X 3.7311e-05
10 *986:84 0.000681209
11 *986:78 0.00130077
12 *986:68 0.00141426
13 *986:57 0.000837969
14 *986:48 0.00195461
15 *986:31 0.0030574
16 *986:21 0.0038986
17 *986:8 0.000291513
18 *4317:A *4317:B 5.26184e-05
19 *4317:A *999:65 0
20 *4317:A *1001:71 0
21 *4381:A *4381:B 5.52238e-05
22 *4381:A *1000:97 0.00109493
23 *4381:A *1001:77 0
24 *4422:B *4422:D 0.0001399
25 *4422:B *997:27 0.00032782
26 *4422:B *997:42 2.04825e-05
27 *986:31 *1004:27 2.00997e-05
28 *986:31 *1004:137 0.000738863
29 *986:48 *4183:A1 2.84109e-05
30 *986:57 *4183:A1 0.000281928
31 *986:57 *4280:A 9.58126e-05
32 *986:57 *4280:B 8.43535e-06
33 *986:57 *4280:C 3.97677e-05
34 *986:57 *4280:D 0.000140933
35 *986:57 *987:64 0.000263524
36 *986:57 *1005:93 6.05161e-06
37 *986:68 *4294:B 5.7661e-06
38 *986:68 *987:114 0.000114587
39 *986:68 *1005:93 0.000423193
40 *986:68 *1007:109 9.90431e-05
41 *986:78 *4317:B 0.000974356
42 *986:84 *4317:B 7.55342e-05
43 *986:84 *999:65 0
44 *986:84 *1000:97 0.000273269
45 *986:84 *1001:71 0
46 *986:84 *1001:77 0
47 *4155:C *986:48 0
48 *4157:B *986:48 0
49 *4178:A2 *986:48 5.80217e-05
50 *4181:A1 *986:48 0.000529507
51 *4183:A2 *986:57 1.98839e-05
52 *4250:A0 *986:31 4.7812e-05
53 *4250:A1 *986:48 0
54 *4250:S *986:31 0.000223885
55 *4251:B *986:48 6.65302e-05
56 *4252:S *986:31 0.000130419
57 *4254:A0 *4971:A 0.000271904
58 *4254:S *4971:A 0.000529115
59 *4318:B *4317:A 0
60 *4348:C *4381:A 9.60939e-05
61 *4349:B1 *4381:A 1.98839e-05
62 *4388:A1 *4381:A 6.8646e-06
63 *4423:A1 *4422:B 0
64 *4522:A2 *986:31 5.52302e-05
65 *170:27 *4971:A 0
66 *170:27 *986:21 0
67 *170:27 *986:31 0.000164618
68 *170:27 *986:48 0
69 *180:44 *4183:B2 1.97695e-05
70 *180:44 *986:48 5.49544e-05
71 *180:44 *986:57 0.000258693
72 *180:67 *986:48 0
73 *182:53 *986:48 0.000579302
74 *224:34 *986:31 0.000566624
75 *245:10 *986:57 3.30352e-05
76 *259:10 *986:78 7.73758e-05
77 *307:6 *4381:A 2.28499e-05
78 *307:6 *986:84 3.18676e-05
79 *307:21 *4381:A 2.14658e-05
80 *308:21 *4381:A 0.00012401
81 *311:12 *4345:A 0
82 *347:12 *4381:A 0
83 *349:12 *4381:A 0
84 *351:18 *4381:A 7.83659e-05
85 *773:12 *986:48 0.000176234
86 *773:14 *4971:A 0.000202128
87 *773:14 *986:21 0.000119618
88 *773:14 *986:48 0.0010202
89 *773:47 *986:48 0.000201127
90 *841:37 *986:48 0.000314349
91 *864:12 *986:31 0.000401764
92 *972:32 *986:48 1.28585e-05
93 *972:51 *986:48 0.000315205
94 *973:24 *986:78 0.000148196
95 *974:24 *986:48 0
96 *974:26 *986:48 0
97 *985:21 *4971:A 0.000255294
98 *985:65 *4422:B 0
99 *985:90 *4422:B 0
*RES
1 *4972:X *986:8 14.3357 
2 *986:8 *4971:A 21.4071 
3 *986:8 *986:21 1.64286 
4 *986:21 *986:31 45.4107 
5 *986:31 *4422:B 27.1214 
6 *986:21 *986:48 44.625 
7 *986:48 *4183:B2 9.72857 
8 *986:48 *986:57 11.625 
9 *986:57 *4279:A 9.72857 
10 *986:57 *986:68 8.76786 
11 *986:68 *986:78 29.125 
12 *986:78 *986:84 8.42857 
13 *986:84 *4345:A 9.72857 
14 *986:84 *4381:A 32.675 
15 *986:78 *4317:A 15.7464 
16 *986:68 *4294:A 9.3 
*END

*D_NET *987 0.0108308
*CONN
*I *4318:A I *D sky130_fd_sc_hd__and4_1
*I *4319:B2 I *D sky130_fd_sc_hd__a22oi_2
*I *4296:B2 I *D sky130_fd_sc_hd__a22oi_2
*I *4281:B2 I *D sky130_fd_sc_hd__a22oi_2
*I *4271:A I *D sky130_fd_sc_hd__and4_1
*I *4280:A I *D sky130_fd_sc_hd__and4_1
*I *4295:A I *D sky130_fd_sc_hd__and4_1
*I *4272:A I *D sky130_fd_sc_hd__nand4_1
*I *4270:B2 I *D sky130_fd_sc_hd__a22o_1
*I *4180:B2 I *D sky130_fd_sc_hd__a22o_1
*I *4973:X O *D sky130_fd_sc_hd__buf_2
*CAP
1 *4318:A 2.21992e-05
2 *4319:B2 0
3 *4296:B2 0
4 *4281:B2 0
5 *4271:A 0.000197666
6 *4280:A 5.24509e-05
7 *4295:A 0
8 *4272:A 0
9 *4270:B2 0
10 *4180:B2 0.000430415
11 *4973:X 0
12 *987:114 0.000896022
13 *987:93 0.000905974
14 *987:64 0.000492843
15 *987:54 0.00069662
16 *987:52 0.000640519
17 *987:41 0.000475876
18 *987:10 0.000444689
19 *987:8 0.000176463
20 *987:4 0.000483593
21 *4180:B2 *4180:A1 0.000788737
22 *4180:B2 *4267:C 9.50968e-06
23 *4180:B2 *4272:B 9.25014e-06
24 *4180:B2 *4272:C 2.6949e-05
25 *4180:B2 *4975:A 0.000140933
26 *4180:B2 *989:23 0.000442785
27 *4180:B2 *1005:17 9.69119e-06
28 *4180:B2 *1005:30 0.000175404
29 *4180:B2 *1010:80 0
30 *4271:A *4271:B 6.05161e-06
31 *4271:A *1004:57 7.7591e-05
32 *4318:A *999:67 4.72917e-05
33 *4318:A *1005:106 9.60939e-05
34 *987:8 *4272:C 2.89114e-05
35 *987:8 *4272:D 4.51526e-05
36 *987:8 *4973:A 0.00010096
37 *987:8 *1005:40 9.90367e-05
38 *987:10 *4272:D 5.52302e-05
39 *987:10 *1005:40 1.39841e-05
40 *987:41 *4272:C 0
41 *987:41 *4973:A 9.90367e-05
42 *987:52 *4295:C 2.79092e-05
43 *987:52 *1004:90 0
44 *987:54 *1005:52 0.000170385
45 *987:54 *1005:93 0.000140933
46 *987:64 *1005:52 0.00010096
47 *987:64 *1005:56 0.000177941
48 *987:114 *4318:C 0
49 *987:114 *999:67 9.71197e-05
50 *987:114 *999:73 0.000269428
51 *987:114 *1004:90 4.46186e-06
52 *987:114 *1005:93 1.65169e-05
53 *987:114 *1005:106 0.000363735
54 *4178:A1 *4180:B2 7.2707e-05
55 *4269:B *4180:B2 1.88048e-05
56 *4986:A *4271:A 0.000166093
57 *180:48 *4180:B2 5.38444e-06
58 *180:86 *987:41 0
59 *246:10 *987:64 5.33882e-05
60 *259:10 *987:114 1.50181e-05
61 *260:12 *987:114 0.000103253
62 *797:24 *4180:B2 0.00035744
63 *844:20 *987:64 0
64 *972:32 *4271:A 7.46294e-06
65 *973:24 *987:41 0
66 *973:24 *987:52 0
67 *986:57 *4280:A 9.58126e-05
68 *986:57 *987:64 0.000263524
69 *986:68 *987:114 0.000114587
*RES
1 *4973:X *987:4 9.3 
2 *987:4 *987:8 3.73214 
3 *987:8 *987:10 0.535714 
4 *987:10 *4180:B2 33.6571 
5 *987:10 *4270:B2 9.3 
6 *987:8 *4272:A 9.3 
7 *987:4 *987:41 10.4286 
8 *987:41 *4295:A 13.8 
9 *987:41 *987:52 7.35714 
10 *987:52 *987:54 8.33929 
11 *987:54 *987:64 14.7857 
12 *987:64 *4280:A 10.2464 
13 *987:64 *4271:A 21.925 
14 *987:54 *4281:B2 9.3 
15 *987:52 *987:93 0.535714 
16 *987:93 *4296:B2 9.3 
17 *987:93 *987:114 24.3929 
18 *987:114 *4319:B2 9.3 
19 *987:114 *4318:A 10.2464 
*END

*D_NET *988 0.0130649
*CONN
*I *4473:A1 I *D sky130_fd_sc_hd__o21ai_2
*I *4383:B I *D sky130_fd_sc_hd__and4_1
*I *4346:A I *D sky130_fd_sc_hd__and4_1
*I *4347:B2 I *D sky130_fd_sc_hd__a22oi_2
*I *4973:A I *D sky130_fd_sc_hd__buf_2
*I *4384:B2 I *D sky130_fd_sc_hd__a22oi_2
*I *4382:A I *D sky130_fd_sc_hd__nand2_1
*I *4472:A I *D sky130_fd_sc_hd__and3_4
*I *4474:A1 I *D sky130_fd_sc_hd__o21a_1
*I *4252:A0 I *D sky130_fd_sc_hd__mux2_1
*I *4974:X O *D sky130_fd_sc_hd__buf_6
*CAP
1 *4473:A1 2.52948e-05
2 *4383:B 3.68863e-05
3 *4346:A 1.32759e-05
4 *4347:B2 0
5 *4973:A 0.000531248
6 *4384:B2 0.000192391
7 *4382:A 0
8 *4472:A 0
9 *4474:A1 0.000182857
10 *4252:A0 0.000259408
11 *4974:X 5.31155e-05
12 *988:102 0.000420054
13 *988:83 0.00106194
14 *988:79 0.000256894
15 *988:66 0.00050355
16 *988:55 0.000626608
17 *988:27 0.000224571
18 *988:23 0.00045325
19 *988:21 0.000527747
20 *988:6 0.000814976
21 *4252:A0 *1004:137 3.03304e-05
22 *4346:A *4346:B 5.52302e-05
23 *4383:B *4383:C 2.44318e-05
24 *4384:B2 *4383:A 1.02936e-05
25 *4384:B2 *4383:C 5.33005e-05
26 *4384:B2 *4384:B1 4.67819e-05
27 *4473:A1 *4473:A2 5.33005e-05
28 *4474:A1 *4472:C 5.52302e-05
29 *4474:A1 *4474:B1 3.14193e-05
30 *4973:A *4272:D 1.04232e-05
31 *988:6 *990:14 3.32631e-05
32 *988:21 *4473:A2 4.08637e-05
33 *988:21 *990:14 0.000177427
34 *988:21 *990:18 0.00018372
35 *988:27 *4472:C 0.000128154
36 *988:27 *993:53 0.000128154
37 *988:55 *4472:C 2.24646e-05
38 *988:55 *993:53 0.00014576
39 *988:55 *995:48 4.98055e-06
40 *988:55 *995:68 0.000326608
41 *988:66 *4195:A1 3.17148e-05
42 *988:66 *995:68 4.56437e-05
43 *988:66 *995:81 0.00072695
44 *988:79 *4383:C 0.000124521
45 *988:83 *4383:D 2.34204e-05
46 *988:83 *997:87 8.77116e-05
47 *988:102 *4346:B 0.00011157
48 *988:102 *4347:A1 0
49 *988:102 *989:77 0.00016345
50 *988:102 *997:87 2.6949e-05
51 *4195:A2 *4973:A 5.33005e-05
52 *4199:A2 *988:55 0.000193833
53 *4199:A2 *988:83 0.000317602
54 *4199:A2 *988:102 2.24646e-05
55 *4250:A0 *4252:A0 0.000161683
56 *4252:A1 *4252:A0 5.52302e-05
57 *4474:A2 *4474:A1 5.71472e-05
58 *4477:A1 *988:55 0.000100823
59 *4920:A *988:55 0.000213679
60 *4920:A *988:66 3.34295e-05
61 *4974:A *988:21 0.000449539
62 *180:86 *4973:A 0.000137437
63 *196:8 *4973:A 3.69047e-06
64 *196:14 *988:102 0.000315887
65 *309:10 *4346:A 1.56e-05
66 *309:10 *988:102 6.05161e-06
67 *345:8 *4384:B2 1.54142e-05
68 *386:12 *988:55 5.33005e-05
69 *386:25 *988:55 0.000125879
70 *387:10 *988:55 0.00015626
71 *772:48 *988:66 0.000762629
72 *772:48 *988:102 9.88136e-05
73 *774:8 *988:21 2.89016e-05
74 *781:33 *988:55 6.86693e-05
75 *859:16 *4384:B2 9.80173e-05
76 *859:29 *4384:B2 5.52238e-05
77 *973:35 *988:102 0.000176234
78 *987:8 *4973:A 0.00010096
79 *987:41 *4973:A 9.90367e-05
*RES
1 *4974:X *988:6 10.2464 
2 *988:6 *4252:A0 23.3179 
3 *988:6 *988:21 11.2143 
4 *988:21 *988:23 4.5 
5 *988:23 *988:27 6.14286 
6 *988:27 *4474:A1 12.7464 
7 *988:27 *4472:A 9.3 
8 *988:23 *988:55 20.75 
9 *988:55 *4382:A 13.8 
10 *988:55 *988:66 14.6429 
11 *988:66 *4384:B2 12.7286 
12 *988:66 *988:79 1.78571 
13 *988:79 *988:83 8.57143 
14 *988:83 *4973:A 23.3893 
15 *988:83 *988:102 14.9643 
16 *988:102 *4347:B2 9.3 
17 *988:102 *4346:A 9.83571 
18 *988:79 *4383:B 9.83571 
19 *988:21 *4473:A1 9.83571 
*END

*D_NET *989 0.011404
*CONN
*I *4383:A I *D sky130_fd_sc_hd__and4_1
*I *4272:B I *D sky130_fd_sc_hd__nand4_1
*I *4270:A1 I *D sky130_fd_sc_hd__a22o_1
*I *4346:B I *D sky130_fd_sc_hd__and4_1
*I *4347:A1 I *D sky130_fd_sc_hd__a22oi_2
*I *4295:B I *D sky130_fd_sc_hd__and4_1
*I *4271:B I *D sky130_fd_sc_hd__and4_1
*I *4280:B I *D sky130_fd_sc_hd__and4_1
*I *4281:A1 I *D sky130_fd_sc_hd__a22oi_2
*I *4267:B I *D sky130_fd_sc_hd__and3_1
*I *4975:X O *D sky130_fd_sc_hd__buf_2
*CAP
1 *4383:A 0.000733831
2 *4272:B 0.000184344
3 *4270:A1 0
4 *4346:B 6.66278e-05
5 *4347:A1 2.23854e-05
6 *4295:B 0
7 *4271:B 9.82457e-05
8 *4280:B 8.08079e-05
9 *4281:A1 0
10 *4267:B 0.000127818
11 *4975:X 0
12 *989:77 0.000628522
13 *989:70 0.000854022
14 *989:48 0.000278725
15 *989:39 0.000464668
16 *989:33 0.000836624
17 *989:27 0.000193924
18 *989:23 0.000413295
19 *989:19 0.00126698
20 *989:4 0.000468823
21 *4267:B *4180:A1 0.00018372
22 *4271:B *4271:C 7.73266e-05
23 *4271:B *4271:D 2.04825e-05
24 *4271:B *1001:40 9.58126e-05
25 *4272:B *4272:D 5.71472e-05
26 *4272:B *1007:74 2.24646e-05
27 *4272:B *1007:98 4.29471e-05
28 *4280:B *4280:C 5.33005e-05
29 *4280:B *4280:D 6.05161e-06
30 *4346:B *4346:C 0.000356035
31 *4383:A *4384:B1 9.60875e-05
32 *989:19 *1004:43 3.5707e-05
33 *989:19 *1010:80 5.10822e-05
34 *989:23 *1007:74 0.000173804
35 *989:23 *1010:80 0
36 *989:27 *4272:D 5.33005e-05
37 *989:27 *1005:40 3.94327e-05
38 *989:33 *1005:48 0.000131553
39 *989:33 *1007:74 3.17148e-05
40 *989:33 *1007:98 0.000381318
41 *989:39 *1004:49 0.000153047
42 *989:39 *1004:84 0.000310051
43 *989:39 *1005:56 4.1331e-06
44 *989:48 *4271:C 1.69115e-05
45 *989:48 *1005:56 7.95487e-05
46 *989:70 *1004:84 0.00035582
47 *989:77 *4346:C 0.000184745
48 *989:77 *1004:84 4.88637e-05
49 *4180:B2 *4272:B 9.25014e-06
50 *4180:B2 *989:23 0.000442785
51 *4271:A *4271:B 6.05161e-06
52 *4273:B *989:33 5.41794e-05
53 *4273:C *989:23 0
54 *4346:A *4346:B 5.52302e-05
55 *4384:B2 *4383:A 1.02936e-05
56 *4986:A *4271:B 0.000114759
57 *4986:A *989:48 0.000240217
58 *238:10 *989:27 2.6269e-05
59 *259:10 *989:77 5.71472e-05
60 *309:10 *4346:B 2.65105e-05
61 *345:8 *4383:A 0.000263524
62 *784:17 *989:48 9.45108e-06
63 *844:20 *989:39 0
64 *859:16 *4383:A 2.28499e-05
65 *986:57 *4280:B 8.43535e-06
66 *988:102 *4346:B 0.00011157
67 *988:102 *4347:A1 0
68 *988:102 *989:77 0.00016345
*RES
1 *4975:X *989:4 9.3 
2 *989:4 *4267:B 11.0679 
3 *989:4 *989:19 14.5714 
4 *989:19 *989:23 10.0893 
5 *989:23 *989:27 5.44643 
6 *989:27 *989:33 14.2857 
7 *989:33 *989:39 11.9107 
8 *989:39 *4281:A1 13.8 
9 *989:39 *989:48 3.46429 
10 *989:48 *4280:B 14.7464 
11 *989:48 *4271:B 16.3893 
12 *989:33 *989:70 6.28571 
13 *989:70 *4295:B 9.3 
14 *989:70 *989:77 9.57143 
15 *989:77 *4347:A1 9.72857 
16 *989:77 *4346:B 12.7107 
17 *989:27 *4270:A1 9.3 
18 *989:23 *4272:B 16.8536 
19 *989:19 *4383:A 20.925 
*END

*D_NET *990 0.00951394
*CONN
*I *4975:A I *D sky130_fd_sc_hd__buf_2
*I *4427:B I *D sky130_fd_sc_hd__and3_1
*I *4426:A1 I *D sky130_fd_sc_hd__a21oi_1
*I *4473:A2 I *D sky130_fd_sc_hd__o21ai_2
*I *4472:C I *D sky130_fd_sc_hd__and3_4
*I *4976:X O *D sky130_fd_sc_hd__buf_8
*CAP
1 *4975:A 0.000569765
2 *4427:B 0.000241404
3 *4426:A1 4.23056e-06
4 *4473:A2 6.60528e-05
5 *4472:C 0.000170328
6 *4976:X 0.000275339
7 *990:44 0.000284509
8 *990:18 0.000329092
9 *990:14 0.00126934
10 *990:10 0.00198285
11 *4427:B *4199:A1 5.83304e-05
12 *4427:B *993:57 0.000113005
13 *4472:C *4474:B1 5.33334e-05
14 *4472:C *993:36 3.18676e-05
15 *4472:C *993:38 2.89114e-05
16 *4472:C *993:53 2.26424e-05
17 *4472:C *995:48 0.000103275
18 *4473:A2 *995:110 6.71755e-05
19 *4975:A *1004:43 3.45894e-05
20 *4975:A *1007:23 0.000151333
21 *4975:A *1007:42 0.000148903
22 *4975:A *1010:80 1.37292e-05
23 *990:18 *995:48 2.14757e-05
24 *990:44 *995:48 4.46186e-06
25 *4158:A1 *4975:A 0.000320031
26 *4158:A1 *990:10 7.90803e-05
27 *4159:B *4975:A 4.79842e-05
28 *4177:B2 *4975:A 0.000146474
29 *4178:A1 *4975:A 0.000340066
30 *4180:B2 *4975:A 0.000140933
31 *4269:A *4975:A 0
32 *4473:A1 *4473:A2 5.33005e-05
33 *4474:A1 *4472:C 5.52302e-05
34 *4474:A2 *4426:A1 1.12323e-05
35 *4474:A2 *4427:B 1.721e-05
36 *4474:A2 *990:44 6.54117e-05
37 *4920:A *4427:B 5.97767e-05
38 *4920:A *4473:A2 5.33005e-05
39 *4920:A *990:18 5.52238e-05
40 *4920:A *990:44 1.43349e-05
41 *4974:A *990:14 0.000248788
42 *4976:A *990:10 0.000306042
43 *4976:A *990:14 4.58194e-05
44 *4991:A *4975:A 7.6021e-05
45 *797:24 *4975:A 0.000140933
46 *841:77 *4975:A 0.000524122
47 *841:77 *990:10 8.07951e-05
48 *988:6 *990:14 3.32631e-05
49 *988:21 *4473:A2 4.08637e-05
50 *988:21 *990:14 0.000177427
51 *988:21 *990:18 0.00018372
52 *988:27 *4472:C 0.000128154
53 *988:55 *4472:C 2.24646e-05
*RES
1 *4976:X *990:10 19.4786 
2 *990:10 *990:14 19 
3 *990:14 *990:18 2.5 
4 *990:18 *4472:C 23.05 
5 *990:18 *4473:A2 11.0679 
6 *990:14 *990:44 5.38393 
7 *990:44 *4426:A1 14.0768 
8 *990:44 *4427:B 18.4339 
9 *990:10 *4975:A 31.3714 
*END

*D_NET *991 0.00123641
*CONN
*I *4150:C I *D sky130_fd_sc_hd__or4_1
*I *5065:X O *D sky130_fd_sc_hd__clkbuf_1
*CAP
1 *4150:C 0.00033864
2 *5065:X 0.00033864
3 *4150:A *4150:C 1.99099e-05
4 *4150:B *4150:C 0.000539217
*RES
1 *5065:X *4150:C 35.35 
*END

*D_NET *992 0.0100525
*CONN
*I *4597:B1 I *D sky130_fd_sc_hd__o21a_1
*I *4557:C I *D sky130_fd_sc_hd__and3_1
*I *4662:A2_N I *D sky130_fd_sc_hd__o2bb2a_1
*I *4689:S I *D sky130_fd_sc_hd__mux2_1
*I *4663:B I *D sky130_fd_sc_hd__and4b_1
*I *4624:A2 I *D sky130_fd_sc_hd__a22oi_1
*I *4558:C I *D sky130_fd_sc_hd__nand3_1
*I *4556:A2 I *D sky130_fd_sc_hd__a22o_1
*I *4559:C I *D sky130_fd_sc_hd__nand4_1
*I *4170:A0 I *D sky130_fd_sc_hd__mux2_1
*I *4977:X O *D sky130_fd_sc_hd__buf_2
*CAP
1 *4597:B1 0
2 *4557:C 0.000145075
3 *4662:A2_N 0.000300808
4 *4689:S 0
5 *4663:B 3.81689e-05
6 *4624:A2 0
7 *4558:C 0
8 *4556:A2 0.000138615
9 *4559:C 0
10 *4170:A0 0.000195184
11 *4977:X 0
12 *992:98 0.000354738
13 *992:89 0.0005004
14 *992:85 0.000800654
15 *992:79 0.000446438
16 *992:62 0.000384636
17 *992:51 0.000319332
18 *992:29 0.000334753
19 *992:25 0.000702149
20 *992:4 0.000567339
21 *4556:A2 *994:30 0.000172375
22 *4556:A2 *994:43 2.31791e-05
23 *4556:A2 *996:19 4.59033e-05
24 *4662:A2_N *4663:A_N 4.17702e-05
25 *4663:B *4663:A_N 0.000100165
26 *992:25 *4979:A 0
27 *992:29 *994:17 0.000575151
28 *992:29 *994:30 2.41865e-05
29 *992:89 *4663:A_N 0
30 *992:98 *4663:A_N 0.000260806
31 *4168:S *4170:A0 5.70551e-05
32 *4168:S *992:25 2.24763e-05
33 *4169:B *992:25 0.000119448
34 *4170:A1 *4170:A0 1.40415e-05
35 *4557:A *992:79 5.52302e-05
36 *4557:A *992:85 4.5424e-05
37 *4598:B *992:79 9.11365e-06
38 *4624:B1 *992:62 1.75711e-05
39 *4630:A3 *4557:C 0
40 *4844:D *992:25 0.000127014
41 *4977:A *992:25 5.71472e-05
42 *4977:A *992:29 4.35131e-05
43 *4978:A *992:29 3.34783e-05
44 *170:59 *992:25 0
45 *515:6 *992:62 0.000268964
46 *515:6 *992:79 1.32782e-06
47 *553:8 *992:79 5.03787e-05
48 *553:26 *992:85 0.000537165
49 *580:18 *4557:C 0
50 *617:10 *4662:A2_N 0.000139907
51 *617:10 *992:89 0
52 *617:10 *992:98 0.000188586
53 *642:18 *4662:A2_N 0.000114646
54 *788:8 *992:25 0.000222986
55 *975:38 *4662:A2_N 2.12647e-05
56 *978:20 *4556:A2 0.000175643
57 *978:73 *4557:C 9.50968e-06
58 *981:31 *992:29 0.000126446
59 *981:37 *992:79 0
60 *981:68 *992:29 0.000268514
61 *981:85 *4556:A2 0.000164561
62 *981:85 *992:29 7.83659e-05
63 *981:98 *4556:A2 3.51442e-05
64 *983:10 *992:62 1.98839e-05
65 *983:29 *992:51 0.000274294
66 *983:29 *992:62 4.58976e-05
67 *984:27 *992:25 0.000174563
68 *984:27 *992:51 3.68898e-05
69 *984:27 *992:62 2.42516e-05
70 *984:27 *992:79 0
71 *984:46 *992:79 0
*RES
1 *4977:X *992:4 9.3 
2 *992:4 *4170:A0 11.8893 
3 *992:4 *992:25 18.3214 
4 *992:25 *992:29 12.2143 
5 *992:29 *4559:C 13.8 
6 *992:29 *4556:A2 18.1393 
7 *992:25 *992:51 3.41071 
8 *992:51 *4558:C 9.3 
9 *992:51 *992:62 4.65625 
10 *992:62 *4624:A2 9.3 
11 *992:62 *992:79 12.4688 
12 *992:79 *992:85 10.8036 
13 *992:85 *992:89 11.6071 
14 *992:89 *4663:B 10.2464 
15 *992:89 *992:98 2.58929 
16 *992:98 *4689:S 9.3 
17 *992:98 *4662:A2_N 14.2821 
18 *992:85 *4557:C 15.9429 
19 *992:79 *4597:B1 9.3 
*END

*D_NET *993 0.00647967
*CONN
*I *4473:B1 I *D sky130_fd_sc_hd__o21ai_2
*I *4472:B I *D sky130_fd_sc_hd__and3_4
*I *4427:C I *D sky130_fd_sc_hd__and3_1
*I *4199:A1 I *D sky130_fd_sc_hd__a221o_1
*I *4426:A2 I *D sky130_fd_sc_hd__a21oi_1
*I *4474:B1 I *D sky130_fd_sc_hd__o21a_1
*I *4518:B2 I *D sky130_fd_sc_hd__a2bb2o_1
*I *4554:A2 I *D sky130_fd_sc_hd__a21oi_2
*I *4978:X O *D sky130_fd_sc_hd__buf_6
*CAP
1 *4473:B1 7.19737e-05
2 *4472:B 0
3 *4427:C 1.69897e-05
4 *4199:A1 6.65104e-05
5 *4426:A2 2.49936e-05
6 *4474:B1 0.000119961
7 *4518:B2 0.000197203
8 *4554:A2 0.000222077
9 *4978:X 0
10 *993:57 0.000236
11 *993:53 0.000357721
12 *993:38 0.000340112
13 *993:36 0.000170001
14 *993:34 0.000774819
15 *993:19 0.000874449
16 *993:6 0.000342562
17 *4199:A1 *995:68 8.25098e-05
18 *4554:A2 *999:29 0
19 *993:19 *999:29 0
20 *993:34 *999:29 0
21 *993:53 *995:48 0
22 *4427:A *993:57 9.60875e-05
23 *4427:B *4199:A1 5.83304e-05
24 *4427:B *993:57 0.000113005
25 *4472:C *4474:B1 5.33334e-05
26 *4472:C *993:36 3.18676e-05
27 *4472:C *993:38 2.89114e-05
28 *4472:C *993:53 2.26424e-05
29 *4474:A1 *4474:B1 3.14193e-05
30 *4474:A2 *4199:A1 8.15095e-05
31 *4518:A2_N *4518:B2 0.000228558
32 *4522:A1 *993:19 3.92854e-05
33 *4522:A2 *993:19 0
34 *4522:A2 *993:34 0
35 *4920:A *4199:A1 5.90443e-06
36 *4978:A *4554:A2 0
37 *4978:A *993:19 0
38 *5106:A *993:34 4.25809e-05
39 *5107:A *4199:A1 0.000126439
40 *386:12 *4199:A1 3.57844e-05
41 *431:8 *4473:B1 5.83304e-05
42 *431:8 *993:34 0
43 *431:12 *993:34 0
44 *431:37 *4473:B1 0.000144512
45 *432:8 *4473:B1 0.000250208
46 *432:8 *993:53 0
47 *432:42 *4473:B1 0
48 *511:12 *4554:A2 0.000174361
49 *866:65 *4426:A2 3.69047e-06
50 *975:124 *4426:A2 5.52302e-05
51 *975:124 *993:57 8.46829e-05
52 *979:12 *4199:A1 1.41029e-05
53 *979:36 *4554:A2 0.000446597
54 *985:51 *993:53 8.05006e-05
55 *985:61 *4473:B1 0
56 *988:27 *993:53 0.000128154
57 *988:55 *993:53 0.00014576
*RES
1 *4978:X *993:6 13.8 
2 *993:6 *4554:A2 20.2821 
3 *993:6 *993:19 2.25 
4 *993:19 *4518:B2 17.2107 
5 *993:19 *993:34 13.3036 
6 *993:34 *993:36 2.17857 
7 *993:36 *993:38 0.535714 
8 *993:38 *4474:B1 11.4964 
9 *993:38 *993:53 13.6786 
10 *993:53 *993:57 3.32143 
11 *993:57 *4426:A2 9.83571 
12 *993:57 *4199:A1 21.1571 
13 *993:53 *4427:C 9.49643 
14 *993:36 *4472:B 9.3 
15 *993:34 *4473:B1 21.4607 
*END

*D_NET *994 0.0159359
*CONN
*I *4630:A2 I *D sky130_fd_sc_hd__a31o_1
*I *4632:B I *D sky130_fd_sc_hd__and4b_1
*I *4662:B1 I *D sky130_fd_sc_hd__o2bb2a_1
*I *4663:A_N I *D sky130_fd_sc_hd__and4b_1
*I *4631:A2_N I *D sky130_fd_sc_hd__o2bb2a_1
*I *4514:A2 I *D sky130_fd_sc_hd__a22o_1
*I *4513:C I *D sky130_fd_sc_hd__and4_1
*I *4556:B1 I *D sky130_fd_sc_hd__a22o_1
*I *4559:D I *D sky130_fd_sc_hd__nand4_1
*I *4168:A0 I *D sky130_fd_sc_hd__mux2_1
*I *4979:X O *D sky130_fd_sc_hd__clkbuf_2
*CAP
1 *4630:A2 0
2 *4632:B 8.47787e-05
3 *4662:B1 0
4 *4663:A_N 0.000505735
5 *4631:A2_N 0
6 *4514:A2 0
7 *4513:C 0
8 *4556:B1 0
9 *4559:D 5.85006e-05
10 *4168:A0 0.000174856
11 *4979:X 0
12 *994:94 0.000742301
13 *994:80 0.000480308
14 *994:69 0.000685525
15 *994:63 0.0011595
16 *994:52 0.000766855
17 *994:43 0.000557762
18 *994:30 0.000496938
19 *994:17 0.000451936
20 *994:4 0.000495196
21 *4168:A0 *4979:A 2.44318e-05
22 *4559:D *4599:B 4.58194e-05
23 *4559:D *1000:35 9.41642e-05
24 *994:17 *4979:A 2.44318e-05
25 *994:43 *996:49 0.000219711
26 *994:43 *996:73 0.000310292
27 *994:43 *997:23 0.000245832
28 *994:43 *997:27 0
29 *994:43 *997:136 0.000215348
30 *994:43 *998:25 0.00109201
31 *994:52 *4514:B1 3.69581e-05
32 *994:52 *996:73 4.08637e-05
33 *994:52 *996:81 2.95641e-05
34 *994:52 *996:100 1.21289e-05
35 *994:63 *996:100 2.89016e-05
36 *994:63 *1000:35 0
37 *4514:A1 *994:63 5.80706e-06
38 *4514:B2 *994:52 7.17235e-05
39 *4556:A1 *994:30 9.15804e-05
40 *4556:A2 *994:30 0.000172375
41 *4556:A2 *994:43 2.31791e-05
42 *4561:B2 *994:30 0
43 *4561:B2 *994:43 0
44 *4597:A2 *994:17 0
45 *4632:C *4632:B 2.59355e-05
46 *4632:D *4632:B 1.21258e-05
47 *4633:B *994:80 0.000156196
48 *4660:A1 *994:69 0.000125724
49 *4660:B1 *994:63 1.19309e-05
50 *4660:B1 *994:69 4.25809e-05
51 *4662:A2_N *4663:A_N 4.17702e-05
52 *4662:B2 *994:94 0.000100831
53 *4663:B *4663:A_N 0.000100165
54 *4977:A *4168:A0 0.000230475
55 *4977:A *994:17 3.75052e-05
56 *4978:A *994:43 2.6949e-05
57 *471:12 *994:52 0.00014183
58 *580:18 *994:69 0.000650922
59 *580:18 *994:80 4.08637e-05
60 *587:10 *994:80 4.46186e-06
61 *587:10 *994:94 0.000104236
62 *614:10 *4663:A_N 1.88175e-05
63 *617:10 *4663:A_N 1.75263e-05
64 *617:31 *4663:A_N 9.84729e-05
65 *617:31 *994:94 8.69355e-05
66 *642:18 *4663:A_N 0.000140243
67 *642:18 *994:94 9.67754e-05
68 *796:23 *994:94 8.25843e-06
69 *975:31 *4663:A_N 0.00024238
70 *975:38 *4663:A_N 0.000305692
71 *975:52 *4663:A_N 0.00043801
72 *975:52 *994:94 1.99992e-05
73 *975:63 *994:80 6.98302e-05
74 *975:63 *994:94 0.000139826
75 *975:74 *994:80 0.000246057
76 *976:51 *994:94 7.89309e-05
77 *976:74 *994:94 0.000127664
78 *977:23 *994:63 0
79 *978:28 *994:43 0
80 *978:49 *994:63 0
81 *978:60 *994:63 0.000600511
82 *978:60 *994:69 9.25014e-06
83 *978:96 *994:63 0
84 *981:98 *994:43 7.25296e-05
85 *983:29 *994:17 0.00059933
86 *983:29 *994:30 7.90803e-05
87 *983:60 *994:63 0
88 *983:64 *994:43 4.08637e-05
89 *983:64 *994:52 5.52302e-05
90 *983:70 *994:43 0.00018372
91 *992:29 *994:17 0.000575151
92 *992:29 *994:30 2.41865e-05
93 *992:89 *4663:A_N 0
94 *992:98 *4663:A_N 0.000260806
*RES
1 *4979:X *994:4 9.3 
2 *994:4 *4168:A0 11.8893 
3 *994:4 *994:17 14.375 
4 *994:17 *4559:D 15.175 
5 *994:17 *994:30 2.55357 
6 *994:30 *4556:B1 13.8 
7 *994:30 *994:43 20.5179 
8 *994:43 *4513:C 9.3 
9 *994:43 *994:52 3.83929 
10 *994:52 *4514:A2 9.3 
11 *994:52 *994:63 17.6071 
12 *994:63 *994:69 12.4286 
13 *994:69 *4631:A2_N 9.3 
14 *994:69 *994:80 9.10714 
15 *994:80 *994:94 19.8929 
16 *994:94 *4663:A_N 33.4591 
17 *994:94 *4662:B1 9.3 
18 *994:80 *4632:B 14.7464 
19 *994:63 *4630:A2 13.8 
*END

*D_NET *995 0.0172206
*CONN
*I *4519:A2 I *D sky130_fd_sc_hd__a31o_1
*I *4476:D_N I *D sky130_fd_sc_hd__or4bb_4
*I *4475:B2 I *D sky130_fd_sc_hd__a2bb2o_1
*I *4195:A1 I *D sky130_fd_sc_hd__a22o_1
*I *4383:C I *D sky130_fd_sc_hd__and4_1
*I *4384:A2 I *D sky130_fd_sc_hd__a22oi_2
*I *4382:B I *D sky130_fd_sc_hd__nand2_1
*I *4599:B I *D sky130_fd_sc_hd__nand2_1
*I *4979:A I *D sky130_fd_sc_hd__clkbuf_2
*I *4980:X O *D sky130_fd_sc_hd__clkbuf_4
*CAP
1 *4519:A2 0
2 *4476:D_N 0.000437573
3 *4475:B2 4.57884e-05
4 *4195:A1 0.00015905
5 *4383:C 7.18375e-05
6 *4384:A2 0
7 *4382:B 0.000144733
8 *4599:B 0.000851269
9 *4979:A 0.000400612
10 *4980:X 1.55603e-05
11 *995:110 0.000939967
12 *995:83 7.18375e-05
13 *995:81 0.000393997
14 *995:68 0.000796218
15 *995:48 0.00131019
16 *995:40 0.00110849
17 *995:21 0.00182064
18 *995:8 0.000714093
19 *4599:B *1000:35 0.000545803
20 *4168:A0 *4979:A 2.44318e-05
21 *4168:A1 *4979:A 0.00010096
22 *4168:S *4979:A 2.44318e-05
23 *4199:A1 *995:68 8.25098e-05
24 *4383:B *4383:C 2.44318e-05
25 *4384:B2 *4383:C 5.33005e-05
26 *4428:C *4382:B 3.57366e-05
27 *4472:C *995:48 0.000103275
28 *4473:A2 *995:110 6.71755e-05
29 *4474:A2 *995:48 6.76272e-05
30 *4476:A *4476:D_N 0.000363002
31 *4476:B *4476:D_N 1.39726e-05
32 *4477:A1 *995:68 0.000152333
33 *4518:A2_N *995:40 9.25014e-06
34 *4519:A3 *995:40 5.52238e-05
35 *4519:B1 *995:40 0.000101921
36 *4522:A2 *995:40 0
37 *4554:A1 *995:40 0.000362531
38 *4554:B1 *995:48 5.80706e-06
39 *4559:B *4599:B 5.33005e-05
40 *4559:D *4599:B 4.58194e-05
41 *4600:B *4599:B 9.60771e-05
42 *4844:CLK *4979:A 0.000172375
43 *4919:A *4382:B 9.41642e-05
44 *4920:A *995:48 8.86597e-05
45 *4920:A *995:68 0.00026367
46 *4920:A *995:110 4.18895e-05
47 *4977:A *4979:A 0.000274294
48 *4978:A *4979:A 0
49 *4978:A *995:21 0
50 *4978:A *995:40 0
51 *4982:A *995:40 0.000178111
52 *5107:A *995:68 3.97677e-05
53 *199:8 *995:68 5.33005e-05
54 *343:21 *4382:B 1.21258e-05
55 *345:8 *4383:C 0.000265447
56 *386:12 *995:68 0.000191083
57 *431:37 *4476:D_N 9.22103e-06
58 *431:37 *995:110 1.15281e-05
59 *432:42 *4476:D_N 5.62995e-05
60 *432:42 *995:110 0.000316184
61 *433:8 *995:48 0.000160507
62 *516:6 *4599:B 0.000144773
63 *516:23 *4599:B 0.00030669
64 *772:48 *4195:A1 0.000343737
65 *792:25 *995:8 1.92905e-05
66 *859:29 *4195:A1 0.000226829
67 *859:29 *995:81 9.25014e-06
68 *979:12 *995:48 0
69 *979:12 *995:68 0.000205234
70 *979:12 *995:81 0.000261204
71 *981:21 *995:8 5.52302e-05
72 *985:27 *995:40 0.000325581
73 *985:38 *995:40 3.17148e-05
74 *985:51 *995:48 0
75 *985:51 *995:110 2.95726e-05
76 *985:61 *4476:D_N 5.12937e-05
77 *988:55 *995:48 4.98055e-06
78 *988:55 *995:68 0.000326608
79 *988:66 *4195:A1 3.17148e-05
80 *988:66 *995:68 4.56437e-05
81 *988:66 *995:81 0.00072695
82 *988:79 *4383:C 0.000124521
83 *990:18 *995:48 2.14757e-05
84 *990:44 *995:48 4.46186e-06
85 *992:25 *4979:A 0
86 *993:53 *995:48 0
87 *994:17 *4979:A 2.44318e-05
*RES
1 *4980:X *995:8 14.3357 
2 *995:8 *4979:A 22.4964 
3 *995:8 *995:21 4.98214 
4 *995:21 *4599:B 32.0143 
5 *995:21 *995:40 20 
6 *995:40 *995:48 17.9643 
7 *995:48 *995:68 26.1429 
8 *995:68 *4382:B 15.8893 
9 *995:68 *995:81 9.23214 
10 *995:81 *995:83 4.5 
11 *995:83 *4384:A2 9.3 
12 *995:83 *4383:C 11.8893 
13 *995:81 *4195:A1 19.4429 
14 *995:48 *995:110 6.28571 
15 *995:110 *4475:B2 10.0321 
16 *995:110 *4476:D_N 17.3893 
17 *995:40 *4519:A2 9.3 
*END

*D_NET *996 0.0125835
*CONN
*I *4513:D I *D sky130_fd_sc_hd__and4_1
*I *4591:B I *D sky130_fd_sc_hd__and4b_1
*I *4592:A2_N I *D sky130_fd_sc_hd__o2bb2a_1
*I *4631:B1 I *D sky130_fd_sc_hd__o2bb2a_1
*I *4514:B1 I *D sky130_fd_sc_hd__a22o_1
*I *4468:C I *D sky130_fd_sc_hd__and4_1
*I *4469:A2 I *D sky130_fd_sc_hd__a22o_1
*I *4560:B I *D sky130_fd_sc_hd__nand4_1
*I *4561:A2 I *D sky130_fd_sc_hd__a22o_1
*I *4166:A0 I *D sky130_fd_sc_hd__mux2_1
*I *4981:X O *D sky130_fd_sc_hd__buf_4
*CAP
1 *4513:D 0
2 *4591:B 0.000170859
3 *4592:A2_N 0.00015988
4 *4631:B1 0.000121295
5 *4514:B1 3.54174e-05
6 *4468:C 0.000145387
7 *4469:A2 0
8 *4560:B 5.1096e-06
9 *4561:A2 1.70795e-05
10 *4166:A0 0
11 *4981:X 0.000205069
12 *996:102 0.000309424
13 *996:100 0.000597393
14 *996:81 0.000509603
15 *996:73 0.00015577
16 *996:53 0.000344864
17 *996:49 0.000648947
18 *996:28 0.000481173
19 *996:19 0.000818113
20 *996:6 0.00089964
21 *4468:C *4469:B1 0.000114209
22 *4468:C *1004:137 0.000137983
23 *4591:B *4591:A_N 1.58163e-05
24 *4631:B1 *997:136 0.000434783
25 *996:6 *4981:A 9.80173e-05
26 *996:49 *997:27 0
27 *996:49 *997:136 0.000221641
28 *996:53 *4469:B1 5.80706e-06
29 *996:53 *998:25 0.00017309
30 *996:73 *997:136 4.18895e-05
31 *996:100 *4548:B1 9.60939e-05
32 *996:100 *997:136 0.00046282
33 *996:102 *997:136 7.6644e-05
34 *4166:S *996:6 0.000103626
35 *4166:S *996:19 0.00010096
36 *4468:A *4468:C 6.05161e-06
37 *4514:B2 *4514:B1 1.97695e-05
38 *4514:B2 *996:73 0.000178847
39 *4514:B2 *996:81 0.000142856
40 *4556:A2 *996:19 4.59033e-05
41 *4560:A *996:49 4.62539e-05
42 *4560:C *4561:A2 0
43 *4560:C *996:19 1.21289e-05
44 *4560:C *996:28 0.000100625
45 *4561:B1 *4561:A2 5.7661e-06
46 *4562:B *996:28 1.95646e-05
47 *4562:B *996:49 8.07313e-05
48 *4591:C *4591:B 6.05161e-06
49 *4592:A1_N *4592:A2_N 6.05161e-06
50 *4592:B2 *4592:A2_N 6.57032e-05
51 *4968:A *4468:C 2.6949e-05
52 *4968:A *996:49 0.0001008
53 *4968:A *996:53 5.90443e-06
54 *161:41 *996:100 3.97543e-05
55 *516:23 *996:49 0
56 *517:8 *996:49 9.22103e-06
57 *519:20 *996:49 5.52238e-05
58 *556:12 *4591:B 8.27238e-06
59 *977:23 *4631:B1 0.000438927
60 *977:23 *996:100 0.000570759
61 *977:23 *996:102 6.98302e-05
62 *978:20 *4561:A2 0
63 *978:20 *996:6 4.35567e-05
64 *978:20 *996:19 0.000436967
65 *978:43 *996:81 0.000276211
66 *978:43 *996:100 0.00038945
67 *981:102 *996:49 5.41794e-05
68 *981:122 *996:73 6.27058e-05
69 *983:60 *996:81 5.58941e-05
70 *983:70 *4468:C 0.000110844
71 *983:70 *996:53 0.000177867
72 *984:46 *996:53 0.000527085
73 *994:43 *996:49 0.000219711
74 *994:43 *996:73 0.000310292
75 *994:52 *4514:B1 3.69581e-05
76 *994:52 *996:73 4.08637e-05
77 *994:52 *996:81 2.95641e-05
78 *994:52 *996:100 1.21289e-05
79 *994:63 *996:100 2.89016e-05
*RES
1 *4981:X *996:6 13.1214 
2 *996:6 *4166:A0 9.3 
3 *996:6 *996:19 11.375 
4 *996:19 *4561:A2 9.72857 
5 *996:19 *996:28 2.17857 
6 *996:28 *4560:B 9.72857 
7 *996:28 *996:49 17.375 
8 *996:49 *996:53 11.6071 
9 *996:53 *4469:A2 13.8 
10 *996:53 *4468:C 18.0143 
11 *996:49 *996:73 3.41071 
12 *996:73 *996:81 12.3214 
13 *996:81 *4514:B1 10.6929 
14 *996:81 *996:100 17.3929 
15 *996:100 *996:102 1.03571 
16 *996:102 *4631:B1 19.3893 
17 *996:102 *4592:A2_N 15.5679 
18 *996:100 *4591:B 15.5679 
19 *996:73 *4513:D 9.3 
*END

*D_NET *997 0.0214454
*CONN
*I *4632:A_N I *D sky130_fd_sc_hd__and4b_1
*I *4346:C I *D sky130_fd_sc_hd__and4_1
*I *4347:A2 I *D sky130_fd_sc_hd__a22oi_2
*I *4192:A1 I *D sky130_fd_sc_hd__a22o_1
*I *4383:D I *D sky130_fd_sc_hd__and4_1
*I *4384:B1 I *D sky130_fd_sc_hd__a22oi_2
*I *4423:A2 I *D sky130_fd_sc_hd__a22o_1
*I *4422:C I *D sky130_fd_sc_hd__nand4_1
*I *4981:A I *D sky130_fd_sc_hd__buf_4
*I *4982:X O *D sky130_fd_sc_hd__buf_2
*CAP
1 *4632:A_N 0
2 *4346:C 0.000420394
3 *4347:A2 0
4 *4192:A1 0.000204398
5 *4383:D 5.96282e-05
6 *4384:B1 0.00066208
7 *4423:A2 0
8 *4422:C 5.97488e-05
9 *4981:A 0.000118873
10 *4982:X 0
11 *997:136 0.000834366
12 *997:104 0.000518148
13 *997:87 0.000568142
14 *997:76 0.000325618
15 *997:55 0.00193424
16 *997:42 0.00160957
17 *997:27 0.00127543
18 *997:23 0.00239554
19 *997:4 0.000801766
20 *997:23 *998:25 9.4542e-05
21 *997:27 *999:29 0.000350905
22 *997:42 *999:29 0
23 *997:55 *999:42 0
24 *997:55 *1000:97 0
25 *997:136 *4549:A_N 9.41642e-05
26 *997:136 *4592:B1 0.000218734
27 *997:136 *998:98 0.000381325
28 *997:136 *1000:43 9.41642e-05
29 *997:136 *1000:124 0.000704608
30 *4166:A1 *4981:A 0
31 *4166:A1 *997:23 0.000228558
32 *4166:S *4981:A 5.33005e-05
33 *4192:B2 *4192:A1 0.000137983
34 *4346:B *4346:C 0.000356035
35 *4376:A *997:55 0
36 *4383:A *4384:B1 9.60875e-05
37 *4384:B2 *4384:B1 4.67819e-05
38 *4422:A *997:42 1.81478e-05
39 *4422:B *997:27 0.00032782
40 *4422:B *997:42 2.04825e-05
41 *4423:A1 *997:42 0
42 *4423:B2 *997:42 6.04162e-05
43 *4425:A *997:55 8.49707e-05
44 *4459:B1 *997:55 0
45 *4631:B1 *997:136 0.000434783
46 *4982:A *997:23 6.4443e-05
47 *161:19 *997:136 0.0001098
48 *161:30 *997:136 0.000180965
49 *170:55 *4981:A 0.00012401
50 *170:59 *4981:A 3.17148e-05
51 *180:86 *4384:B1 0.000128146
52 *196:14 *4346:C 2.49484e-05
53 *196:14 *997:87 9.33907e-05
54 *196:14 *997:104 8.79872e-05
55 *309:10 *4346:C 5.19842e-06
56 *347:12 *997:55 0.000136735
57 *382:10 *997:42 0
58 *382:10 *997:55 0
59 *384:8 *997:55 0
60 *435:10 *997:27 7.83587e-05
61 *436:14 *4422:C 2.04825e-05
62 *436:14 *997:27 0.00017244
63 *519:20 *997:136 0.000137505
64 *546:10 *997:136 0.000600387
65 *772:48 *4192:A1 7.83587e-05
66 *792:29 *997:136 5.4061e-05
67 *857:12 *997:55 0.000225314
68 *859:29 *4192:A1 4.15914e-05
69 *864:12 *997:27 0
70 *865:10 *4346:C 0
71 *865:10 *4383:D 0
72 *865:10 *997:87 0
73 *865:10 *997:104 0
74 *977:23 *997:136 0.000106299
75 *977:106 *4384:B1 9.51102e-05
76 *977:106 *997:55 0.00027246
77 *978:20 *4981:A 2.28499e-05
78 *981:98 *997:23 0.000534229
79 *981:98 *997:136 0.000433256
80 *981:102 *997:27 0
81 *981:122 *997:136 0.000222666
82 *984:46 *997:136 8.58864e-05
83 *988:83 *4383:D 2.34204e-05
84 *988:83 *997:87 8.77116e-05
85 *988:102 *997:87 2.6949e-05
86 *989:77 *4346:C 0.000184745
87 *994:43 *997:23 0.000245832
88 *994:43 *997:27 0
89 *994:43 *997:136 0.000215348
90 *996:6 *4981:A 9.80173e-05
91 *996:49 *997:27 0
92 *996:49 *997:136 0.000221641
93 *996:73 *997:136 4.18895e-05
94 *996:100 *997:136 0.00046282
95 *996:102 *997:136 7.6644e-05
*RES
1 *4982:X *997:4 9.3 
2 *997:4 *4981:A 21.1929 
3 *997:4 *997:23 13.3036 
4 *997:23 *997:27 25.7232 
5 *997:27 *4422:C 14.6125 
6 *997:27 *997:42 4.5625 
7 *997:42 *4423:A2 13.8 
8 *997:42 *997:55 25.4286 
9 *997:55 *4384:B1 27.6214 
10 *997:55 *997:76 4.5 
11 *997:76 *4383:D 14.8357 
12 *997:76 *997:87 6.19643 
13 *997:87 *4192:A1 26.425 
14 *997:87 *997:104 2.25 
15 *997:104 *4347:A2 13.8 
16 *997:104 *4346:C 19.9964 
17 *997:23 *997:136 47.5357 
18 *997:136 *4632:A_N 13.8 
*END

*D_NET *998 0.0198014
*CONN
*I *4547:A2 I *D sky130_fd_sc_hd__a31o_1
*I *4512:B I *D sky130_fd_sc_hd__nand2_1
*I *4548:A2_N I *D sky130_fd_sc_hd__o2bb2a_1
*I *4549:B I *D sky130_fd_sc_hd__and4b_1
*I *4591:A_N I *D sky130_fd_sc_hd__and4b_1
*I *4592:B1 I *D sky130_fd_sc_hd__o2bb2a_1
*I *4422:D I *D sky130_fd_sc_hd__nand4_1
*I *4468:D I *D sky130_fd_sc_hd__and4_1
*I *4469:B1 I *D sky130_fd_sc_hd__a22o_1
*I *4164:A0 I *D sky130_fd_sc_hd__mux2_1
*I *4983:X O *D sky130_fd_sc_hd__buf_4
*CAP
1 *4547:A2 0
2 *4512:B 0.000155131
3 *4548:A2_N 0
4 *4549:B 0
5 *4591:A_N 2.59948e-05
6 *4592:B1 0.000157476
7 *4422:D 0.000736848
8 *4468:D 4.36033e-05
9 *4469:B1 0.000226114
10 *4164:A0 0
11 *4983:X 6.8767e-05
12 *998:98 0.000308748
13 *998:92 0.000309546
14 *998:84 0.000245189
15 *998:82 0.00046124
16 *998:76 0.000513369
17 *998:46 0.000817628
18 *998:29 0.000413633
19 *998:25 0.00229904
20 *998:6 0.00194928
21 *4468:D *1004:137 5.33005e-05
22 *998:6 *4983:A 9.90367e-05
23 *4164:A1 *998:6 5.52302e-05
24 *4164:A1 *998:25 4.18895e-05
25 *4164:S *998:25 2.44318e-05
26 *4165:B *998:6 5.23057e-05
27 *4166:A1 *998:25 9.20357e-05
28 *4260:S *998:25 0.00061493
29 *4261:B *998:25 0.000144773
30 *4422:A *4422:D 0.00014285
31 *4422:B *4422:D 0.0001399
32 *4468:A *4469:B1 9.71197e-05
33 *4468:C *4469:B1 0.000114209
34 *4506:A1_N *4512:B 0.000211913
35 *4506:A1_N *998:84 0.000115474
36 *4506:A1_N *998:92 0.000220448
37 *4515:A_N *998:76 1.21289e-05
38 *4515:A_N *998:82 0.000191409
39 *4515:B *998:76 0
40 *4515:B *998:82 0.000218045
41 *4547:A3 *998:82 5.52238e-05
42 *4550:B *998:92 0
43 *4591:B *4591:A_N 1.58163e-05
44 *4592:B2 *4592:B1 9.41642e-05
45 *4968:A *4469:B1 0.000152333
46 *4982:A *998:25 0.000175493
47 *161:30 *4592:B1 3.17148e-05
48 *161:41 *4592:B1 0.000187019
49 *161:41 *998:98 0.000390575
50 *170:40 *998:6 3.39935e-05
51 *170:40 *998:25 2.07491e-05
52 *436:14 *4422:D 1.24368e-05
53 *480:12 *4512:B 4.58194e-05
54 *504:20 *4512:B 9.41642e-05
55 *511:12 *998:82 0.000276582
56 *511:12 *998:84 2.56601e-05
57 *511:12 *998:92 1.41706e-05
58 *519:20 *998:92 3.73468e-05
59 *519:20 *998:98 2.59355e-05
60 *546:10 *998:92 9.41642e-05
61 *546:10 *998:98 1.98839e-05
62 *556:12 *4591:A_N 2.59355e-05
63 *792:29 *4422:D 0.000848983
64 *792:29 *998:29 0.000478012
65 *792:29 *998:46 0.000126439
66 *895:18 *998:6 0.000404707
67 *895:18 *998:25 0.000358971
68 *977:46 *4512:B 0
69 *977:46 *998:84 0
70 *977:46 *998:92 0
71 *979:36 *998:25 9.60939e-05
72 *979:36 *998:76 0.000474132
73 *983:70 *998:25 0.000171368
74 *983:70 *998:29 0.000478012
75 *983:70 *998:46 0.00011891
76 *983:89 *4422:D 0.00106783
77 *983:89 *998:46 1.02504e-05
78 *994:43 *998:25 0.00109201
79 *996:53 *4469:B1 5.80706e-06
80 *996:53 *998:25 0.00017309
81 *997:23 *998:25 9.4542e-05
82 *997:136 *4592:B1 0.000218734
83 *997:136 *998:98 0.000381325
*RES
1 *4983:X *998:6 13.1214 
2 *998:6 *4164:A0 9.3 
3 *998:6 *998:25 41.2143 
4 *998:25 *998:29 10.6964 
5 *998:29 *4469:B1 26.925 
6 *998:29 *998:46 1.64286 
7 *998:46 *4468:D 14.3357 
8 *998:46 *4422:D 33.4607 
9 *998:25 *998:76 5.48214 
10 *998:76 *998:82 11.625 
11 *998:82 *998:84 1.64286 
12 *998:84 *998:92 8.73214 
13 *998:92 *998:98 10.0179 
14 *998:98 *4592:B1 18.0143 
15 *998:98 *4591:A_N 14.3357 
16 *998:92 *4549:B 9.3 
17 *998:84 *4548:A2_N 13.8 
18 *998:82 *4512:B 17.6036 
19 *998:76 *4547:A2 9.3 
*END

*D_NET *999 0.0188997
*CONN
*I *4346:D I *D sky130_fd_sc_hd__and4_1
*I *4318:C I *D sky130_fd_sc_hd__and4_1
*I *4347:B1 I *D sky130_fd_sc_hd__a22oi_2
*I *4189:A1 I *D sky130_fd_sc_hd__a22o_1
*I *4319:A2 I *D sky130_fd_sc_hd__a22oi_2
*I *4381:B I *D sky130_fd_sc_hd__nand2_1
*I *4423:B1 I *D sky130_fd_sc_hd__a22o_1
*I *4983:A I *D sky130_fd_sc_hd__buf_4
*I *4984:X O *D sky130_fd_sc_hd__buf_2
*CAP
1 *4346:D 0
2 *4318:C 3.82418e-05
3 *4347:B1 0.000170653
4 *4189:A1 0.00128784
5 *4319:A2 0
6 *4381:B 0.000251125
7 *4423:B1 8.17445e-05
8 *4983:A 0.000388323
9 *4984:X 0
10 *999:73 0.00143913
11 *999:67 0.000485265
12 *999:65 0.000440274
13 *999:59 0.00083774
14 *999:42 0.00137089
15 *999:29 0.00293716
16 *999:4 0.00272301
17 *4189:A1 *4319:B1 0
18 *4189:A1 *1001:46 0
19 *999:59 *1001:77 0
20 *999:65 *1001:77 0
21 *999:67 *1005:106 4.35336e-05
22 *4164:A1 *4983:A 2.8266e-06
23 *4165:B *4983:A 5.62995e-05
24 *4186:A1 *4189:A1 0.00018372
25 *4189:B1 *4189:A1 2.27416e-05
26 *4189:B2 *4189:A1 0.000326505
27 *4190:B1 *4189:A1 1.33343e-05
28 *4261:A *999:29 0.000102197
29 *4317:A *999:65 0
30 *4318:A *999:67 4.72917e-05
31 *4318:B *999:65 0.000171375
32 *4381:A *4381:B 5.52238e-05
33 *4386:A *999:42 0.00022117
34 *4386:A *999:59 2.24646e-05
35 *4386:B *999:42 0.000128154
36 *4386:C *999:42 7.80714e-06
37 *4387:B1 *999:59 0.000150618
38 *4422:A *999:29 3.19564e-05
39 *4423:A1 *4423:B1 3.57366e-05
40 *4423:B2 *4423:B1 5.52238e-05
41 *4423:B2 *999:29 7.57869e-05
42 *4423:B2 *999:42 1.76135e-05
43 *4431:B1 *999:42 0
44 *4522:A1 *999:29 2.56694e-05
45 *4554:A2 *999:29 0
46 *4842:D *4983:A 0
47 *4984:A *4983:A 2.89016e-05
48 *4990:A *999:29 1.94945e-05
49 *196:14 *4189:A1 0.000352098
50 *196:14 *999:73 2.42082e-05
51 *199:10 *4189:A1 0
52 *199:10 *4347:B1 0.000168301
53 *199:10 *999:29 0
54 *199:10 *999:42 0
55 *199:10 *999:59 0
56 *199:10 *999:65 0
57 *224:42 *4983:A 0
58 *266:10 *4189:A1 9.60939e-05
59 *308:6 *999:59 5.33334e-05
60 *309:10 *999:59 3.48705e-05
61 *342:6 *4381:B 0.000487473
62 *344:22 *4381:B 2.59355e-05
63 *347:12 *999:59 0
64 *348:12 *999:59 0
65 *349:12 *999:59 0
66 *432:42 *999:29 0
67 *434:10 *999:29 0.000129868
68 *435:10 *999:29 3.92757e-05
69 *436:14 *999:29 0.000344917
70 *781:33 *4423:B1 4.43355e-05
71 *857:12 *999:42 0
72 *865:10 *4189:A1 4.1331e-06
73 *865:10 *4347:B1 0.000110717
74 *865:10 *999:73 1.88048e-05
75 *973:24 *4189:A1 2.24763e-05
76 *978:10 *999:29 8.4624e-06
77 *979:6 *999:29 0.000221634
78 *979:23 *999:29 0.000186669
79 *979:36 *999:29 0.00105012
80 *984:99 *4189:A1 0.000362472
81 *986:84 *999:65 0
82 *987:114 *4318:C 0
83 *987:114 *999:67 9.71197e-05
84 *987:114 *999:73 0.000269428
85 *993:19 *999:29 0
86 *993:34 *999:29 0
87 *997:27 *999:29 0.000350905
88 *997:42 *999:29 0
89 *997:55 *999:42 0
90 *998:6 *4983:A 9.90367e-05
*RES
1 *4984:X *999:4 9.3 
2 *999:4 *4983:A 25.1036 
3 *999:4 *999:29 45.9643 
4 *999:29 *4423:B1 15.5857 
5 *999:29 *999:42 10.4464 
6 *999:42 *4381:B 19.6929 
7 *999:42 *999:59 15.8036 
8 *999:59 *999:65 13.375 
9 *999:65 *999:67 3 
10 *999:67 *999:73 7.82143 
11 *999:73 *4319:A2 13.8 
12 *999:73 *4189:A1 41.1929 
13 *999:67 *4347:B1 22.675 
14 *999:65 *4318:C 10.0321 
15 *999:59 *4346:D 9.3 
*END

*D_NET *1000 0.027758
*CONN
*I *4549:A_N I *D sky130_fd_sc_hd__and4b_1
*I *4548:B1 I *D sky130_fd_sc_hd__o2bb2a_1
*I *4376:B I *D sky130_fd_sc_hd__nand2_1
*I *4296:A2 I *D sky130_fd_sc_hd__a22oi_2
*I *4295:C I *D sky130_fd_sc_hd__and4_1
*I *4505:A2 I *D sky130_fd_sc_hd__a31o_1
*I *4507:B I *D sky130_fd_sc_hd__and4b_1
*I *4506:A2_N I *D sky130_fd_sc_hd__o2bb2a_1
*I *4467:B I *D sky130_fd_sc_hd__nand2_1
*I *4162:A0 I *D sky130_fd_sc_hd__mux2_1
*I *4985:X O *D sky130_fd_sc_hd__buf_2
*CAP
1 *4549:A_N 2.65515e-05
2 *4548:B1 0.00010926
3 *4376:B 0
4 *4296:A2 3.64675e-05
5 *4295:C 0.000286903
6 *4505:A2 0
7 *4507:B 0.000187954
8 *4506:A2_N 0
9 *4467:B 0.000147076
10 *4162:A0 0.000325349
11 *4985:X 0
12 *1000:124 0.000236811
13 *1000:97 0.00241412
14 *1000:89 0.00277466
15 *1000:76 0.00071365
16 *1000:62 0.000470872
17 *1000:47 0.000959781
18 *1000:43 0.00113039
19 *1000:37 0.000671858
20 *1000:35 0.00251938
21 *1000:4 0.00284473
22 *4295:C *4317:B 5.80163e-05
23 *4295:C *1004:90 7.83587e-05
24 *4507:B *4506:B1 4.82745e-05
25 *1000:62 *4506:B1 2.77143e-05
26 *1000:97 *4317:B 9.40071e-05
27 *4162:A1 *4162:A0 5.28345e-05
28 *4167:A *1000:35 9.90367e-05
29 *4167:B *1000:35 0.000167934
30 *4259:B *4162:A0 2.8266e-06
31 *4296:A1 *4295:C 4.70048e-05
32 *4296:A1 *4296:A2 3.99614e-06
33 *4296:A1 *1000:97 5.04589e-05
34 *4314:A1 *1000:97 0
35 *4318:B *1000:97 0.000494858
36 *4349:B1 *1000:97 1.21258e-05
37 *4376:A *1000:97 0.000134748
38 *4381:A *1000:97 0.00109493
39 *4467:A *4467:B 0.00030128
40 *4470:B *1000:89 4.73656e-05
41 *4505:A1 *1000:47 0.000351156
42 *4506:A1_N *4507:B 8.23247e-06
43 *4506:A1_N *1000:62 7.77751e-05
44 *4507:C *4507:B 5.52302e-05
45 *4508:A *4507:B 1.90111e-05
46 *4559:A *1000:35 0.000175892
47 *4559:D *1000:35 9.41642e-05
48 *4599:B *1000:35 0.000545803
49 *4600:B *1000:35 4.87854e-05
50 *4841:CLK *4162:A0 0.000230432
51 *4967:A *1000:35 0.000148105
52 *4968:A *1000:97 0.000222885
53 *310:12 *1000:97 2.8266e-06
54 *347:12 *1000:97 0
55 *385:12 *1000:97 0
56 *391:12 *1000:97 0
57 *418:14 *1000:89 0.000443648
58 *428:10 *1000:43 0.00028855
59 *428:10 *1000:76 5.59013e-05
60 *428:10 *1000:89 1.02504e-05
61 *437:12 *1000:89 0.000275094
62 *463:16 *4467:B 1.98839e-05
63 *463:16 *1000:89 3.79467e-05
64 *471:12 *1000:43 0
65 *519:20 *4549:A_N 8.27532e-05
66 *519:20 *1000:43 9.60875e-05
67 *519:20 *1000:124 0.000694101
68 *556:12 *1000:35 9.25014e-06
69 *774:68 *4162:A0 0.000153054
70 *774:89 *4162:A0 4.18895e-05
71 *792:29 *1000:43 0.000556618
72 *792:29 *1000:76 2.82057e-05
73 *792:29 *1000:89 0.000406139
74 *792:33 *1000:89 0.000390395
75 *884:16 *1000:35 0.000579061
76 *977:23 *4548:B1 0.00019384
77 *977:31 *4548:B1 2.89114e-05
78 *978:49 *4548:B1 0.000146474
79 *978:60 *1000:35 0
80 *978:96 *4548:B1 5.59013e-05
81 *979:42 *1000:43 0
82 *979:61 *4467:B 0.000132452
83 *979:61 *1000:47 0.000432237
84 *979:61 *1000:62 9.90431e-05
85 *981:12 *1000:35 5.33005e-05
86 *982:23 *1000:97 0
87 *983:60 *1000:35 0.000243642
88 *983:60 *1000:43 0.000261234
89 *984:59 *1000:89 0
90 *986:84 *1000:97 0.000273269
91 *987:52 *4295:C 2.79092e-05
92 *994:63 *1000:35 0
93 *996:100 *4548:B1 9.60939e-05
94 *997:55 *1000:97 0
95 *997:136 *4549:A_N 9.41642e-05
96 *997:136 *1000:43 9.41642e-05
97 *997:136 *1000:124 0.000704608
*RES
1 *4985:X *1000:4 9.3 
2 *1000:4 *4162:A0 25.1929 
3 *1000:4 *1000:35 46.4107 
4 *1000:35 *1000:37 4.5 
5 *1000:37 *1000:43 19.5357 
6 *1000:43 *1000:47 12.0179 
7 *1000:47 *4467:B 22.7107 
8 *1000:47 *1000:62 3.82143 
9 *1000:62 *4506:A2_N 9.3 
10 *1000:62 *4507:B 11.8893 
11 *1000:43 *1000:76 0.732143 
12 *1000:76 *4505:A2 13.8 
13 *1000:76 *1000:89 23.4286 
14 *1000:89 *1000:97 45.3214 
15 *1000:97 *4295:C 22.3357 
16 *1000:97 *4296:A2 10.0321 
17 *1000:89 *4376:B 9.3 
18 *1000:37 *1000:124 6.69643 
19 *1000:124 *4548:B1 21.8 
20 *1000:124 *4549:A_N 10.2464 
*END

*D_NET *1001 0.0135059
*CONN
*I *4187:A1 I *D sky130_fd_sc_hd__a211o_1
*I *4318:D I *D sky130_fd_sc_hd__and4_1
*I *4345:B I *D sky130_fd_sc_hd__nand2_1
*I *4377:C I *D sky130_fd_sc_hd__and4_1
*I *4378:A2 I *D sky130_fd_sc_hd__a22o_1
*I *4319:B1 I *D sky130_fd_sc_hd__a22oi_2
*I *4986:X O *D sky130_fd_sc_hd__clkbuf_2
*CAP
1 *4187:A1 0
2 *4318:D 0
3 *4345:B 0
4 *4377:C 0.000189173
5 *4378:A2 3.66246e-05
6 *4319:B1 3.2236e-05
7 *4986:X 0.00013156
8 *1001:77 0.00117381
9 *1001:71 0.00126337
10 *1001:59 0.000559453
11 *1001:46 0.00133208
12 *1001:40 0.00250119
13 *1001:10 0.001577
14 *4377:C *4378:B1 2.77173e-05
15 *4378:A2 *4378:B1 5.7661e-06
16 *1001:40 *4271:C 6.87574e-05
17 *1001:40 *1010:22 2.47093e-05
18 *1001:46 *1007:136 0.000350157
19 *1001:59 *1005:106 0.000354105
20 *1001:71 *4317:B 0.000230271
21 *1001:71 *1005:106 0.000158981
22 *1001:77 *4378:B1 1.56e-05
23 *4186:A1 *1001:40 4.23644e-06
24 *4186:A2 *1001:40 5.6766e-05
25 *4186:B1 *1001:40 0.000141729
26 *4187:A2 *1001:10 0.000139202
27 *4187:A2 *1001:40 1.00332e-05
28 *4189:A1 *4319:B1 0
29 *4189:A1 *1001:46 0
30 *4189:B1 *1001:40 0
31 *4271:B *1001:40 9.58126e-05
32 *4282:B *1001:46 4.38128e-05
33 *4282:C *1001:46 0.000144773
34 *4283:B1 *1001:40 1.55885e-05
35 *4287:A *1001:40 2.6304e-05
36 *4314:A1 *1001:77 9.41642e-05
37 *4317:A *1001:71 0
38 *4318:B *1001:71 1.99099e-05
39 *4349:A2 *1001:71 2.00751e-05
40 *4381:A *1001:77 0
41 *4389:A *1001:77 2.44318e-05
42 *4389:B *1001:77 0.000355002
43 *4986:A *1001:40 0.000851134
44 *5068:A *1001:10 0.000139215
45 *180:125 *1001:40 0.000182497
46 *182:80 *1001:10 7.2344e-05
47 *182:80 *1001:40 5.37741e-06
48 *199:10 *4319:B1 2.84398e-05
49 *199:10 *1001:46 9.33907e-05
50 *244:12 *1001:40 0
51 *244:18 *1001:40 9.71197e-05
52 *244:18 *1001:46 1.39726e-05
53 *245:27 *1001:46 9.90431e-05
54 *246:21 *1001:40 4.3032e-05
55 *247:10 *1001:46 0.000144773
56 *263:16 *1001:46 5.74499e-06
57 *281:10 *1001:71 4.46186e-06
58 *308:21 *1001:71 0
59 *309:14 *1001:71 4.1331e-06
60 *309:14 *1001:77 5.85498e-05
61 *311:12 *1001:71 0
62 *339:14 *4377:C 0.000180777
63 *349:12 *1001:77 9.73841e-05
64 *350:14 *1001:77 5.7256e-05
65 *844:20 *1001:40 4.74238e-05
66 *865:10 *4319:B1 4.1331e-06
67 *972:32 *1001:40 5.12625e-05
68 *974:14 *1001:40 0
69 *986:84 *1001:71 0
70 *986:84 *1001:77 0
71 *999:59 *1001:77 0
72 *999:65 *1001:77 0
*RES
1 *4986:X *1001:10 17.1036 
2 *1001:10 *1001:40 48.2857 
3 *1001:40 *1001:46 24.125 
4 *1001:46 *4319:B1 14.5321 
5 *1001:46 *1001:59 7.91071 
6 *1001:59 *1001:71 20.5 
7 *1001:71 *1001:77 18.5179 
8 *1001:77 *4378:A2 10.0321 
9 *1001:77 *4377:C 11.8893 
10 *1001:71 *4345:B 13.8 
11 *1001:59 *4318:D 9.3 
12 *1001:10 *4187:A1 13.8 
*END

*D_NET *1002 0.0327281
*CONN
*I *4778:C1 I *D sky130_fd_sc_hd__a211oi_1
*I *4791:C1 I *D sky130_fd_sc_hd__a211oi_1
*I *4804:C1 I *D sky130_fd_sc_hd__a211oi_1
*I *4820:C1 I *D sky130_fd_sc_hd__a211oi_1
*I *4831:C1 I *D sky130_fd_sc_hd__a211oi_2
*I *4836:C1 I *D sky130_fd_sc_hd__a211oi_1
*I *4147:A I *D sky130_fd_sc_hd__inv_2
*I *4152:A I *D sky130_fd_sc_hd__nor3_1
*I *5066:X O *D sky130_fd_sc_hd__clkbuf_4
*CAP
1 *4778:C1 0
2 *4791:C1 0
3 *4804:C1 0.000170084
4 *4820:C1 2.23854e-05
5 *4831:C1 0.000949003
6 *4836:C1 0
7 *4147:A 0.00129589
8 *4152:A 1.7254e-05
9 *5066:X 0.000753674
10 *1002:78 0.00132864
11 *1002:54 0.00448203
12 *1002:46 0.00431262
13 *1002:30 0.0017041
14 *1002:28 0.00272344
15 *1002:22 0.00220975
16 *1002:12 0.00132769
17 *1002:30 *4820:A1 5.23057e-05
18 *1002:46 *4820:A1 0.000201017
19 *1002:46 *1010:146 0
20 *1002:54 *1009:100 0.00011006
21 *1002:78 *1009:100 0.000297235
22 *4231:A *1002:12 1.41029e-05
23 *4231:B *1002:12 0.000175526
24 *4232:B2 *1002:12 0
25 *4411:A2 *1002:46 0
26 *4778:A1 *1002:12 7.32272e-05
27 *4778:A2 *1002:12 1.76135e-05
28 *4778:B1 *1002:12 4.38128e-05
29 *4778:B1 *1002:22 0.000274294
30 *4783:B1 *1002:28 6.05161e-06
31 *4787:B *1002:28 0.000587304
32 *4789:A *1002:28 6.8646e-06
33 *4789:B *1002:28 0
34 *4790:A *1002:22 0.000227412
35 *4791:A1 *1002:22 5.90443e-06
36 *4791:A1 *1002:28 0.000119708
37 *4791:B1 *1002:22 0.000173799
38 *4792:B *1002:28 5.52302e-05
39 *4805:B *1002:28 5.93879e-05
40 *4805:C *1002:28 0.000399841
41 *4805:D *1002:28 8.6874e-05
42 *4820:A2 *1002:30 0.00048402
43 *4833:B1 *1002:78 0
44 *4836:A1 *4831:C1 1.19309e-05
45 *4836:A1 *1002:78 2.00751e-05
46 *4836:B1 *1002:78 7.83659e-05
47 *4837:D *4147:A 5.5782e-05
48 *4892:D *1002:46 0.00038053
49 *4892:D *1002:54 0
50 *4911:D *1002:22 0.000129868
51 *4917:CLK *1002:78 0.000102081
52 *4925:A *1002:28 1.18064e-05
53 *4936:A *1002:28 7.2754e-05
54 *5111:A *1002:28 2.44318e-05
55 *183:28 *1002:30 0.000128795
56 *183:28 *1002:54 0.00134935
57 *671:47 *1002:28 8.43535e-06
58 *772:94 *1002:28 4.78056e-05
59 *813:38 *1002:28 4.75428e-05
60 *825:12 *1002:46 0.000272371
61 *832:61 *4804:C1 0
62 *832:89 *4804:C1 0
63 *836:29 *1002:54 0.00139721
64 *837:85 *1002:22 0
65 *837:85 *1002:28 1.52978e-05
66 *837:87 *1002:28 9.71197e-05
67 *838:124 *4804:C1 0
68 *844:64 *1002:54 0.00169554
69 *844:81 *4831:C1 0.000322453
70 *844:81 *1002:46 0.000484511
71 *968:44 *4831:C1 3.34366e-05
72 *970:27 *1002:28 0.000647747
73 *970:27 *1002:30 0.000423124
74 *972:116 *1002:54 0.000101601
75 *972:144 *4831:C1 0
*RES
1 *5066:X *1002:12 32.55 
2 *1002:12 *1002:22 18.0714 
3 *1002:22 *1002:28 39.625 
4 *1002:28 *1002:30 17.7857 
5 *1002:30 *1002:46 28.4643 
6 *1002:46 *1002:54 19.1572 
7 *1002:54 *4152:A 14.0768 
8 *1002:54 *4147:A 37.7554 
9 *1002:46 *1002:78 9.89286 
10 *1002:78 *4836:C1 13.8 
11 *1002:78 *4831:C1 37.4429 
12 *1002:30 *4820:C1 9.72857 
13 *1002:28 *4804:C1 21.1571 
14 *1002:22 *4791:C1 13.8 
15 *1002:12 *4778:C1 9.3 
*END

*D_NET *1003 0.0111445
*CONN
*I *4460:A2_N I *D sky130_fd_sc_hd__o2bb2a_1
*I *4340:A2 I *D sky130_fd_sc_hd__a22oi_1
*I *4339:C I *D sky130_fd_sc_hd__and4_1
*I *4377:D I *D sky130_fd_sc_hd__and4_1
*I *4378:B1 I *D sky130_fd_sc_hd__a22o_1
*I *4414:C I *D sky130_fd_sc_hd__and4_1
*I *4416:A2 I *D sky130_fd_sc_hd__a22o_1
*I *4461:B I *D sky130_fd_sc_hd__and4b_1
*I *4507:A_N I *D sky130_fd_sc_hd__and4b_1
*I *4506:B1 I *D sky130_fd_sc_hd__o2bb2a_1
*I *4987:X O *D sky130_fd_sc_hd__clkbuf_2
*CAP
1 *4460:A2_N 0
2 *4340:A2 0.000372327
3 *4339:C 3.59559e-05
4 *4377:D 0
5 *4378:B1 0.000139887
6 *4414:C 4.36033e-05
7 *4416:A2 0
8 *4461:B 0.000184176
9 *4507:A_N 0
10 *4506:B1 0.000145055
11 *4987:X 0.00019572
12 *1003:93 0.000811155
13 *1003:75 0.000139887
14 *1003:73 0.00116287
15 *1003:54 0.000949276
16 *1003:45 0.000597246
17 *1003:30 0.00101092
18 *1003:12 0.000145055
19 *1003:10 0.000570896
20 *4340:A2 *4375:B 6.25394e-06
21 *4340:A2 *1006:67 2.83284e-06
22 *4340:A2 *1006:73 5.7836e-06
23 *4378:B1 *1006:67 0
24 *4414:C *4414:D 5.33005e-05
25 *1003:45 *4461:A_N 2.95641e-05
26 *1003:45 *1006:14 0.000135825
27 *1003:45 *1006:30 9.32406e-05
28 *1003:54 *1006:45 5.84075e-05
29 *1003:73 *1006:59 0.000367389
30 *1003:73 *1006:67 0
31 *1003:93 *1006:67 0
32 *4314:A1 *4378:B1 2.59355e-05
33 *4340:B2 *4340:A2 4.19624e-06
34 *4340:B2 *1003:93 1.89507e-06
35 *4341:B *4340:A2 1.94945e-05
36 *4377:C *4378:B1 2.77173e-05
37 *4378:A2 *4378:B1 5.7661e-06
38 *4379:A_N *1003:73 5.62995e-05
39 *4415:A *1003:45 0
40 *4415:A *1003:54 0
41 *4418:B1 *1003:30 1.721e-05
42 *4418:B1 *1003:45 0
43 *4461:C *4461:B 0.000268403
44 *4462:A *1003:30 9.25014e-06
45 *4506:A1_N *4506:B1 0.000144285
46 *4506:A1_N *1003:10 0
47 *4507:B *4506:B1 4.82745e-05
48 *4508:A *4506:B1 5.52238e-05
49 *4992:A *1003:45 0.00012401
50 *4992:A *1003:54 0.000216057
51 *161:52 *1003:10 0
52 *161:52 *1003:30 0
53 *161:65 *1003:30 0
54 *301:8 *4340:A2 7.13226e-06
55 *339:14 *4378:B1 0.000119135
56 *350:14 *4378:B1 0.000396898
57 *393:14 *1003:73 0.000219711
58 *977:46 *1003:10 5.84267e-05
59 *977:52 *1003:10 5.83233e-05
60 *977:52 *1003:30 0.000577594
61 *977:54 *4461:B 6.79902e-05
62 *977:68 *4461:B 4.05662e-05
63 *977:68 *1003:30 0
64 *977:68 *1003:45 0.00018202
65 *977:83 *1003:73 1.5942e-05
66 *977:106 *1003:73 0.000160571
67 *979:61 *1003:30 0
68 *979:76 *1003:54 0.000315887
69 *979:76 *1003:73 5.41794e-05
70 *979:89 *1003:73 0
71 *982:49 *4340:A2 0
72 *984:59 *1003:73 0.000127253
73 *984:70 *1003:73 5.80706e-06
74 *984:70 *1003:93 0.000413098
75 *1000:62 *4506:B1 2.77143e-05
76 *1001:77 *4378:B1 1.56e-05
*RES
1 *4987:X *1003:10 17.4071 
2 *1003:10 *1003:12 4.5 
3 *1003:12 *4506:B1 12.7107 
4 *1003:12 *4507:A_N 9.3 
5 *1003:10 *1003:30 13.0536 
6 *1003:30 *4461:B 13.1393 
7 *1003:30 *1003:45 13.5893 
8 *1003:45 *4416:A2 13.8 
9 *1003:45 *1003:54 4.375 
10 *1003:54 *4414:C 14.3357 
11 *1003:54 *1003:73 24.1429 
12 *1003:73 *1003:75 4.5 
13 *1003:75 *4378:B1 13.9786 
14 *1003:75 *4377:D 9.3 
15 *1003:73 *1003:93 9.83929 
16 *1003:93 *4339:C 14.3357 
17 *1003:93 *4340:A2 21.8724 
18 *1003:30 *4460:A2_N 9.3 
*END

*D_NET *1004 0.024662
*CONN
*I *4987:A I *D sky130_fd_sc_hd__clkbuf_2
*I *4295:D I *D sky130_fd_sc_hd__and4_1
*I *4317:B I *D sky130_fd_sc_hd__nand2_1
*I *4296:B1 I *D sky130_fd_sc_hd__a22oi_2
*I *4281:A2 I *D sky130_fd_sc_hd__a22oi_2
*I *4280:C I *D sky130_fd_sc_hd__and4_1
*I *4183:A1 I *D sky130_fd_sc_hd__a22o_1
*I *4160:A0 I *D sky130_fd_sc_hd__mux2_1
*I *4988:X O *D sky130_fd_sc_hd__buf_2
*CAP
1 *4987:A 0
2 *4295:D 0
3 *4317:B 0.00058092
4 *4296:B1 0
5 *4281:A2 0
6 *4280:C 4.59403e-05
7 *4183:A1 0.000344411
8 *4160:A0 9.2639e-05
9 *4988:X 5.78128e-05
10 *1004:137 0.0025027
11 *1004:90 0.000673628
12 *1004:84 0.000675567
13 *1004:57 0.000604616
14 *1004:49 0.000302654
15 *1004:43 0.00189605
16 *1004:27 0.00419454
17 *1004:10 0.00061749
18 *4317:B *1005:106 5.52238e-05
19 *1004:43 *1007:23 5.5782e-05
20 *1004:43 *1007:42 0.000179835
21 *1004:43 *1007:55 9.91086e-05
22 *1004:43 *1007:74 0.000471356
23 *1004:43 *1010:80 0
24 *4160:S *4160:A0 7.43578e-06
25 *4160:S *1004:27 4.13496e-05
26 *4177:B2 *1004:43 0.000148196
27 *4183:A2 *4183:A1 1.00073e-05
28 *4250:A0 *1004:27 0.000320146
29 *4250:A0 *1004:137 0.000621848
30 *4250:A1 *1004:27 5.65955e-05
31 *4250:S *1004:27 0.000138606
32 *4250:S *1004:137 4.18895e-05
33 *4251:B *1004:27 0.000143375
34 *4252:A0 *1004:137 3.03304e-05
35 *4252:A1 *1004:137 7.41433e-05
36 *4252:S *1004:137 0.00010986
37 *4271:A *1004:57 7.7591e-05
38 *4273:A *1004:43 0
39 *4280:B *4280:C 5.33005e-05
40 *4295:C *4317:B 5.80163e-05
41 *4295:C *1004:90 7.83587e-05
42 *4296:A1 *4317:B 0.000435571
43 *4317:A *4317:B 5.26184e-05
44 *4318:B *4317:B 0.000759882
45 *4468:A *1004:137 5.91336e-05
46 *4468:C *1004:137 0.000137983
47 *4468:D *1004:137 5.33005e-05
48 *4943:A *1004:10 0.000103267
49 *4975:A *1004:43 3.45894e-05
50 *4986:A *1004:49 0
51 *4986:A *1004:57 6.32411e-05
52 *4991:A *1004:43 7.8327e-05
53 *170:27 *1004:27 0.000281006
54 *180:44 *4183:A1 1.55885e-05
55 *182:14 *1004:43 0.000695865
56 *182:39 *1004:43 1.22398e-05
57 *224:10 *1004:43 0.00071967
58 *224:34 *1004:137 0.000579061
59 *234:25 *1004:43 0.000389847
60 *239:12 *1004:43 7.8327e-05
61 *259:10 *1004:90 0.000125724
62 *427:12 *1004:137 9.60939e-05
63 *774:64 *1004:43 0.000221163
64 *784:17 *1004:27 5.33614e-05
65 *784:17 *1004:43 0.000411289
66 *784:17 *1004:49 0.000210875
67 *784:17 *1004:57 3.77692e-05
68 *808:34 *1004:43 0
69 *841:77 *1004:43 9.36429e-05
70 *844:20 *1004:43 0
71 *844:20 *1004:49 0
72 *844:20 *1004:84 0
73 *844:35 *1004:10 0
74 *864:12 *1004:137 9.99644e-06
75 *973:24 *1004:90 0
76 *986:31 *1004:27 2.00997e-05
77 *986:31 *1004:137 0.000738863
78 *986:48 *4183:A1 2.84109e-05
79 *986:57 *4183:A1 0.000281928
80 *986:57 *4280:C 3.97677e-05
81 *986:78 *4317:B 0.000974356
82 *986:84 *4317:B 7.55342e-05
83 *987:52 *1004:90 0
84 *987:114 *1004:90 4.46186e-06
85 *989:19 *1004:43 3.5707e-05
86 *989:39 *1004:49 0.000153047
87 *989:39 *1004:84 0.000310051
88 *989:70 *1004:84 0.00035582
89 *989:77 *1004:84 4.88637e-05
90 *1000:97 *4317:B 9.40071e-05
91 *1001:71 *4317:B 0.000230271
*RES
1 *4988:X *1004:10 19.6393 
2 *1004:10 *4160:A0 10.6571 
3 *1004:10 *1004:27 19.4286 
4 *1004:27 *1004:43 49.6161 
5 *1004:43 *1004:49 7.74107 
6 *1004:49 *1004:57 13.1071 
7 *1004:57 *4183:A1 15.5857 
8 *1004:57 *4280:C 10.2464 
9 *1004:49 *4281:A2 9.3 
10 *1004:43 *1004:84 17.6518 
11 *1004:84 *1004:90 11.25 
12 *1004:90 *4296:B1 9.3 
13 *1004:90 *4317:B 39.1929 
14 *1004:84 *4295:D 9.3 
15 *1004:27 *1004:137 47.6429 
16 *1004:137 *4987:A 9.3 
*END

*D_NET *1005 0.0190476
*CONN
*I *4272:C I *D sky130_fd_sc_hd__nand4_1
*I *4270:A2 I *D sky130_fd_sc_hd__a22o_1
*I *4339:D I *D sky130_fd_sc_hd__and4_1
*I *4375:B I *D sky130_fd_sc_hd__nand2_1
*I *4294:B I *D sky130_fd_sc_hd__nand2_1
*I *4281:B1 I *D sky130_fd_sc_hd__a22oi_2
*I *4271:C I *D sky130_fd_sc_hd__and4_1
*I *4280:D I *D sky130_fd_sc_hd__and4_1
*I *4180:A1 I *D sky130_fd_sc_hd__a22o_1
*I *4158:A0 I *D sky130_fd_sc_hd__mux2_1
*I *4989:X O *D sky130_fd_sc_hd__buf_2
*CAP
1 *4272:C 6.06239e-05
2 *4270:A2 0
3 *4339:D 4.99353e-05
4 *4375:B 0.00123006
5 *4294:B 2.03441e-05
6 *4281:B1 0
7 *4271:C 0.000173816
8 *4280:D 4.76197e-05
9 *4180:A1 0.00049864
10 *4158:A0 0.000121122
11 *4989:X 6.25638e-05
12 *1005:106 0.00271191
13 *1005:93 0.00219374
14 *1005:56 0.000314272
15 *1005:52 0.000268327
16 *1005:48 0.00123467
17 *1005:40 0.00060228
18 *1005:30 0.000619805
19 *1005:17 0.00135047
20 *1005:6 0.000760913
21 *4271:C *4271:D 6.09982e-05
22 *4272:C *4272:D 5.52302e-05
23 *1005:17 *4266:A1 0.000197991
24 *1005:40 *4272:D 5.74499e-06
25 *1005:48 *1007:98 0
26 *1005:93 *1007:98 0.000158943
27 *1005:93 *1007:109 9.71197e-05
28 *4178:A1 *4180:A1 1.70399e-05
29 *4180:B2 *4180:A1 0.000788737
30 *4180:B2 *4272:C 2.6949e-05
31 *4180:B2 *1005:17 9.69119e-06
32 *4180:B2 *1005:30 0.000175404
33 *4267:B *4180:A1 0.00018372
34 *4269:B *1005:17 0
35 *4271:B *4271:C 7.73266e-05
36 *4273:A *1005:48 0
37 *4273:B *1005:48 1.08359e-05
38 *4273:C *1005:48 3.17148e-05
39 *4274:A2 *1005:40 0
40 *4274:A2 *1005:48 5.33005e-05
41 *4275:B *1005:40 0
42 *4280:B *4280:D 6.05161e-06
43 *4317:B *1005:106 5.52238e-05
44 *4318:A *1005:106 9.60939e-05
45 *4340:A1 *4339:D 9.90431e-05
46 *4340:A1 *4375:B 4.8035e-05
47 *4340:A1 *1005:106 2.58821e-05
48 *4340:A2 *4375:B 6.25394e-06
49 *4341:B *4375:B 1.40306e-05
50 *4343:B *4375:B 0.000142053
51 *4372:A2 *4375:B 2.14658e-05
52 *4886:CLK *1005:17 0
53 *4886:D *1005:17 0
54 *4989:A *1005:17 0
55 *180:48 *4180:A1 3.1001e-05
56 *180:78 *4158:A0 0.000186669
57 *180:78 *1005:6 8.76257e-05
58 *238:10 *1005:40 1.5424e-05
59 *238:10 *1005:48 4.08637e-05
60 *244:12 *1005:93 0.000105093
61 *245:10 *4271:C 4.57473e-05
62 *245:10 *4280:D 2.89016e-05
63 *246:10 *4271:C 1.69115e-05
64 *246:10 *1005:56 1.37292e-05
65 *301:8 *4375:B 9.83024e-06
66 *305:10 *4375:B 0.000341513
67 *351:20 *4375:B 0
68 *351:35 *4375:B 0
69 *797:24 *4180:A1 7.03295e-05
70 *797:24 *1005:17 0.000367389
71 *808:34 *1005:48 0
72 *844:20 *1005:48 0.000193184
73 *844:20 *1005:93 0
74 *866:25 *1005:17 0
75 *984:72 *1005:106 2.14658e-05
76 *984:78 *1005:106 0.000100625
77 *986:57 *4280:D 0.000140933
78 *986:57 *1005:93 6.05161e-06
79 *986:68 *4294:B 5.7661e-06
80 *986:68 *1005:93 0.000423193
81 *987:8 *4272:C 2.89114e-05
82 *987:8 *1005:40 9.90367e-05
83 *987:10 *1005:40 1.39841e-05
84 *987:41 *4272:C 0
85 *987:54 *1005:52 0.000170385
86 *987:54 *1005:93 0.000140933
87 *987:64 *1005:52 0.00010096
88 *987:64 *1005:56 0.000177941
89 *987:114 *1005:93 1.65169e-05
90 *987:114 *1005:106 0.000363735
91 *989:27 *1005:40 3.94327e-05
92 *989:33 *1005:48 0.000131553
93 *989:39 *1005:56 4.1331e-06
94 *989:48 *4271:C 1.69115e-05
95 *989:48 *1005:56 7.95487e-05
96 *999:67 *1005:106 4.35336e-05
97 *1001:40 *4271:C 6.87574e-05
98 *1001:59 *1005:106 0.000354105
99 *1001:71 *1005:106 0.000158981
*RES
1 *4989:X *1005:6 10.2464 
2 *1005:6 *4158:A0 11.0679 
3 *1005:6 *1005:17 16.4643 
4 *1005:17 *4180:A1 24.5143 
5 *1005:17 *1005:30 6.19643 
6 *1005:30 *1005:40 8.78571 
7 *1005:40 *1005:48 16.75 
8 *1005:48 *1005:52 3.42857 
9 *1005:52 *1005:56 7.35714 
10 *1005:56 *4280:D 15.1571 
11 *1005:56 *4271:C 17.5143 
12 *1005:52 *4281:B1 9.3 
13 *1005:48 *1005:93 23.7143 
14 *1005:93 *4294:B 9.72857 
15 *1005:93 *1005:106 26.75 
16 *1005:106 *4375:B 37.2286 
17 *1005:106 *4339:D 10.9786 
18 *1005:40 *4270:A2 9.3 
19 *1005:30 *4272:C 15.3714 
*END

*D_NET *1006 0.0106845
*CONN
*I *4414:D I *D sky130_fd_sc_hd__and4_1
*I *4413:A2 I *D sky130_fd_sc_hd__a31o_1
*I *4340:B1 I *D sky130_fd_sc_hd__a22oi_1
*I *4315:C I *D sky130_fd_sc_hd__and4_1
*I *4314:A2 I *D sky130_fd_sc_hd__a22oi_1
*I *4416:B1 I *D sky130_fd_sc_hd__a22o_1
*I *4460:B1 I *D sky130_fd_sc_hd__o2bb2a_1
*I *4461:A_N I *D sky130_fd_sc_hd__and4b_1
*I *4990:X O *D sky130_fd_sc_hd__clkbuf_2
*CAP
1 *4414:D 5.52056e-05
2 *4413:A2 0
3 *4340:B1 3.78538e-05
4 *4315:C 0
5 *4314:A2 3.66967e-05
6 *4416:B1 0
7 *4460:B1 0
8 *4461:A_N 0.000120074
9 *4990:X 0.0002758
10 *1006:73 0.000875069
11 *1006:67 0.0014095
12 *1006:59 0.00091624
13 *1006:45 0.000612655
14 *1006:30 0.000289694
15 *1006:14 0.000268629
16 *1006:8 0.00053957
17 *4314:A2 *4314:B1 2.28598e-05
18 *4314:A2 *1008:55 3.18676e-05
19 *1006:67 *1008:31 0
20 *1006:73 *1008:55 0.00028114
21 *4314:A1 *4314:A2 0.000125705
22 *4340:A2 *1006:67 2.83284e-06
23 *4340:A2 *1006:73 5.7836e-06
24 *4340:B2 *1006:67 9.54798e-06
25 *4340:B2 *1006:73 0.000110956
26 *4341:B *1006:67 1.28585e-05
27 *4342:A *1006:67 0.000276587
28 *4344:A *1006:73 0
29 *4344:B *1006:73 0
30 *4378:B1 *1006:67 0
31 *4379:A_N *1006:67 3.17148e-05
32 *4379:B *1006:59 9.90367e-05
33 *4379:B *1006:67 0
34 *4380:A *1006:59 0
35 *4380:B *1006:59 0.000137983
36 *4413:A1 *1006:67 3.07555e-05
37 *4414:B *4414:D 5.33005e-05
38 *4414:C *4414:D 5.33005e-05
39 *4418:B1 *4461:A_N 0.000312203
40 *4461:C *4461:A_N 0.00012747
41 *4992:A *1006:30 0.000100831
42 *4992:A *1006:45 0.000251915
43 *161:65 *4461:A_N 5.71472e-05
44 *161:65 *1006:14 2.14757e-05
45 *181:50 *4414:D 2.28499e-05
46 *181:50 *1006:45 1.39841e-05
47 *304:14 *1006:67 6.19965e-06
48 *313:10 *1006:73 0
49 *313:27 *1006:73 0
50 *316:10 *1006:73 0
51 *338:6 *1006:67 5.33005e-05
52 *339:14 *1006:59 2.8428e-05
53 *339:14 *1006:67 2.77289e-05
54 *350:14 *1006:59 6.42778e-05
55 *350:14 *1006:67 0.00014183
56 *373:12 *1006:59 6.71327e-05
57 *977:54 *4461:A_N 5.55213e-05
58 *977:68 *4461:A_N 0.000172005
59 *977:68 *1006:14 0
60 *977:83 *1006:45 0.000236638
61 *977:92 *1006:59 0.000412318
62 *977:117 *1006:59 0.000191403
63 *979:61 *1006:14 0.000250931
64 *979:61 *1006:30 0.000275163
65 *979:61 *1006:45 2.24646e-05
66 *979:89 *4414:D 4.27935e-05
67 *979:89 *1006:59 0
68 *979:106 *1006:59 0.000103128
69 *982:79 *1006:73 2.14658e-05
70 *982:83 *4314:A2 0.000120035
71 *982:83 *1006:73 7.61932e-05
72 *1003:45 *4461:A_N 2.95641e-05
73 *1003:45 *1006:14 0.000135825
74 *1003:45 *1006:30 9.32406e-05
75 *1003:54 *1006:45 5.84075e-05
76 *1003:73 *1006:59 0.000367389
77 *1003:73 *1006:67 0
78 *1003:93 *1006:67 0
*RES
1 *4990:X *1006:8 16.8 
2 *1006:8 *1006:14 9.01786 
3 *1006:14 *4461:A_N 13.9607 
4 *1006:14 *4460:B1 9.3 
5 *1006:8 *1006:30 3.76786 
6 *1006:30 *4416:B1 13.8 
7 *1006:30 *1006:45 10.1429 
8 *1006:45 *1006:59 21.1071 
9 *1006:59 *1006:67 16.7321 
10 *1006:67 *1006:73 21.5179 
11 *1006:73 *4314:A2 11.3179 
12 *1006:73 *4315:C 9.3 
13 *1006:67 *4340:B1 14.3357 
14 *1006:59 *4413:A2 9.3 
15 *1006:45 *4414:D 10.6571 
*END

*D_NET *1007 0.0158433
*CONN
*I *4303:A2 I *D sky130_fd_sc_hd__a22o_1
*I *4302:B I *D sky130_fd_sc_hd__nand4_1
*I *4271:D I *D sky130_fd_sc_hd__and4_1
*I *4279:B I *D sky130_fd_sc_hd__nand2_1
*I *4272:D I *D sky130_fd_sc_hd__nand4_1
*I *4270:B1 I *D sky130_fd_sc_hd__a22o_1
*I *4267:C I *D sky130_fd_sc_hd__and3_1
*I *4177:A1 I *D sky130_fd_sc_hd__a22o_1
*I *4266:A3 I *D sky130_fd_sc_hd__a31o_1
*I *4156:A0 I *D sky130_fd_sc_hd__mux2_1
*I *4991:X O *D sky130_fd_sc_hd__buf_2
*CAP
1 *4303:A2 0.000257794
2 *4302:B 4.36033e-05
3 *4271:D 0.000772475
4 *4279:B 0
5 *4272:D 0.000122076
6 *4270:B1 0
7 *4267:C 7.4956e-06
8 *4177:A1 0.000231305
9 *4266:A3 0.000258184
10 *4156:A0 0.000232733
11 *4991:X 0
12 *1007:136 0.00113142
13 *1007:109 0.00170574
14 *1007:98 0.000535617
15 *1007:76 0.000122076
16 *1007:74 0.000902298
17 *1007:55 0.000518501
18 *1007:42 0.000400574
19 *1007:23 0.000737292
20 *1007:4 0.00058366
21 *1007:74 *1010:80 0
22 *4155:C *4156:A0 0.000396427
23 *4177:B2 *4177:A1 2.14757e-05
24 *4177:B2 *1007:42 4.58194e-05
25 *4178:A1 *4266:A3 0.000441731
26 *4178:A1 *4267:C 1.95435e-05
27 *4178:B1 *4177:A1 3.30803e-05
28 *4178:C1 *4177:A1 0
29 *4180:B2 *4267:C 9.50968e-06
30 *4189:B2 *4302:B 5.33005e-05
31 *4266:A2 *4266:A3 9.90431e-05
32 *4268:B *4177:A1 9.41642e-05
33 *4269:B *4266:A3 5.62995e-05
34 *4271:B *4271:D 2.04825e-05
35 *4271:C *4271:D 6.09982e-05
36 *4272:B *4272:D 5.71472e-05
37 *4272:B *1007:74 2.24646e-05
38 *4272:B *1007:98 4.29471e-05
39 *4272:C *4272:D 5.52302e-05
40 *4273:A *1007:74 0.00021529
41 *4273:B *1007:74 7.38652e-05
42 *4273:C *1007:74 7.80714e-06
43 *4303:B1 *4303:A2 5.33005e-05
44 *4303:B2 *4303:A2 0.000184438
45 *4973:A *4272:D 1.04232e-05
46 *4975:A *1007:23 0.000151333
47 *4975:A *1007:42 0.000148903
48 *4991:A *1007:23 0.00013616
49 *181:38 *1007:42 9.60875e-05
50 *182:14 *1007:42 4.46186e-06
51 *182:39 *1007:42 9.62236e-05
52 *182:39 *1007:55 8.98585e-05
53 *182:39 *1007:74 0.000236814
54 *194:12 *4303:A2 0
55 *194:12 *1007:136 0
56 *234:25 *1007:74 2.14474e-05
57 *238:10 *4272:D 0.000139907
58 *239:12 *1007:74 0.000357952
59 *244:12 *1007:109 6.35819e-05
60 *244:12 *1007:136 3.24989e-05
61 *263:16 *1007:136 0.000447622
62 *264:21 *4303:A2 0.000149131
63 *265:10 *4303:A2 5.59013e-05
64 *265:10 *1007:136 0.000268521
65 *267:12 *4303:A2 9.46929e-05
66 *285:12 *1007:136 0.000117054
67 *772:48 *4303:A2 7.79781e-06
68 *772:48 *1007:136 0.000165895
69 *773:6 *1007:23 5.30637e-06
70 *773:10 *4156:A0 1.83136e-05
71 *773:10 *1007:23 4.26242e-05
72 *986:68 *1007:109 9.90431e-05
73 *987:8 *4272:D 4.51526e-05
74 *987:10 *4272:D 5.52302e-05
75 *989:23 *1007:74 0.000173804
76 *989:27 *4272:D 5.33005e-05
77 *989:33 *1007:74 3.17148e-05
78 *989:33 *1007:98 0.000381318
79 *1001:46 *1007:136 0.000350157
80 *1004:43 *1007:23 5.5782e-05
81 *1004:43 *1007:42 0.000179835
82 *1004:43 *1007:55 9.91086e-05
83 *1004:43 *1007:74 0.000471356
84 *1005:40 *4272:D 5.74499e-06
85 *1005:48 *1007:98 0
86 *1005:93 *1007:98 0.000158943
87 *1005:93 *1007:109 9.71197e-05
*RES
1 *4991:X *1007:4 9.3 
2 *1007:4 *4156:A0 23.8179 
3 *1007:4 *1007:23 10.2679 
4 *1007:23 *4266:A3 19.675 
5 *1007:23 *1007:42 13.2321 
6 *1007:42 *4177:A1 16.8179 
7 *1007:42 *1007:55 1.33929 
8 *1007:55 *4267:C 13.9964 
9 *1007:55 *1007:74 22.9107 
10 *1007:74 *1007:76 4.5 
11 *1007:76 *4270:B1 9.3 
12 *1007:76 *4272:D 12.7286 
13 *1007:74 *1007:98 14.6964 
14 *1007:98 *4279:B 9.3 
15 *1007:98 *1007:109 6.9375 
16 *1007:109 *4271:D 22.6326 
17 *1007:109 *1007:136 28.2768 
18 *1007:136 *4302:B 14.3357 
19 *1007:136 *4303:A2 19.8536 
*END

*D_NET *1008 0.0101947
*CONN
*I *4417:A_N I *D sky130_fd_sc_hd__and4b_1
*I *4418:B2 I *D sky130_fd_sc_hd__o2bb2a_1
*I *4315:D I *D sky130_fd_sc_hd__and4_1
*I *4314:B1 I *D sky130_fd_sc_hd__a22oi_1
*I *4372:C1 I *D sky130_fd_sc_hd__o211a_1
*I *4373:A2 I *D sky130_fd_sc_hd__a211oi_1
*I *4342:B I *D sky130_fd_sc_hd__nand2_1
*I *4992:X O *D sky130_fd_sc_hd__clkbuf_2
*CAP
1 *4417:A_N 0
2 *4418:B2 0.000382644
3 *4315:D 0
4 *4314:B1 0.000199627
5 *4372:C1 7.6997e-05
6 *4373:A2 0
7 *4342:B 0
8 *4992:X 0
9 *1008:73 0.000481629
10 *1008:55 0.00180801
11 *1008:33 7.6997e-05
12 *1008:31 0.0021274
13 *1008:14 0.00137248
14 *1008:4 0.000952451
15 *4314:A1 *4314:B1 0.000186662
16 *4314:A2 *4314:B1 2.28598e-05
17 *4314:A2 *1008:55 3.18676e-05
18 *4342:A *1008:14 0
19 *4344:A *1008:55 0
20 *4354:A2 *1008:55 0
21 *4372:A1 *1008:31 0
22 *4372:A2 *4372:C1 0.00014183
23 *4372:B1 *4372:C1 0.000148435
24 *4374:B *4372:C1 9.80173e-05
25 *4374:B *1008:55 0
26 *4379:B *1008:14 0.000168217
27 *4380:B *1008:14 0.000121573
28 *4413:A1 *1008:14 0
29 *4417:D *4418:B2 3.76865e-05
30 *4418:A1_N *4418:B2 1.68667e-05
31 *181:46 *1008:14 0
32 *301:19 *4372:C1 0.000142856
33 *304:14 *1008:31 2.94854e-05
34 *305:10 *4372:C1 3.03304e-05
35 *306:10 *1008:55 0
36 *314:18 *1008:55 0
37 *315:10 *1008:55 7.83587e-05
38 *376:14 *4418:B2 4.87953e-05
39 *377:6 *4418:B2 0.0001399
40 *393:14 *1008:14 0.000318309
41 *441:10 *1008:14 0
42 *977:83 *1008:14 0.000128154
43 *977:92 *1008:14 0.000211336
44 *977:117 *4372:C1 5.52302e-05
45 *977:117 *1008:14 0.00022751
46 *977:117 *1008:31 3.2006e-05
47 *982:83 *4314:B1 1.90213e-05
48 *1006:67 *1008:31 0
49 *1006:73 *1008:55 0.00028114
*RES
1 *4992:X *1008:4 9.3 
2 *1008:4 *1008:14 23.1429 
3 *1008:14 *4342:B 13.8 
4 *1008:14 *1008:31 16.1071 
5 *1008:31 *1008:33 4.5 
6 *1008:33 *4373:A2 9.3 
7 *1008:33 *4372:C1 12.8536 
8 *1008:31 *1008:55 27.5893 
9 *1008:55 *4314:B1 12.3179 
10 *1008:55 *4315:D 9.3 
11 *1008:4 *1008:73 1.67857 
12 *1008:73 *4418:B2 14.5679 
13 *1008:73 *4417:A_N 9.3 
*END

*D_NET *1009 0.019933
*CONN
*I *4371:A1 I *D sky130_fd_sc_hd__o211a_1
*I *4830:A I *D sky130_fd_sc_hd__nor2_1
*I *4831:A2 I *D sky130_fd_sc_hd__a211oi_2
*I *4835:B I *D sky130_fd_sc_hd__nor2_1
*I *4820:A1 I *D sky130_fd_sc_hd__a211oi_1
*I *4411:A1 I *D sky130_fd_sc_hd__o211a_1
*I *4410:A I *D sky130_fd_sc_hd__nand2_1
*I *4337:S I *D sky130_fd_sc_hd__mux2_1
*I *4313:A1 I *D sky130_fd_sc_hd__o211a_1
*I *4312:A I *D sky130_fd_sc_hd__nand2_1
*I *4993:X O *D sky130_fd_sc_hd__buf_2
*CAP
1 *4371:A1 0
2 *4830:A 1.03866e-05
3 *4831:A2 0
4 *4835:B 3.59657e-05
5 *4820:A1 0.000460294
6 *4411:A1 1.46205e-05
7 *4410:A 0
8 *4337:S 2.23854e-05
9 *4313:A1 0.000136524
10 *4312:A 2.97384e-05
11 *4993:X 0
12 *1009:121 0.000975804
13 *1009:100 0.00136422
14 *1009:80 0.000579123
15 *1009:67 0.000104208
16 *1009:65 0.00144894
17 *1009:55 0.00152863
18 *1009:42 0.000879865
19 *1009:16 0.000486965
20 *1009:6 0.000735654
21 *4820:A1 *1010:146 0.000523831
22 *1009:80 *1010:146 0.000156902
23 *4191:B1 *1009:16 5.37741e-06
24 *4191:B1 *1009:42 4.6361e-05
25 *4191:C1 *1009:42 6.05161e-06
26 *4313:A2 *4313:A1 0.000220135
27 *4313:B1 *4313:A1 1.59373e-05
28 *4337:A1 *1009:42 9.90431e-05
29 *4369:A *1009:65 0.000358971
30 *4370:B *1009:65 0
31 *4409:A *1009:65 0.000276211
32 *4410:B *1009:65 5.67286e-05
33 *4411:A2 *4411:A1 1.04232e-05
34 *4411:A2 *4820:A1 0.000276186
35 *4411:A2 *1009:80 3.18676e-05
36 *4411:C1 *1009:80 7.19792e-05
37 *4823:A *1009:121 4.57538e-05
38 *4823:B *1009:121 0.000142856
39 *4824:A *1009:121 0
40 *4831:A1 *4830:A 0.00010096
41 *4831:A1 *1009:121 5.52302e-05
42 *4831:B1 *4830:A 8.76257e-05
43 *4831:B1 *1009:121 5.52302e-05
44 *4833:A1 *1009:121 0.000443654
45 *4833:A2 *1009:121 0.000173921
46 *4834:A1 *1009:121 2.8833e-05
47 *4836:A1 *1009:121 0.000112047
48 *4836:B1 *4835:B 1.58163e-05
49 *4836:B1 *1009:121 2.79421e-05
50 *4891:D *1009:55 6.8646e-06
51 *4917:CLK *1009:100 0.000559558
52 *4939:A *1009:16 1.99451e-05
53 *4939:A *1009:42 0.000137561
54 *183:28 *4820:A1 0.000114878
55 *183:28 *1009:65 0.000152904
56 *759:10 *1009:121 4.57538e-05
57 *775:59 *4312:A 0
58 *775:59 *1009:16 0
59 *775:70 *1009:16 0
60 *775:70 *1009:42 0
61 *775:89 *1009:42 3.83716e-05
62 *776:21 *1009:55 0.000622874
63 *820:16 *1009:121 0
64 *825:12 *1009:55 9.52728e-05
65 *836:29 *1009:42 0.000126401
66 *836:29 *1009:55 0.000231426
67 *839:81 *4312:A 5.58941e-05
68 *839:81 *1009:16 0.000281013
69 *839:93 *4337:S 0
70 *839:93 *1009:42 0.00112029
71 *839:93 *1009:55 0.000497794
72 *844:52 *1009:42 0.000840919
73 *844:52 *1009:55 0.00192808
74 *844:64 *1009:55 5.80706e-06
75 *844:64 *1009:65 1.5816e-05
76 *844:64 *1009:100 4.6025e-06
77 *844:81 *4820:A1 5.91452e-05
78 *844:81 *1009:80 5.19723e-05
79 *844:81 *1009:121 0
80 *1002:30 *4820:A1 5.23057e-05
81 *1002:46 *4820:A1 0.000201017
82 *1002:54 *1009:100 0.00011006
83 *1002:78 *1009:100 0.000297235
*RES
1 *4993:X *1009:6 13.8 
2 *1009:6 *1009:16 7.01786 
3 *1009:16 *4312:A 14.5321 
4 *1009:16 *4313:A1 16.7107 
5 *1009:6 *1009:42 19.1071 
6 *1009:42 *4337:S 9.72857 
7 *1009:42 *1009:55 24.5357 
8 *1009:55 *1009:65 27.3929 
9 *1009:65 *1009:67 4.5 
10 *1009:67 *4410:A 9.3 
11 *1009:67 *1009:80 3.46429 
12 *1009:80 *4411:A1 9.72857 
13 *1009:80 *4820:A1 21.7464 
14 *1009:65 *1009:100 14.875 
15 *1009:100 *4835:B 9.83571 
16 *1009:100 *1009:121 30.0179 
17 *1009:121 *4831:A2 9.3 
18 *1009:121 *4830:A 10.2464 
19 *1009:55 *4371:A1 13.8 
*END

*D_NET *1010 0.0272035
*CONN
*I *4834:B1 I *D sky130_fd_sc_hd__o31a_1
*I *4370:A I *D sky130_fd_sc_hd__nand2_1
*I *4993:A I *D sky130_fd_sc_hd__buf_2
*I *4266:A1 I *D sky130_fd_sc_hd__a31o_1
*I *4268:A I *D sky130_fd_sc_hd__nand2_1
*I *4277:A I *D sky130_fd_sc_hd__nand2_1
*I *4278:A1 I *D sky130_fd_sc_hd__o211a_1
*I *4292:A I *D sky130_fd_sc_hd__nand2_1
*I *4293:A1 I *D sky130_fd_sc_hd__o211a_1
*I *4994:X O *D sky130_fd_sc_hd__buf_2
*CAP
1 *4834:B1 0
2 *4370:A 3.59775e-05
3 *4993:A 3.88172e-05
4 *4266:A1 0.000410846
5 *4268:A 2.49249e-05
6 *4277:A 1.20576e-05
7 *4278:A1 0
8 *4292:A 2.23854e-05
9 *4293:A1 0.00025512
10 *4994:X 0
11 *1010:146 0.00195555
12 *1010:131 0.00440896
13 *1010:114 0.00267981
14 *1010:80 0.00165285
15 *1010:61 0.00135974
16 *1010:52 0.000772526
17 *1010:24 0.000355649
18 *1010:22 0.00203965
19 *1010:4 0.00154315
20 *4176:B *1010:22 0
21 *4178:A1 *1010:80 2.82057e-05
22 *4180:B2 *1010:80 0
23 *4184:A1 *1010:52 0
24 *4185:C1 *4293:A1 5.83304e-05
25 *4187:A2 *1010:22 9.47456e-05
26 *4189:B1 *1010:22 0
27 *4190:C1 *1010:131 0.000809581
28 *4196:C1 *1010:131 0.000305671
29 *4197:B1 *1010:131 6.78055e-06
30 *4266:A2 *4266:A1 7.43578e-06
31 *4269:A *1010:80 1.0562e-05
32 *4269:B *4266:A1 0
33 *4269:B *1010:80 0
34 *4269:C *1010:80 7.83587e-05
35 *4273:A *1010:80 7.2754e-05
36 *4273:C *1010:80 0
37 *4274:A1 *1010:80 9.33978e-07
38 *4275:B *1010:80 2.89016e-05
39 *4276:A *1010:80 4.3275e-05
40 *4276:B *1010:80 2.65396e-05
41 *4277:B *4277:A 0
42 *4277:B *1010:80 0.000159211
43 *4278:A2 *1010:52 0.00015234
44 *4278:C1 *4277:A 1.04232e-05
45 *4278:C1 *1010:61 2.89016e-05
46 *4278:C1 *1010:80 1.98839e-05
47 *4288:A *1010:22 0
48 *4290:B1 *1010:80 6.7279e-05
49 *4291:A *1010:22 0.000153054
50 *4292:B *1010:22 0.000310286
51 *4292:B *1010:24 5.52238e-05
52 *4293:B1 *4293:A1 6.05161e-06
53 *4293:C1 *1010:52 4.57538e-05
54 *4310:A1 *1010:22 0
55 *4371:A2 *1010:131 6.97409e-05
56 *4371:A2 *1010:146 0.000191796
57 *4371:C1 *4370:A 1.05731e-05
58 *4371:C1 *1010:131 9.80173e-05
59 *4411:A2 *1010:146 0.000123295
60 *4411:C1 *1010:146 9.80173e-05
61 *4820:A1 *1010:146 0.000523831
62 *4833:A2 *1010:146 5.10822e-05
63 *4833:B1 *1010:146 0
64 *4848:CLK *1010:52 0
65 *4886:CLK *4266:A1 0.000183726
66 *4886:D *4266:A1 8.90236e-05
67 *4887:CLK *1010:52 0
68 *4887:D *1010:52 3.5707e-05
69 *4888:CLK *4293:A1 0.000135028
70 *4891:D *1010:131 1.86687e-05
71 *4975:A *1010:80 1.37292e-05
72 *169:26 *1010:22 0.000310583
73 *179:10 *1010:22 0
74 *180:12 *1010:22 0
75 *180:22 *1010:22 0.000233336
76 *181:38 *4266:A1 0.000106121
77 *181:38 *4268:A 2.27416e-05
78 *182:53 *1010:52 0.000588297
79 *182:68 *1010:52 0.000528973
80 *183:18 *1010:22 0.000110862
81 *183:18 *1010:114 0.00015052
82 *183:18 *1010:131 0.000775563
83 *183:28 *1010:146 0.00024212
84 *196:14 *1010:131 5.33005e-05
85 *241:8 *1010:80 1.15281e-05
86 *255:10 *1010:80 0.000186765
87 *764:12 *1010:146 2.39876e-05
88 *775:59 *1010:22 0
89 *819:23 *1010:52 0
90 *825:25 *1010:146 0.000160702
91 *839:40 *1010:52 0
92 *839:49 *4293:A1 0.000154762
93 *841:18 *1010:61 0.000140933
94 *841:18 *1010:80 0.000351105
95 *843:16 *1010:22 0
96 *843:16 *1010:114 3.42301e-05
97 *843:42 *1010:22 0.00041304
98 *843:50 *4293:A1 9.30093e-05
99 *844:35 *1010:52 0
100 *844:81 *1010:146 0.000209555
101 *955:10 *1010:22 5.5782e-05
102 *972:51 *1010:52 0
103 *972:116 *1010:131 2.42095e-05
104 *974:14 *1010:22 0
105 *989:19 *1010:80 5.10822e-05
106 *989:23 *1010:80 0
107 *1001:40 *1010:22 2.47093e-05
108 *1002:46 *1010:146 0
109 *1004:43 *1010:80 0
110 *1005:17 *4266:A1 0.000197991
111 *1007:74 *1010:80 0
112 *1009:80 *1010:146 0.000156902
*RES
1 *4994:X *1010:4 9.3 
2 *1010:4 *1010:22 37.875 
3 *1010:22 *1010:24 1.35714 
4 *1010:24 *4293:A1 23.3714 
5 *1010:24 *4292:A 9.72857 
6 *1010:22 *1010:52 25.5179 
7 *1010:52 *4278:A1 9.3 
8 *1010:52 *1010:61 2.60714 
9 *1010:61 *4277:A 9.72857 
10 *1010:61 *1010:80 29.7857 
11 *1010:80 *4268:A 9.83571 
12 *1010:80 *4266:A1 26.8893 
13 *1010:4 *1010:114 12.2143 
14 *1010:114 *4993:A 10.0321 
15 *1010:114 *1010:131 35.7321 
16 *1010:131 *4370:A 10.0321 
17 *1010:131 *1010:146 40.7857 
18 *1010:146 *4834:B1 9.3 
*END

*D_NET *1011 0.0100298
*CONN
*I *4725:A1 I *D sky130_fd_sc_hd__o221a_1
*I *4724:B1 I *D sky130_fd_sc_hd__o31ai_1
*I *4712:B1 I *D sky130_fd_sc_hd__o21ai_1
*I *4713:A1 I *D sky130_fd_sc_hd__o211a_1
*I *4684:A I *D sky130_fd_sc_hd__nand2_1
*I *4685:A1 I *D sky130_fd_sc_hd__o211a_1
*I *4656:A1 I *D sky130_fd_sc_hd__o211a_1
*I *4655:A I *D sky130_fd_sc_hd__nand2_1
*I *4621:A1 I *D sky130_fd_sc_hd__o211a_1
*I *4620:B1 I *D sky130_fd_sc_hd__o21ai_1
*I *4995:X O *D sky130_fd_sc_hd__buf_2
*CAP
1 *4725:A1 0.000259063
2 *4724:B1 0
3 *4712:B1 0
4 *4713:A1 0.000184888
5 *4684:A 8.61686e-05
6 *4685:A1 0
7 *4656:A1 2.84794e-05
8 *4655:A 0.000164876
9 *4621:A1 0
10 *4620:B1 0.000173755
11 *4995:X 0.000119433
12 *1011:116 0.000426013
13 *1011:54 0.000743577
14 *1011:44 0.000695297
15 *1011:42 0.000667953
16 *1011:40 0.000779108
17 *1011:38 0.000270331
18 *1011:36 0.00146859
19 *1011:21 0.0012697
20 *1011:8 0.000374068
21 *4621:C1 *1011:21 0
22 *4656:B1 *4655:A 1.87955e-05
23 *4656:B1 *1011:54 0
24 *4685:C1 *1011:44 0
25 *4685:C1 *1011:54 0
26 *4710:B1 *1011:36 0.000272371
27 *4710:B1 *1011:38 0
28 *4710:B1 *1011:40 0
29 *4711:A *1011:36 5.33005e-05
30 *4713:A2 *4713:A1 4.22908e-05
31 *4713:C1 *1011:40 4.03318e-05
32 *4713:C1 *1011:42 2.8266e-06
33 *4723:A1 *4725:A1 5.52302e-05
34 *4723:B1 *4725:A1 0.000174745
35 *4724:A3 *4725:A1 0
36 *4725:B1 *4725:A1 0.000148189
37 *4725:B2 *1011:116 1.02504e-05
38 *4728:A *1011:36 0.000239712
39 *4897:CLK *4620:B1 5.58941e-05
40 *4897:CLK *1011:21 0.000125731
41 *4897:CLK *1011:36 0.000175519
42 *4898:CLK *4656:A1 0
43 *4898:CLK *1011:54 0
44 *4901:CLK *4725:A1 0
45 *4995:A *4620:B1 0
46 *4995:A *1011:36 0
47 *181:60 *4725:A1 0
48 *573:10 *4620:B1 0
49 *574:25 *4620:B1 0.000175493
50 *574:25 *1011:8 0.000186662
51 *663:21 *1011:38 0
52 *663:21 *1011:116 0
53 *671:14 *4620:B1 0
54 *778:25 *4725:A1 7.80714e-06
55 *778:27 *4725:A1 9.69119e-06
56 *778:27 *1011:38 0
57 *778:27 *1011:40 0
58 *778:27 *1011:116 0
59 *778:29 *1011:40 0
60 *778:29 *1011:42 0
61 *778:31 *1011:42 0
62 *778:31 *1011:44 0
63 *778:31 *1011:54 0
64 *778:33 *1011:54 0
65 *778:161 *4725:A1 9.66517e-05
66 *800:14 *4655:A 1.74352e-05
67 *800:14 *4656:A1 2.08464e-05
68 *800:14 *1011:54 6.84283e-05
69 *800:27 *4655:A 0.000183726
70 *800:27 *4656:A1 3.57366e-05
71 *802:26 *1011:40 0
72 *849:43 *4713:A1 0.000100873
*RES
1 *4995:X *1011:8 15.5679 
2 *1011:8 *4620:B1 17.8357 
3 *1011:8 *1011:21 1.64286 
4 *1011:21 *4621:A1 13.8 
5 *1011:21 *1011:36 29.4464 
6 *1011:36 *1011:38 1.94643 
7 *1011:38 *1011:40 2.55357 
8 *1011:40 *1011:42 7.71429 
9 *1011:42 *1011:44 2.25 
10 *1011:44 *1011:54 13.625 
11 *1011:54 *4655:A 21.2107 
12 *1011:54 *4656:A1 10.0321 
13 *1011:44 *4685:A1 13.8 
14 *1011:42 *4684:A 15.1571 
15 *1011:40 *4713:A1 17.7821 
16 *1011:38 *4712:B1 13.8 
17 *1011:36 *1011:116 7.35714 
18 *1011:116 *4724:B1 9.3 
19 *1011:116 *4725:A1 24.4071 
*END

*D_NET *1012 0.0086073
*CONN
*I *4732:B1_N I *D sky130_fd_sc_hd__a21bo_1
*I *4733:A1 I *D sky130_fd_sc_hd__o211a_1
*I *4588:A1 I *D sky130_fd_sc_hd__o211a_1
*I *4587:A I *D sky130_fd_sc_hd__nand2_1
*I *4545:A1 I *D sky130_fd_sc_hd__o211a_1
*I *4996:X O *D sky130_fd_sc_hd__dlymetal6s2s_1
*CAP
1 *4732:B1_N 4.90871e-05
2 *4733:A1 0.000116184
3 *4588:A1 0.000182445
4 *4587:A 0
5 *4545:A1 6.69871e-05
6 *4996:X 0
7 *1012:51 0.00148761
8 *1012:23 0.000623122
9 *1012:15 0.00188976
10 *1012:4 0.000193729
11 *4203:A *1012:51 0.000244097
12 *4203:B *1012:51 3.70128e-05
13 *4204:B2 *4732:B1_N 5.52238e-05
14 *4204:B2 *1012:51 0.00161482
15 *4587:B *1012:23 5.71472e-05
16 *4588:C1 *4588:A1 0
17 *4588:C1 *1012:23 1.74352e-05
18 *4732:A1 *4732:B1_N 5.52238e-05
19 *4895:D *1012:15 0
20 *4895:D *1012:51 0.000450889
21 *4902:D *4733:A1 4.87854e-05
22 *4995:A *4588:A1 0
23 *5030:A *1012:15 5.4061e-05
24 *5030:A *1012:23 2.97756e-05
25 *542:10 *4588:A1 0
26 *542:10 *1012:23 0
27 *662:20 *4733:A1 0
28 *772:114 *4588:A1 1.39726e-05
29 *772:114 *1012:23 7.77751e-05
30 *804:22 *4733:A1 9.41642e-05
31 *828:12 *1012:23 7.92879e-05
32 *828:30 *1012:51 5.06983e-05
33 *836:65 *4545:A1 0.000449539
34 *838:118 *1012:51 0.00011661
35 *847:86 *4732:B1_N 5.41794e-05
36 *847:86 *4733:A1 0.000148903
37 *966:94 *4545:A1 0.000248788
*RES
1 *4996:X *1012:4 9.3 
2 *1012:4 *4545:A1 13.5321 
3 *1012:4 *1012:15 6.75 
4 *1012:15 *1012:23 13.6964 
5 *1012:23 *4587:A 9.3 
6 *1012:23 *4588:A1 21.0857 
7 *1012:15 *1012:51 32.875 
8 *1012:51 *4733:A1 16.6929 
9 *1012:51 *4732:B1_N 15.0679 
*END
